80
charge=0
O       0.97449719     -1.46292166     -2.64158933
O      -2.05871089     -1.78820827      0.93256616
O      -2.39618061     -1.19497787     -1.57941646
O       0.72459061     -3.09416672     -1.20655932
C       0.64901116     -1.91620963     -1.54558018
C       0.42592437      0.50208437     -0.87562117
C       0.15008700     -0.94268940     -0.50679370
C      -1.83271643      0.76921925      0.14872418
C      -0.45364962      1.41988560     -0.01813707
N      -0.53719178      2.78071959     -0.62974803
S      -1.65709099     -1.00189991     -0.28245265
H       0.16147074      0.64361927     -1.92919794
H       1.49074537      0.75300746     -0.78923870
H       0.59743615     -1.18993150      0.45919607
H      -2.20769449      0.86385159      1.17143705
H      -2.56362657      1.22525478     -0.51566193
H       0.01352631      1.49841307      0.98193128
H       0.38371263      3.25187752     -0.60060077
H      -1.19475956      3.40192455     -0.12999632
H      -0.83030849      2.69710069     -1.61874300
O      -1.76432147      2.49626531      2.58788861
H      -1.90891638      3.31786164      2.08060604
H      -0.92453414      2.64588122      3.06400669
O      -3.87051943     -3.45389158     -0.33571525
H      -3.43497700     -2.74277723     -0.84428407
H      -3.70450666     -3.19855952      0.58941358
O      -0.16131368     -4.56568091      1.12547245
H      -0.88350552     -5.10737445      0.76672194
H       0.15351105     -4.07003886      0.34007964
O       3.79676022     -1.28801085     -1.92553230
H       2.89429921     -1.29783858     -2.30051103
H       3.86649792     -2.15962955     -1.49209848
O       3.04878397      1.49232289      3.06118116
H       3.79339610      1.26750758      3.63792170
H       3.31909272      1.17618978      2.18027093
O       0.80323412      0.47434711     -4.73720435
H       0.87783727     -0.22410016     -4.05604963
H       1.37441373      0.18551757     -5.46359071
O       3.26470621     -2.22153162      1.97961179
H       3.34533008     -2.84539171      1.23244375
H       2.43039158     -2.45615073      2.42762259
O      -0.60563247     -5.15324828     -2.73366727
H      -0.55992444     -4.92095073     -3.67354930
H      -0.13469386     -4.43371278     -2.26601485
O       0.55455994      0.03261337      2.31023381
H       0.54515398     -0.87235574      2.67266439
H       1.37631108      0.44300388      2.63922677
O      -1.84031595      4.94688853      1.00270330
H      -0.99835683      5.25807737      1.39138380
H      -2.36968664      5.74047768      0.84246540
O       0.63440897     -2.76096262      3.18861716
H       0.21327466     -3.05324278      4.00949498
H       0.31321863     -3.38535068      2.51256499
O      -3.63181915      2.70537017     -1.54607568
H      -4.17932585      3.43763773     -1.86612864
H      -3.67628718      2.02426930     -2.24409320
O       3.37960018     -3.87860141     -0.46650596
H       3.51348471     -4.82418705     -0.62141034
H       2.45835066     -3.69655361     -0.74551484
O      -3.55081657      0.54273862     -3.51859459
H      -3.19363201     -0.12693603     -2.90267439
H      -4.05269287      0.04004973     -4.17496614
O      -1.11331086      2.19897338     -3.45541346
H      -1.94064829      1.69299593     -3.56416379
H      -0.45341461      1.69615500     -3.96688527
O      -2.25792445     -5.89777616     -0.41466208
H      -1.74974487     -5.76696745     -1.23911771
H      -2.88799400     -5.15182794     -0.39937437
O       0.75882141      5.54963232      2.25898455
H       1.05463267      6.29561255      2.80043119
H       0.80325976      4.77008119      2.84639835
O       1.92484882      4.29082533     -0.15886435
H       2.85681106      4.53581398     -0.25000716
H       1.59917145      4.76047620      0.63416433
O       0.85234468      3.16331375      3.90239608
H       0.71751591      2.93505494      4.83407028
H       1.59581071      2.60324043      3.61133704
O       3.68600944      0.23570990      0.55260206
H       3.59534872     -0.58531476      1.07638332
H       3.83161824     -0.10465395     -0.34644360
