99
charge=0
O       0.26305278     -0.52009104      1.22080130
O       0.70400267     -3.70089823     -2.30607072
O      -0.93779410     -2.04165390     -2.93173925
O      -3.47769547     -0.59698000      0.16445383
C       0.61916853     -0.95145638      0.14314690
C      -2.50346056      1.55077471     -0.05117988
C       2.47477550     -2.24573086     -1.44542623
C      -1.58542306      2.47865596     -0.58884442
C      -2.57959109      0.25152853     -0.49583363
C       1.13037685     -2.81882951     -1.33654574
C       0.30108957     -2.31759346     -0.30261299
C      -1.65261126     -1.52478060     -1.86034952
C       2.65230426     -0.95374154     -1.16697115
C      -0.74375268      2.15023666     -1.57216401
C      -1.74382560     -0.16213867     -1.58966219
C      -1.04104597     -2.83405551      0.00587619
C      -2.08910711     -2.36526404     -0.74859517
C      -0.60941354     -3.42555717     -2.79904473
C      -3.40842714     -1.99685812     -0.15211355
C      -1.14310006      0.96659692     -3.70989130
C       1.43640821     -0.12633251     -0.84125513
C       0.70183389      0.19423487     -2.18211946
C      -0.74028957      0.79527356     -2.23518583
H      -3.13464060      1.85066984      0.76635333
H       3.27966897     -2.85966677     -1.81147740
H      -1.55243572      3.47380085     -0.18063340
H       3.61672100     -0.48793419     -1.27085640
H      -0.04179344      2.87563741     -1.94028819
H      -1.25161901     -3.21917311      0.99180329
H      -0.67408054     -3.86911956     -3.79744033
H      -1.34382948     -3.94329293     -2.17670626
H      -3.59313294     -2.56118617      0.76880026
H      -4.22241136     -2.21905257     -0.85051481
H      -0.45433542      1.63105546     -4.22976467
H      -2.14428291      1.38846508     -3.78531814
H      -1.14270298      0.00403030     -4.22039234
H       1.72973592      0.80739204     -0.34406589
H       0.66152644     -0.73528735     -2.75225366
H       1.34983062      0.84961458     -2.76560063
O       1.84253306     -1.84993596     -4.51206228
H       1.44829738     -2.42168036     -3.82782362
H       2.03355193     -2.44784593     -5.25018134
O      -0.98697711      2.91815610      3.88081308
H      -0.59063954      3.29366785      4.68078479
H      -0.84098369      1.95342882      3.94659713
O      -1.26713807      5.66811683      0.09845604
H      -0.84193767      5.63375358     -0.77981134
H      -1.25122922      6.60497576      0.34861860
O      -2.17547225     -5.40149697      1.53581314
H      -1.30098716     -5.53145827      1.12106033
H      -1.99098273     -4.92998579      2.37296193
O       4.54902473      1.51831064     -1.84663920
H       4.03894753      1.36946407     -2.66906093
H       4.00255784      2.11745312     -1.30413163
O      -2.88475077      3.95528281      1.88259716
H      -2.37902055      4.58564130      1.33357513
H      -2.25842157      3.64943562      2.56811970
O       0.55814979     -5.39033601      0.35116308
H       0.80334178     -4.72643114      1.02746394
H       0.65443711     -4.93821727     -0.50990716
O       3.04141932      0.81377602     -4.33440177
H       3.30757131      1.03483046     -5.23995523
H       2.61041350     -0.06065754     -4.40600846
O       0.88972890     -3.18998745      2.47815291
H       0.13354571     -3.42508202      3.04648487
H       0.68299510     -2.29018671      2.15064472
O      -3.07457607     -1.47834614      4.56785460
H      -3.36718664     -1.14827350      5.42981385
H      -3.64374098     -1.01859215      3.92305785
O      -4.66292419      0.05140463      2.67203785
H      -4.25423749     -0.14914063      1.80913798
H      -5.57673730      0.29705698      2.46703669
O      -0.67670036      0.10685657      3.85931190
H      -0.37837240     -0.16517241      2.96908275
H      -1.42609045     -0.47516865      4.08267472
O       0.77271211      2.34458722      1.48867208
H       0.59915583      1.38441148      1.41538276
H       0.22281187      2.63106465      2.23346481
O       0.00787561      5.55915148     -2.52869026
H       0.64724683      4.85925457     -2.75700963
H      -0.04388807      6.12115815     -3.31635292
O       2.76682693      3.28360427     -0.34379246
H       3.22761146      3.99694403      0.12114562
H       2.08797002      2.97960783      0.28536482
O      -1.51708842     -3.83717824      3.97650323
H      -1.52732057     -4.36669257      4.78759867
H      -2.06255635     -3.05338264      4.17619860
O       5.41691670     -0.81332283     -3.18544953
H       5.74149594     -0.18488398     -2.51700067
H       4.67565240     -0.34860469     -3.62073294
O      -3.69141953      1.79859069      4.85104082
H      -2.88394018      2.23366296      4.51766003
H      -4.03454509      1.27565078      4.09986990
O       1.87597572      3.38833854     -3.12225836
H       2.21983154      3.36597476     -2.21185494
H       2.26828132      2.61259780     -3.56606006
O       3.66285961     -2.89918749      1.64661636
H       2.78137385     -3.05501417      2.03445815
H       3.47604832     -2.52618009      0.76798992
