101
charge=0
O       5.56480637      2.20770326     -1.65831586
N       7.28908343      6.34098578     -1.20683284
N       7.27655851      5.93556371     -2.40529097
N      -2.29148179     -2.15769416      0.04204061
N       6.71978318      5.90163812     -0.12978273
N       3.58431574      3.56597083      1.61555185
S      -2.11716483     -1.54853867      2.53565138
C       4.93208022      2.65854048     -0.71199637
C      -1.50804126     -1.52401310      0.88013239
C       6.13968737      4.84908066     -0.73566001
C       3.20664071      2.43846367      0.97795865
C       4.54499455      4.25999637      1.04631533
C      -3.43115277     -2.51698971      2.00667749
C       2.10153764      1.72574474      1.44643209
C       2.33575815      0.15044056     -0.35261411
C       5.21724060      3.92609782     -0.11573424
C       1.62155304      0.60975094      0.77955000
C       3.42672329      0.81257997     -0.78630917
C      -3.34834954     -2.75532107      0.67382111
C      -0.31772354     -0.87787913      0.45080729
C       0.41860382     -0.04579447      1.21717387
N       6.49050386      4.88255596     -2.12908733
N       3.85253556      1.95749966     -0.15635062
C      -4.15529590     -5.09174154      0.30589745
C      -4.24081932     -3.41986771     -1.57613167
C      -4.34061380     -3.62213116     -0.06690883
H       4.80047219      5.19718264      1.51378623
H      -4.22124144     -2.86754819      2.64048706
H       1.58898364      2.08459676      2.31989935
H       2.03490196     -0.75732190     -0.84042211
H       3.98585781      0.46912999     -1.63911956
H      -0.02345851     -1.04621091     -0.56875212
H       0.07554252      0.15490442      2.21458976
H       5.97008562      4.38909165     -2.87941497
H      -3.16152467     -5.43381374      0.01795099
H      -4.25746079     -5.24607972      1.38035471
H      -4.88560665     -5.72639427     -0.19673361
H      -4.97543300     -4.02118796     -2.11244128
H      -3.25174854     -3.70396138     -1.93452627
H      -4.40010391     -2.37584927     -1.84374142
H      -5.34447973     -3.30051728      0.25575615
O      -7.59791234     -4.44573204      0.30460603
H      -7.64328324     -3.90799227     -0.50753749
H      -8.09383858     -5.25233568      0.09786535
O      -6.57449498     -3.19377453      2.69143280
H      -6.93334431     -3.62580725      1.89335765
H      -6.79309635     -3.78938537      3.42391944
O      -5.83044878     -1.39152687     -3.64556742
H      -5.30590185     -0.65905233     -3.27339718
H      -5.51290088     -1.48805789     -4.55572496
O       2.40989740      4.54862662      4.14674078
H       2.79510657      4.21435489      3.30557799
H       2.90202362      5.37110885      4.32076339
O       3.97301500      6.97496859      4.51308574
H       4.83438600      7.04245117      4.95199504
H       3.84110756      7.82191012      4.06091293
O      -6.29254907     -0.35670561      2.10343998
H      -6.38467444     -1.30642099      2.30727270
H      -6.98600285      0.08448499      2.61647356
O      -7.75557854     -2.89985599     -2.11667256
H      -7.08572009     -2.39763987     -2.61516290
H      -8.60261933     -2.62332786     -2.49880978
O       0.77493622     -0.62644573     -3.44636307
H       1.23050759     -1.33153246     -2.95003115
H      -0.17103015     -0.80578206     -3.29095964
O       1.88808567     -1.90633475      3.38458714
H       2.71189423     -1.69492537      3.84974163
H       1.24948361     -1.23152898      3.68016200
O       4.61203975      3.23731620     -4.10263414
H       3.82318474      2.71780741     -4.35071987
H       4.89813558      2.82786737     -3.26135414
O       1.66349354     -3.51116513      0.97587211
H       1.37599519     -4.37753370      1.30340705
H       1.74280478     -2.95286222      1.77188950
O       2.00455530     -2.63626158     -1.77825690
H       1.88649465     -2.98795881     -0.88014821
H       2.96432435     -2.68930843     -1.94733834
O       6.14203164     -0.20314968     -3.05411985
H       6.52552118      0.09952165     -3.89079262
H       5.97086362      0.61555705     -2.55061811
O       2.28403717      1.52582022     -4.67384712
H       1.79468833      0.80791755     -4.23041952
H       1.94414442      1.53334228     -5.58292759
O      -4.18621156      0.37217887      0.29157595
H      -3.47801396     -0.18189355      0.66461114
H      -4.94514426      0.19473644      0.87582210
O       0.03994529      0.16326105      4.25392228
H      -0.85235199     -0.06409773      4.55716134
H       0.19114809      1.06968419      4.57690071
O      -2.00573726     -1.21906769     -2.78144161
H      -2.05950353     -1.55480588     -1.85855570
H      -2.70661454     -0.54139095     -2.81827564
O       0.40721524      2.82489190      5.19729849
H       0.00776705      3.35066292      5.90672078
H       1.10054528      3.39879528      4.82565478
O      -4.19685726      0.72982281     -2.53712941
H      -4.10342085      1.67710009     -2.71195619
H      -4.21726141      0.65165135     -1.56458768
O       4.85917895     -2.63942804     -2.22546752
H       5.28249227     -1.80753488     -2.50777256
H       5.57379369     -3.29458423     -2.21886847
