103
charge=0
O       0.56537868      1.75628933      2.74988391
F       1.89362726     -6.45989900      0.19183471
N      -0.01021272     -2.13125210     -0.17701465
S      -4.60057812     -2.09384009      0.78501099
C      -0.92348330     -1.23410671     -0.43271704
C      -3.37213545     -0.99348593     -1.15613276
C      -2.35068238     -1.50024632     -0.28223830
C      -2.86919804     -2.20417736      0.77906884
C      -4.63430313     -1.24227236     -0.74253528
C       0.02988154     -5.91350287      1.57063413
C       0.85751890     -4.32716140     -0.00004660
C      -0.94890461     -5.01781188      1.95125231
C       0.93618162     -5.57849610      0.58459767
C      -0.11321150     -3.40519747      0.36162254
C      -1.05079289     -3.76811248      1.35843002
N      -2.13543097     -2.93184684      1.71297681
N      -0.48584585      0.05115976     -0.79621172
C      -5.85821573     -0.85019115     -1.46369373
C       0.95644553      0.31567331     -0.61574898
C      -1.29534754      1.21936876     -0.37375472
C       0.84574659      3.07618478      0.85280401
C       1.26732200      0.59512316      0.84716215
C      -1.07564526      1.49604275      1.10494635
N       0.41075795      1.73972787      1.42319132
H      -3.14772608     -0.49161214     -2.08371886
H       0.09477031     -6.88406211      2.02945657
H       1.57281793     -4.04834695     -0.75055322
H      -1.66581216     -5.29159216      2.70562158
H      -2.71134659     -3.26344348      2.49182712
H      -6.73070286     -1.35827130     -1.05193523
H      -5.78199204     -1.10989528     -2.52058447
H      -6.02511929      0.22487315     -1.38970801
H       1.51705856     -0.55441743     -0.97572879
H       1.25695759      1.15720689     -1.24629512
H      -1.01442300      2.08821814     -0.97617134
H      -2.35196469      1.04024557     -0.58762138
H       1.86959362      3.29012765      1.13892751
H       0.77842963      3.08100394     -0.22976245
H       0.20782077      3.86092889      1.24512750
H       2.32072888      0.84414332      0.99259856
H       1.06930417     -0.29168186      1.45220736
H      -1.64946019      2.36116849      1.44578586
H      -1.40294781      0.64488569      1.70487181
O       0.06393269     -2.04280114     -3.24154710
H      -0.54484588     -1.70910823     -3.91905448
H      -0.12800523     -1.50267688     -2.44212482
O      -1.41374121      4.51164179     -0.81450337
H      -2.04703199      5.02089899     -1.34420713
H      -0.59773072      5.04822789     -0.79163563
O      -0.67718150     -0.18554308      4.43918723
H      -0.27709998      0.49864304      3.87365275
H       0.07462970     -0.62272237      4.86794352
O      -0.41665961      4.19056691      4.04054465
H      -0.10492990      4.87856082      3.41819214
H      -0.10912459      3.34466393      3.66167514
O       0.65471320      6.27117308      2.16969775
H       0.81798037      6.19753153      1.21083980
H       0.14375097      7.08790846      2.27651059
O      -4.24959190     -1.73229322     -4.12770981
H      -3.41887211     -1.36681487     -4.48792831
H      -4.20766748     -2.68521457     -4.30649290
O       2.51830455      2.04627818     -3.74649563
H       2.82780893      2.42378845     -4.58390722
H       3.10499863      1.29069124     -3.58372097
O       2.77406191      3.90412359     -1.49170694
H       2.69549475      3.29752500     -2.24514551
H       3.37732174      3.45647293     -0.87002783
O      -4.06226232     -3.58510775      3.87274620
H      -4.85150819     -3.89599733      4.34262613
H      -3.86340719     -2.70747095      4.25410878
O       1.71205746     -8.82264116      1.80427506
H       1.79828442     -8.04112057      1.23352809
H       2.56743610     -9.27867154      1.75021145
O       3.32319502      2.58290682      3.06873665
H       2.42009859      2.21391007      3.05490190
H       3.20401373      3.47280240      3.44889773
O       4.24103136     -0.16686358     -3.29471698
H       3.78535889     -1.02294063     -3.20491802
H       5.17476342     -0.36585028     -3.13130226
O       2.67009359      5.23545126      4.05626276
H       2.03263559      5.62030487      3.42398358
H       2.24965179      5.32217666      4.92538609
O      -1.74198749     -0.67818680     -5.18111634
H      -1.30096708      0.05746162     -4.71521529
H      -1.60504074     -0.50176480     -6.12337351
O      -3.40285675     -0.97715055      4.92023067
H      -3.78733392     -0.21119234      5.37318398
H      -2.47833819     -0.72370255      4.74091145
O      -0.28340326      1.22080539     -3.63087672
H      -0.36241935      0.85759490     -2.72114137
H       0.63656638      1.53591036     -3.69299116
O       4.46091437      2.52596041      0.42316767
H       5.37130210      2.20513689      0.50364551
H       4.11880342      2.54478044      1.33611974
O       3.14868092     -5.40709761     -2.13136536
H       2.74376991     -5.79531309     -1.34029724
H       3.59600088     -6.14419702     -2.57434652
O       2.89839605     -2.65026318     -3.00555924
H       2.99661563     -3.57952013     -2.73046278
H       1.93674856     -2.50820921     -3.09166919
O       1.10301310      6.06320364     -0.71033129
H       1.69909060      5.33828920     -0.97479309
H       1.40331188      6.82705488     -1.22483016
