84
charge=0
O      -4.22964912      1.59333229     -2.88041180
O       0.39994793      2.02429424     -1.29647223
O       2.46884592     -2.28839896      0.48418657
O      -3.43913358     -0.47451741     -3.31289330
O       2.41984936      2.45989728      0.36265224
C      -3.31231821      0.79590906     -2.86148899
C       0.12030916      0.83962665     -1.22386053
C       2.77286606     -1.13791690      0.70289220
C       2.08627722      0.03390711      0.19971241
C       2.73608918      1.17351542      0.62647675
C      -2.02193930      1.21262279     -2.31762613
C      -1.11300917      0.36639626     -1.83698545
N       0.89273909     -0.09728240     -0.55329248
C       3.93425540     -0.70394215      1.54973858
C       3.92137323      0.82300467      1.46675626
H      -4.32463478     -0.56550903     -3.72717015
H       1.65254511      2.44091754     -0.24162434
H      -1.82862756      2.26967223     -2.26632132
H      -1.31857523     -0.68799952     -1.83783628
H       0.48477911     -1.03580757     -0.52604177
H       3.79831432     -1.05693387      2.57764298
H       4.87157077     -1.13296370      1.17456908
H       3.83564900      1.29349930      2.45310101
H       4.83027019      1.21356935      0.99557412
O       6.78615219     -0.13809612      1.73085713
H       6.84293085      0.81898895      1.91553115
H       7.70370678     -0.43982546      1.65221118
O      -3.71978225      4.15967246     -1.53123363
H      -3.13664371      3.86862718     -0.80392192
H      -3.97184800      3.33025740     -1.98928096
O       1.97318468     -5.14702205      0.31770619
H       2.81508202     -5.50273520      0.64661458
H       2.13279975     -4.18388628      0.24472399
O      -6.70839583      1.95929148     -4.28785043
H      -7.07757659      2.83475082     -4.10398459
H      -5.86285594      1.92822234     -3.79339478
O      -5.95872063      0.71633786     -0.62530142
H      -5.41724784      0.03203429     -0.18346530
H      -5.41027880      1.03801556     -1.36961556
O      -2.15058497      0.36103769      1.41228062
H      -2.90117976     -0.21135408      1.16384801
H      -1.48936564     -0.24946474      1.78836315
O      -2.16114601      5.79724198     -3.42077503
H      -1.36331533      5.23249520     -3.45797558
H      -2.75097315      5.33304232     -2.79568431
O      -0.50271302     -4.36541178      1.53058170
H      -1.00082235     -5.14702806      1.81127745
H       0.32470988     -4.71187727      1.14853505
O       6.80639811      2.71660393      2.21448280
H       6.01039104      3.23306804      1.98811057
H       7.45469609      3.37219640      2.51131156
O       3.36148801     -3.99065979      4.95818730
H       4.19149458     -4.10409425      5.44462779
H       2.79334293     -4.72117813      5.24447913
O      -0.22769550     -1.55047684      2.44424694
H      -0.30978529     -2.48211498      2.16311250
H       0.60402987     -1.50875765      2.95290835
O       4.41032167      4.18049691      1.53423380
H       3.71276397      3.63676752      1.12130949
H       4.04727885      5.07745309      1.56263482
O      -0.78915719     -2.50563871     -0.72894745
H      -0.67097025     -3.12180584      0.01566668
H      -1.67502526     -2.71459863     -1.08066566
O      -1.81331167      3.01442146      0.38621518
H      -1.02122528      2.78970464     -0.14346509
H      -2.01488557      2.17691845      0.84221904
O      -3.46328979     -2.94799388     -1.79665652
H      -3.47403928     -2.15100311     -2.36231173
H      -3.81523885     -3.65955202     -2.34953693
O      -4.30310221     -1.45587445      0.58872168
H      -4.03397464     -2.00045943     -0.17594731
H      -4.81660907     -2.04399426      1.16226918
O       4.01976129     -4.25332552      2.05148577
H       3.78748483     -4.14252462      2.99417781
H       3.52835401     -3.55706498      1.56835495
O       2.24424122     -1.45012165      4.05992145
H       2.07216848     -0.93296359      4.86181750
H       2.60687056     -2.30174218      4.37098651
O      -6.00227942     -0.83928648     -4.50628012
H      -6.71590701     -1.34713530     -4.91764427
H      -6.32843316      0.07796377     -4.48224285
O       0.15527136      3.97043837     -3.40245595
H       1.03887172      4.07676149     -3.78731959
H       0.25607890      3.31262448     -2.68495376
