74
charge=0
O      -0.42796805      2.07053373     -0.48295779
Cl      3.00199727      0.18954057      1.30694584
Cl      2.44944139     -2.05628655     -0.40438226
Cl      0.54371012     -0.59635331     -2.02847152
Cl      2.32735672      1.49283895     -1.21025578
S       0.39762813     -1.10711037      1.44718201
C       0.01634345      1.02797624     -0.05304625
N      -0.42717220      0.34615909      1.05886604
C      -1.47317757      0.88977919      1.88443475
C       1.75817050     -0.63807820      0.37069110
C       1.16525834      0.30235230     -0.66298968
H      -1.10310902      1.05533683      2.89366728
H      -2.31668696      0.20689757      1.92295951
H      -1.79982618      1.83650754      1.46215645
O       1.09493352      1.05953507      3.89731662
H       0.84897178      0.16150511      4.18839619
H       1.72039380      0.91066093      3.16783691
O      -1.85601219      1.05382605     -2.82994012
H      -1.35621785      1.38885423     -2.05600889
H      -2.09206310      0.13341871     -2.60282344
O      -0.33287794     -3.49089352     -1.92152611
H       0.45447282     -3.35299297     -2.48002453
H       0.00303881     -3.95586704     -1.13306134
O       2.07203073     -2.95207580     -3.45735921
H       2.94154892     -3.18919760     -3.08486160
H       2.19009314     -2.01613855     -3.70780942
O       0.74613955     -4.79406794      0.43256045
H       1.13352295     -4.29901484      1.17880057
H       0.97909393     -5.72206614      0.58888061
O      -4.48004130      1.41384397      0.66329431
H      -4.49172728      1.81698302     -0.22376503
H      -4.10413498      2.11363244      1.23033962
O      -2.93103360      3.50485808      2.10013066
H      -2.14640298      3.61782596      2.67149283
H      -2.70827914      3.95779575      1.26416291
O      -2.52269065     -1.70180437     -2.07593302
H      -3.13272811     -2.10740256     -2.71002261
H      -1.76931652     -2.31813350     -2.02791754
O       4.79355617     -0.27160840     -1.59925771
H       4.29914042     -0.13577559     -0.77344337
H       5.53226296      0.35345922     -1.56079798
O      -2.07656100      4.45933535     -0.55057618
H      -1.48691451      3.67593182     -0.57955320
H      -1.50299366      5.21627685     -0.73335829
O       1.91685461     -3.35935816      2.66049733
H       2.83184510     -3.32906357      2.97822608
H       1.40383479     -2.82698229      3.29756822
O       0.67874402      4.32478215      1.02012898
H       0.39638587      3.55015488      0.49385247
H       0.35223459      4.13945230      1.92246107
O       4.74418167     -3.16185324     -2.31700984
H       5.64028513     -3.51988591     -2.23009879
H       4.80457220     -2.21829587     -2.06548117
O      -4.07511089      2.75449059     -1.90404339
H      -3.51450657      3.45130276     -1.51107712
H      -3.43801705      2.17601228     -2.36336074
O       0.29170001      1.15945219     -4.92764661
H       1.07284429      0.72582425     -4.52879797
H      -0.41550254      1.12832441     -4.25394868
O       0.32025059     -1.70301098      4.55776257
H      -0.51042799     -1.86994070      4.07166940
H       0.12787845     -1.93746899      5.47748029
O       2.84819750     -0.13256330     -3.90947055
H       3.36287037      0.15117931     -4.68067276
H       3.47881788     -0.14277746     -3.16207602
O      -2.05812533     -2.22824781      3.05658802
H      -2.49434465     -1.92414239      2.24109503
H      -2.55025605     -3.02632059      3.30165536
O      -0.39383689      3.55586109      3.67376296
H       0.12920041      2.74165434      3.80643066
H      -0.25608145      4.08223795      4.47441294
O      -3.37221631     -1.26546011      0.68938917
H      -3.85622140     -0.41989379      0.64981987
H      -3.10208310     -1.43819231     -0.23085933
