105
charge=0
O      -1.29914758      0.11032651      1.85075467
N       1.79290003      3.23089956      0.16378077
O       1.71036391      1.68252107      5.06732260
S       2.02598003      2.88567505      2.73689943
C      -0.28325917      0.77581825      2.05485060
C       1.36554559      2.47861088      1.13143676
C       1.23121622      1.72220610      3.79094626
C       0.44941683      1.37518583      0.93925777
C       0.17601827      0.92931469      3.41449102
C       0.28260646      0.88507075     -0.34617867
N      -0.46718004     -0.21473987     -0.61586298
C      -0.11081559     -1.28092323      4.56356593
C       0.36671105     -2.43679228     -3.61712321
C       0.80019770     -2.82047015     -1.15958004
C       2.03207762      3.75392509     -2.19722705
C      -0.21264968      3.77730505     -1.08067526
C      -0.55542501      0.16531323      4.46781213
C       1.00065427      1.58468955     -1.44504327
C      -0.63629011     -0.89013218     -1.89809410
C       0.55981406     -1.77939498     -2.25094209
C       1.16334100      3.09152912     -1.11482008
H       2.34983715      2.43123008      5.15988614
H      -0.86345381     -0.75170480      0.15584884
H       0.93775529     -1.34950542      4.85045988
H      -0.69121665     -1.84443399      5.29675250
H      -0.21299230     -1.78168816      3.60068384
H      -0.51291048     -3.08053697     -3.61174258
H       0.22483318     -1.69192507     -4.40115274
H       1.22445941     -3.05277368     -3.88963816
H       1.66785594     -3.44261087     -1.38211647
H       0.96686303     -2.34952838     -0.19004626
H      -0.06125886     -3.48068966     -1.06130569
H       3.01085511      3.28004978     -2.24931467
H       2.18016375      4.80972939     -1.97665642
H       1.56368900      3.67066475     -3.17720284
H      -0.71354650      3.70410040     -2.04470239
H      -0.85427305      3.31549380     -0.33202524
H      -0.10799237      4.83069174     -0.82707467
H      -0.42423003      0.67380217      5.43140857
H      -1.62910790      0.21828838      4.24581258
H       0.47045738      1.47179620     -2.39259666
H       1.98831843      1.13386696     -1.57902062
H      -0.80908413     -0.14280520     -2.67597195
H      -1.54753673     -1.49478360     -1.87123052
H       1.44992439     -1.12843773     -2.30059783
O      -3.27072389     -2.38085483     -3.68562040
H      -3.07562290     -2.86417538     -2.86394961
H      -4.12215291     -1.93879921     -3.50000389
O      -4.42788650      1.23585474     -4.68065242
H      -4.60739261      1.92293549     -5.33896488
H      -3.70947448      0.69221013     -5.05962858
O      -2.60866849      2.46340117     -2.63622854
H      -3.30750652      2.08915559     -3.20858307
H      -2.79160177      2.11871040     -1.74358497
O      -2.27125383     -0.53702776     -5.63442607
H      -1.98817540     -1.03072064     -6.41770189
H      -2.55396657     -1.21587094     -4.99244101
O       4.40306593     -1.21785372      2.37939037
H       4.07956602     -1.05811691      3.28762164
H       4.62363519     -0.33097264      2.04698211
O       3.56325674      3.95414455      5.08799369
H       3.52230574      4.32921753      4.19315509
H       4.20668448      4.49594993      5.56949376
O      -5.20986873     -0.64468976     -0.25237429
H      -5.09157057     -1.53786366      0.12253073
H      -5.41019481     -0.77026657     -1.20037120
O       4.84639499      1.49825295      1.57457950
H       5.07064423      2.17290700      0.91946148
H       4.02675235      1.84383645      1.97286999
O       4.81060470      3.82435523     -0.16306090
H       3.85158603      3.62001355     -0.10311076
H       4.91274847      4.65880542      0.32570780
O      -1.93868277     -2.62628809      1.45752545
H      -1.15048315     -3.09723959      1.78319811
H      -1.76840178     -1.68902258      1.66748083
O      -0.55032501      1.59053002     -4.49615594
H      -1.05765767      0.88056899     -4.93705545
H      -1.18780434      1.97561944     -3.86459124
O       2.47968474     -3.50166731      4.39160010
H       2.81533516     -3.59595064      3.47930673
H       2.77267591     -2.61323483      4.67153654
O      -4.70412257     -3.28254688      0.98475217
H      -3.79073977     -3.05656268      1.24690791
H      -5.12109260     -3.63969705      1.78262741
O       3.32953245      5.38076503      1.63681874
H       2.77394198      4.69274194      1.20924544
H       2.74443885      6.14486031      1.75393111
O       3.19735390     -3.60567909      1.45270163
H       3.64164988     -2.76773793      1.68181731
H       3.83858374     -4.09299158      0.91511511
O       3.31582799     -0.74003356      5.08797804
H       2.76592387      0.06517933      5.06194518
H       3.84721070     -0.65329073      5.89348890
O      -5.74676879     -0.85851610     -3.14132349
H      -6.68791200     -0.86238268     -3.37052452
H      -5.36436102     -0.10306380     -3.62877384
O      -2.82999720     -3.63551648     -1.13904322
H      -2.43084151     -3.28712385     -0.32125234
H      -3.69046501     -3.97921374     -0.84189947
O      -3.13227631      1.37305896     -0.03733705
H      -3.86572093      0.72989072     -0.06821979
H      -2.49993403      0.98782732      0.59926598
O       0.44348694     -3.89898633      2.40742474
H       0.64891489     -4.10006916      3.33628036
H       1.32107034     -3.81890290      1.99021188
