70
charge=0
Cl     -0.48404889      3.66579837      2.39075591
Cl     -1.00403904      0.66349927     -2.07056492
C       0.58472328      0.01334282      1.48180586
C       0.40511244      1.15568115      2.11482035
C       0.15330004     -0.17181261      0.22023313
C      -0.23582748      2.19560553      1.52076480
C      -0.69083914      2.06481398      0.22006449
C      -0.48902757      0.86614289     -0.43966224
H       0.28327540     -1.12142256     -0.26816462
H      -1.21352322      2.87158604     -0.26274626
O      -2.11065234      1.37051348      4.23721089
H      -2.46745915      1.86427798      4.99019566
H      -1.64579700      2.02676097      3.68974078
O       2.86927137      3.55292796     -1.61798344
H       2.96650564      4.16800633     -0.87135275
H       2.94421156      2.67311431     -1.20484884
O       2.71945429     -2.74419891      0.25643353
H       2.52014286     -2.25438464     -0.56493640
H       1.99194086     -3.38267361      0.37646500
O      -0.08948518     -1.75583259     -3.75448735
H       0.06205240     -2.34651673     -4.50821098
H      -0.63236534     -1.03414682     -4.11826639
O      -4.25231608      1.51140593     -0.16453722
H      -5.17648655      1.33906802      0.07203123
H      -3.77474641      0.70175557      0.09225606
O       1.90470358     -4.52976184      3.35875574
H       2.33319747     -5.38290804      3.52386475
H       1.47788286     -4.61336696      2.48411699
O       2.67429851      3.68352569      1.22044836
H       2.81837244      2.77374321      0.89392771
H       1.77115705      3.68362954      1.58164708
O      -1.97018540     -3.81447585      1.83055290
H      -2.91663215     -3.99681066      1.92460601
H      -1.82375322     -2.99283566      2.33441338
O       0.54929773     -4.66314429      0.74254897
H       0.33693360     -5.39904479      0.14883041
H      -0.31231900     -4.35274857      1.07833480
O       1.28232772     -1.73705904      3.87628118
H       1.47033110     -2.69191340      3.80154397
H       2.01762891     -1.31869736      3.38997543
O       1.12711062      4.19061894     -3.81088808
H       1.70950155      3.95746419     -3.06431296
H       1.63626448      4.82357163     -4.34045727
O       2.21393914     -1.05844060     -2.10787333
H       2.90205754     -0.90961742     -2.77506666
H       1.40964673     -1.24874337     -2.62418023
O       3.58216224     -0.80666883      2.17108243
H       3.34459934     -1.52686797      1.55316011
H       4.45139103     -1.04412236      2.52721384
O      -2.83990816      3.60186392     -1.55171193
H      -3.33248310      2.88446240     -1.10951062
H      -3.32649874      4.41346241     -1.34003682
O       3.04503177      1.01937165     -0.10089936
H       3.25600012      0.48042434      0.68417315
H       2.75442422      0.36653817     -0.76713927
O      -1.70235113      0.25803987     -4.93793658
H      -1.60091675      1.17266353     -4.62113107
H      -2.45742839      0.29513709     -5.54432795
O      -1.32267693     -2.52857325     -1.22159522
H      -1.70202958     -3.40414914     -1.39560080
H      -0.92941379     -2.24336502     -2.06753124
O      -1.48006477      2.95670800     -4.06054859
H      -1.93640936      3.18576923     -3.22877920
H      -0.60722074      3.38640056     -3.99356563
O      -1.53708758     -1.31385302      3.23787474
H      -1.76646341     -0.44626198      3.61896395
H      -0.60504578     -1.44737122      3.49555681
O      -2.91585304     -0.89976754      0.63898667
H      -2.47188256     -1.00672897      1.50112775
H      -2.39405832     -1.43993699      0.01590292
