87
charge=0
Cl      0.55627689     -4.10242774      3.12502468
Cl     -1.10045144     -1.47803778      2.75971200
Br     -1.08327158      4.52086635     -2.85190216
N      -2.69017766      0.94900648     -1.65779962
O      -2.28498739     -1.29785028     -2.14523283
C       0.12179006     -0.63499584     -3.46710376
C      -0.11592953     -1.90828036     -3.18800049
C      -2.43707906      2.21619484     -1.91490872
C      -1.90270414      0.03693885     -2.25258236
C       0.29531163     -4.40294736      0.44764430
C      -0.45765305      1.75048486     -3.12005723
C      -0.10817170     -3.98516433     -0.80927852
C      -1.11533468     -2.04738577      0.15165426
C      -0.01121897     -3.64410448      1.55713838
C      -0.72599565     -2.45993561      1.40245152
C      -1.34033060      2.66608476     -2.61817737
C      -0.73717799      0.40161753     -2.95295840
C      -0.81387820     -2.80520344     -0.96755246
C      -1.26562756     -2.31799934     -2.32157199
H       0.98015318     -0.35322113     -4.05205135
H       0.55970191     -2.67440373     -3.53208365
H      -3.11652995      2.94114652     -1.48693018
H       0.86859804     -5.30645963      0.56857951
H       0.43888717      2.07203246     -3.62248424
H       0.13436975     -4.57198903     -1.67706098
H      -1.66918232     -1.13183977      0.04380740
H      -1.80205929     -3.14283597     -2.81898417
O       1.94882854      2.11215883     -0.04425856
H       1.03473213      2.10848592      0.29737818
H       2.03763557      2.95657534     -0.52424736
O       2.85169950     -2.03865994      1.91445399
H       2.14038955     -2.62717725      2.22322087
H       2.89561674     -1.34221576      2.59471437
O       3.18156509      0.07481651     -3.48484683
H       3.04887647      1.02723443     -3.64654810
H       3.03805231     -0.03349749     -2.52452089
O       2.05851130      4.65373578     -1.55368176
H       1.13388270      4.79679898     -1.81815919
H       2.33692078      5.46668759     -1.10924717
O       2.75804111      0.03659344      3.93310114
H       2.08475832      0.71523987      3.73723055
H       3.49812004      0.51991832      4.32702242
O      -3.13786333      4.83248449      2.10018971
H      -3.17253834      5.31028861      2.94181760
H      -3.11951271      3.88694084      2.34263012
O       2.39399111     -6.37293776     -1.01499903
H       2.93384028     -5.65988405     -0.62143168
H       2.87083581     -7.19381061     -0.82281786
O      -3.91649603      4.62135745     -0.66700705
H      -3.63150986      4.74493027      0.25875604
H      -4.11645558      5.51042232     -0.99603626
O      -3.05136435      2.00444194      2.68543457
H      -2.71447811      1.50658462      3.45217656
H      -3.57881664      1.37972341      2.15296677
O      -0.81498317      2.04502806      0.83718695
H      -1.58528553      2.07758539      1.43366428
H      -1.20058912      1.92068852     -0.04697595
O       2.76889882     -0.55302458     -0.61655286
H       2.50791969      0.35675917     -0.38524156
H       2.79897455     -1.02497134      0.23650883
O       0.60556096      1.86130455      3.44748888
H      -0.13409892      1.52395640      3.98779065
H       0.22156034      1.97702763      2.55932382
O      -1.68242244      0.58313078      4.90058853
H      -1.45318559      0.30754084      5.79825504
H      -1.49215768     -0.19798590      4.35104919
O       1.78902475     -4.53819158     -3.25268761
H       2.47655467     -3.86746165     -3.07191771
H       1.97357300     -5.24342679     -2.61032251
O      -6.07489688      2.68179034      0.00768021
H      -5.56659816      1.88742755      0.26463570
H      -5.40098210      3.34328573     -0.24451041
O      -4.39156321      0.29198173      0.69637768
H      -4.83537045     -0.55153242      0.53039583
H      -3.83764410      0.45533995     -0.10085956
O       3.76228439     -2.50592421     -2.50952731
H       3.99438380     -1.96602976     -3.28215404
H       3.43007555     -1.85175641     -1.86395090
O       2.67737029      2.90292686     -3.83938974
H       2.52334871      3.48412289     -3.07068238
H       3.13677459      3.45149271     -4.49264224
O       0.53446947     -1.47260549      5.24257926
H       0.46788953     -2.26295143      4.67765745
H       1.29613436     -0.97876702      4.88250479
O       3.84856399     -4.09799571     -0.00530666
H       3.93255637     -3.59480625     -0.83726732
H       3.58970875     -3.43607191      0.66285545
