69
charge=-1
O       0.75981815      0.99430431     -2.60130249
O      -1.55627155      0.28546013      1.28839974
N      -0.40196701      1.03980108     -0.58991224
C       0.16258878      0.43659295     -1.66872128
C      -0.92700479      0.10036524      0.23572177
N      -0.01758114     -0.94004512     -1.54298776
N      -0.61172751     -1.15571179     -0.27907117
H       0.56793523     -1.63293781     -2.02909571
H      -1.11076248     -2.01413831     -0.02598697
O      -0.76755150      3.47690123     -2.86149136
H      -0.22658909      2.66100714     -2.85088901
H      -0.66453432      3.82651572     -1.95725009
O      -2.41172789      2.92657927      2.04308293
H      -2.14070350      2.02202592      1.77313882
H      -1.84783374      3.10005814      2.81843603
O      -0.79328265      0.07051051      4.06696252
H      -1.11699215      0.12486947      3.14532673
H       0.11274911     -0.28387984      3.97227704
O      -3.32624264      1.95660020     -2.87605665
H      -3.69877741      2.08950309     -1.98182838
H      -2.51473000      2.49778413     -2.90471625
O       1.64411871      2.45822759      1.88984846
H       1.10468612      2.96498428      1.25461938
H       1.80087979      1.59525462      1.45970057
O       1.56384725     -4.25073306      0.86527729
H       1.10253893     -3.93633203      1.66502475
H       0.94163746     -4.86144477      0.44072678
O      -0.42081396      3.86242160      0.09843663
H      -0.39756837      2.91050912     -0.16814240
H      -1.16088190      3.88027283      0.72947911
O       2.02600670     -0.36278497     -4.80698077
H       1.53098404      0.10827630     -4.10677272
H       2.74705571      0.24251511     -5.03323470
O       1.90262431     -0.95238157      3.53478003
H       2.58557741     -0.43739480      3.98795785
H       1.99165657     -0.71417745      2.59267015
O      -4.47562968     -0.96713959      0.10964751
H      -4.04038388     -0.99627640     -0.76501616
H      -3.88166809     -1.48090243      0.68815831
O       0.15958758     -3.27738274      3.25443099
H      -0.17255577     -3.49410904      4.13835570
H       0.74046880     -2.50327622      3.38524344
O       2.10366251     -0.30651556      0.73356689
H       2.69551636     -0.94502317      0.29891779
H       1.25245035     -0.49052286      0.26185272
O       3.31222030     -2.52824151     -0.71595799
H       2.87830554     -2.61199904     -1.58663621
H       2.81134595     -3.14891707     -0.15368773
O       1.84764157     -2.75182778     -3.22295345
H       1.94914043     -1.97013271     -3.79635600
H       1.38321222     -3.40226868     -3.77131391
O      -2.94800803     -0.90470699     -2.41276294
H      -2.04849912     -0.93674109     -2.00206384
H      -3.07449092      0.02947406     -2.66322301
O       5.05235012     -0.25851309     -1.26444574
H       5.39619701      0.00021963     -0.39462280
H       4.51208403     -1.05575781     -1.10518362
O      -2.29657343     -2.44233732      1.74095791
H      -1.54295660     -2.79908549      2.25052160
H      -2.07223301     -1.49003823      1.63773451
O      -4.37551396      2.06818556     -0.10938199
H      -4.45360111      1.10404768      0.03140789
H      -3.80008394      2.38844652      0.61017350
O       3.60657650      1.59079226     -3.07910540
H       4.10393581      0.99973357     -2.48017597
H       2.66428671      1.45102355     -2.85473109
O      -0.26100096      2.94904730      4.11073748
H      -0.48620795      2.01201525      4.26770669
H       0.44133931      2.89983011      3.43308583
