66
charge=0
F      -0.60154531      1.40438388      0.47654614
F      -0.23835938     -0.52556007     -1.88713408
F       0.04651750     -2.18713173      0.05281949
F      -2.16695554     -1.73451015     -0.65300236
S      -0.94002987      0.12324891      1.21343961
S      -0.79156844     -1.06462548     -0.55280554
O      -3.73466812      0.46381158     -0.42451608
H      -3.96915492     -0.29334453      0.14616841
H      -3.52752512      0.08065405     -1.29756054
O      -0.20172176     -0.38629842      4.65815792
H      -0.46941961     -0.30490798      5.58539612
H       0.04286887     -1.32457575      4.54964144
O       3.35054505     -0.12727150     -2.55775267
H       2.94053179     -0.03036916     -1.67639027
H       2.96017504     -0.94750296     -2.91442170
O       0.28543649      1.30782136     -5.40220151
H       0.25996566      1.99261898     -6.08697195
H       0.87047517      1.66785060     -4.71129624
O       2.66406768     -2.92813967     -0.64478926
H       1.75476315     -2.70304264     -0.37902408
H       2.61336577     -2.86308809     -1.61589431
O       1.98554625     -2.54851565     -3.52412106
H       2.28081364     -3.18207174     -4.19545807
H       1.15559897     -2.16957658     -3.87258684
O       1.89940787      0.35836333     -0.09073090
H       2.04343895      0.35227517      0.87300193
H       1.68914601      1.28853817     -0.30374116
O       2.71522471     -2.41586912      2.34046774
H       2.62458678     -1.44717380      2.43214461
H       2.83706321     -2.58249901      1.38937159
O      -2.92145370      2.51850795      1.42689806
H      -3.28950401      1.82517314      0.84889508
H      -2.45596410      3.10925927      0.80260170
O       1.15540414      3.20293853      2.13349213
H       0.66775557      3.47077821      2.92924622
H       0.49374420      2.71972381      1.60705254
O      -1.51388356      4.17764773     -0.63689095
H      -1.94520811      3.88200946     -1.45372326
H      -1.72102068      5.12130342     -0.55868990
O      -4.21047176     -1.70995201      1.47760359
H      -3.34703745     -2.02156474      1.81112751
H      -4.86985855     -2.28988749      1.88675945
O       2.01249226      0.46611288      2.83013279
H       1.33962208      0.21482286      3.49256731
H       1.88181436      1.42422728      2.70819717
O       2.02038380      2.32973895     -3.36567188
H       2.55870683      1.54217288     -3.16304674
H       1.77416925      2.67859096     -2.48847215
O      -2.92816184     -0.73788410     -3.04062772
H      -2.11388643     -0.88439433     -3.55779870
H      -3.38133751     -1.59636517     -3.03948900
O      -0.93085601      2.24763081      3.53958194
H      -0.84212728      1.34121614      3.89118526
H      -1.68469458      2.26657075      2.92066818
O      -1.55632622     -2.52960802      2.39663770
H      -0.91542897     -2.78982127      3.08056421
H      -1.04399174     -2.58726008      1.57264090
O       0.63780993     -3.14402049      4.19900943
H       0.88897675     -3.93747812      4.69122509
H       1.38646635     -2.97267833      3.59680860
O       1.28308259      3.19552600     -0.66246798
H       0.35708174      3.50509249     -0.65409290
H       1.70776577      3.65382270      0.08275967
O      -0.49883908     -1.36105742     -4.72341785
H      -0.22645902     -0.44524246     -4.92139701
H      -0.79040089     -1.72121170     -5.57657504
