83
charge=0
Cl      4.54000080     -0.55423634     -1.95626429
Cl      2.15357537      3.42997284      0.25559405
C       0.71818811      0.14035397      1.02964577
C       2.00074576     -0.18242475      0.76382409
C      -0.41921671     -0.77945780      0.74192083
C       2.39134100     -1.49729013      0.18177658
C       3.32596642      3.13662465      2.90049094
C       0.44173314      1.47770154      1.60750482
C       3.05336399      0.80659802      1.10273611
P       2.11829739      2.13336901      1.95697661
H      -0.52173677     -0.94813196     -0.32937980
H      -1.35934151     -0.36590252      1.10719573
H      -0.27524248     -1.74344653      1.22697533
H       2.23482694     -2.30245132      0.89894272
H       3.44457226     -1.50149965     -0.10002459
H       1.80809921     -1.71579881     -0.71202679
H       3.44032677      4.10044375      2.41362955
H       4.28971014      2.63798766      2.93764505
H       2.95973679      3.28850139      3.91128364
H      -0.07140242      2.11233619      0.88689184
H      -0.14852122      1.41503909      2.52080910
H       3.54742881      1.20147949      0.21526624
H       3.80294738      0.38450658      1.77229903
O      -2.84574070      1.76998679      4.08543172
H      -3.39447163      1.45851844      4.82030178
H      -1.93295653      1.75814270      4.42757363
O       0.40347971     -4.02888353      1.17127020
H       1.15491375     -4.56187507      0.86004203
H      -0.21239248     -4.03847405      0.41526717
O      -1.69690061      0.04748782     -2.47578956
H      -2.37044902     -0.19426417     -3.13482346
H      -0.99976098     -0.62378269     -2.59768902
O       0.98640114     -2.52145560      3.57520109
H       0.53102729     -3.00238500      4.28311600
H       0.79744991     -3.03266297      2.76725274
O       3.02840633     -3.08642169     -3.10170461
H       3.54362894     -3.41873701     -3.84981600
H       3.53706978     -2.32906007     -2.76501004
O      -1.20720493     -4.15275296     -1.38373042
H      -1.97996930     -3.56179713     -1.45098356
H      -1.56898300     -5.03200830     -1.57173363
O       2.10087170      0.08416213      4.17415369
H       2.92438875     -0.11399040      4.64616023
H       1.72584309     -0.78686021      3.94274999
O      -0.11316374      1.76838391      5.00299929
H       0.61786768      1.16017241      4.78767577
H       0.17196881      2.61974829      4.61971423
O      -2.98840656      2.66551767      1.34818602
H      -2.95203760      2.36892250      2.27824687
H      -3.75479010      3.25802491      1.29893263
O      -1.66187440      0.20022571     -6.08288471
H      -0.84734757      0.29693152     -5.55514943
H      -1.47989068      0.67035260     -6.90978547
O      -3.36073010      0.15271919     -0.12549403
H      -2.78227921      0.26015568     -0.90636406
H      -3.26865637      0.99018847      0.36454547
O      -0.70510071      4.62645408      1.19166468
H      -1.43230714      3.98612382      1.07916743
H       0.04775632      4.28439177      0.67948766
O       0.71241246      4.16183540      3.66598749
H       0.84650241      5.03340970      4.06765424
H       0.23301062      4.34374635      2.83824847
O      -3.65115738     -0.99946278     -4.38076517
H      -4.50986229     -0.99026903     -4.82802004
H      -3.02259965     -0.63377005     -5.03272332
O       0.73371433      0.41085391     -4.45361630
H       0.63789322     -0.43842078     -3.97841805
H       1.26925183      0.94988899     -3.85174911
O       2.31362693      1.75623998     -2.39034261
H       3.02720640      1.10044828     -2.28767312
H       2.39931086      2.34169372     -1.61629205
O       0.32317133     -2.04612603     -2.85024443
H       1.22583935     -2.39436203     -2.97123445
H      -0.16896681     -2.76506954     -2.40973335
O      -3.42737770     -2.38346367     -1.70826267
H      -3.51912138     -1.62812073     -1.10070551
H      -3.56800695     -1.99896573     -2.59484051
O       1.71134888     -4.85543395     -1.18545509
H       2.20135837     -4.30771152     -1.82708489
H       0.76520323     -4.67215410     -1.35465177
O      -0.48379246      2.36064134     -1.29795955
H      -0.96687371      1.62374476     -1.71615082
H       0.41581066      2.28173936     -1.66503987
