106
charge=0
O      -4.02833558     -2.87640223      1.30961811
O      -4.33680766      1.23870483      1.33203345
O       5.81992887      1.16461994     -2.59920463
C      -4.45412946     -2.08972316      0.51023561
C      -3.52432813      0.35619956      1.42390565
C       5.41481804      1.29850462     -1.47449980
C       1.82325678      1.37743566     -0.72714680
C       3.12517510      1.30484059     -0.47196907
C       0.81833816      0.62721387     -0.00062043
C      -0.38569168      0.30561072     -0.48513449
N      -2.43060048     -2.31735269     -0.85851136
C      -5.90236459     -1.74872561      0.44968324
C      -3.20739271     -0.25261117      2.74468818
C       6.13895681      0.68570116     -0.32809534
C      -0.77923412      0.68229925     -1.86683236
C      -1.25648491     -2.01954690     -0.02693043
C      -3.51992289     -1.39621882     -0.45224557
C      -2.83497029     -0.13929679      0.16997777
C      -1.33080641     -0.52471422      0.35125545
C       4.44930490      3.43816973     -0.56323036
C       4.14717960      2.09690431     -1.22687288
H       1.48995809      2.03635856     -1.50723812
H       3.46434867      0.68869575      0.34134840
H       1.08142740      0.28977213      0.98549152
H      -2.18718289     -2.15675630     -1.84911091
H      -6.05990097     -0.69335102      0.67320232
H      -6.31542674     -1.96176683     -0.53589644
H      -6.45466634     -2.33649704      1.18180954
H      -4.10041804     -0.26735200      3.36790720
H      -2.44448942      0.32597951      3.26433011
H      -2.86120818     -1.28020119      2.63528687
H       7.20659321      0.88452105     -0.41168449
H       5.99974151     -0.39485391     -0.32637811
H       5.79280058      1.07785975      0.62767157
H       0.05111601      0.55139377     -2.55882350
H      -1.59880277      0.06561903     -2.23413662
H      -1.09629820      1.72332563     -1.91029538
H      -0.32465930     -2.25268654     -0.55446839
H      -1.29432377     -2.65815964      0.86092098
H      -4.10271402     -1.10954034     -1.34094210
H      -2.89017864      0.68750964     -0.54978673
H      -1.05476797     -0.39119286      1.40588866
H       3.55002658      4.04859594     -0.47495658
H       5.18701699      4.00283209     -1.13417257
H       4.84786999      3.29112850      0.43992811
H       3.72524718      2.29987576     -2.22486339
O       2.05078432     -2.28096237      1.12680784
H       2.43703353     -1.53861436      1.62127929
H       1.37617501     -2.64337736      1.72968025
O       1.20159498     -1.47563946     -4.23368293
H       1.62126662     -1.62517247     -3.36559732
H       1.75001330     -1.96621488     -4.86349583
O      -0.27331502      1.92654805      2.75840216
H       0.63992938      2.26114239      2.66150293
H      -0.81078066      2.59617094      2.29816352
O       1.51054055      1.50100401     -4.31303036
H       2.44374280      1.60321712     -4.57701431
H       1.35891862      0.53702968     -4.34922669
O       1.08182753     -2.90095525      5.78422700
H       1.55153019     -2.83077710      6.62844762
H       0.95788289     -1.98421075      5.47178289
O      -1.62692726      4.10890751      1.30535500
H      -2.40167159      3.89436251      0.75581323
H      -1.90763697      4.86341760      1.84520462
O      -2.38530859     -4.66792244      2.75743489
H      -2.97903426     -4.02498223      2.31793755
H      -2.97159486     -5.27144188      3.23588156
O       4.31152757      1.65166149     -4.97423648
H       4.84871600      1.47431384     -4.17681677
H       4.95570530      1.82473772     -5.67677700
O      -2.29813740      3.61574756     -2.62513725
H      -2.87003517      3.58190247     -1.83491602
H      -2.88689528      3.84422454     -3.36042018
O       2.90204240      0.11200534      2.66236669
H       2.20220744     -0.09410106      3.31133858
H       2.84377044      1.08050750      2.55119005
O       1.08875971      4.29357633      0.16433172
H       0.97880477      4.16926852     -0.79532858
H       0.17653907      4.27768744      0.51550444
O       2.41197652     -1.75355497     -1.65323283
H       2.63447236     -0.82008365     -1.50395697
H       2.29775248     -2.09498571     -0.75467253
O       0.47924708     -0.42486681      4.26127104
H       0.12309130      0.36450669      3.81260441
H       0.18008117     -1.19191946      3.73374178
O      -4.01671206      3.50627433     -0.27347236
H      -4.16020453      2.70203207      0.26169319
H      -4.88159833      3.94199135     -0.29279767
O       0.61916445      3.72717964     -2.65132729
H       0.90986085      3.05093031     -3.28478164
H      -0.35599099      3.73013193     -2.70904156
O      -1.65460660     -1.75077715     -3.72643322
H      -0.69942766     -1.65885220     -3.90618583
H      -2.04238536     -2.05892711     -4.55984624
O      -2.42430889     -5.27553955     -0.19197570
H      -2.29547503     -5.24373842      0.77410129
H      -2.44155374     -4.32763220     -0.45351544
O       0.00430457     -3.09328725      3.03183640
H      -0.77814640     -3.66489614      2.94460374
H       0.35052277     -3.27434951      3.92515763
O       2.48123192      2.99479517      2.31118514
H       2.99275750      3.67333151      2.77586571
H       2.07912409      3.45504835      1.55020848
O      -5.19070806     -5.47521721      0.66010987
H      -4.84407264     -4.58693377      0.87950574
H      -4.48820077     -5.87179852      0.11506844
