97
charge=0
S      -1.93858283      1.49028511     -0.97387486
Br      0.59148707      3.29233840      1.39324376
N       1.11834783      0.91617162     -0.53345701
S      -2.65952187     -1.27794916     -1.60627238
S       1.31604950      0.06187366      1.97402666
C      -1.63817822     -0.11095415     -0.75450760
C       0.55863068      0.17862538      0.37043257
C       4.47727603      3.33344245      0.03625860
C       4.54623402      2.23196367     -0.79316560
C       3.29580526      3.62597174      0.69513106
C       3.44344974      1.42694284     -0.96374177
C       2.19402319      2.82208520      0.53553879
C       2.24836896      1.70041903     -0.29337520
N      -0.62231645     -0.55935281      0.07386982
C      -2.47717421     -0.64216962     -3.24615276
C      -0.73657741     -3.49116700      2.57223930
C      -1.48479842     -1.10776661      2.82396172
C       0.95294455     -1.61761947      2.44124731
C      -0.68746655     -1.94935062      0.57558533
C      -0.49698145     -2.04356764      2.11132023
H       5.33625583      3.97097166      0.16450679
H       5.46262114      2.00646098     -1.31346805
H       3.21800552      4.50204727      1.31794329
H       3.48232846      0.57277547     -1.61716629
H      -3.05611064     -1.24306030     -3.94289043
H      -1.43232888     -0.66762392     -3.54248301
H      -2.83113275      0.38442068     -3.29479414
H      -0.05614653     -4.17716952      2.06903112
H      -1.75639415     -3.80344309      2.35015129
H      -0.58226087     -3.58625272      3.64639964
H      -1.32290930     -1.12180018      3.90081453
H      -2.51241301     -1.40960995      2.63507174
H      -1.36204182     -0.08267514      2.47714730
H       1.65895476     -2.27902791      1.93607429
H       1.14084461     -1.72091409      3.51095916
H       0.08417956     -2.52827413      0.06445407
H      -1.64609985     -2.38939361      0.29620507
O       1.58678180      5.94717934     -2.65602872
H       1.21251013      5.05382768     -2.55037725
H       0.96579995      6.41273109     -3.23612091
O      -6.98781412     -1.10308179     -0.42811841
H      -6.20461517     -0.63603777     -0.08202867
H      -7.43939554     -1.45621286      0.35330206
O      -3.98138581     -2.54957010      1.50238586
H      -4.23305738     -1.68116269      1.13138671
H      -3.87087742     -3.16111337      0.74961800
O       0.51935143      0.49751366     -3.42529173
H       0.61006794      1.38956121     -3.79119682
H       0.68692471      0.60367885     -2.46296894
O       1.12190365     -2.34709016     -3.71400695
H       0.27294994     -2.77443194     -3.94238871
H       0.92790007     -1.39236108     -3.65738305
O       4.84592481      4.60519355      3.65994648
H       4.61657205      5.31220302      3.02832091
H       5.64161448      4.91879557      4.11568538
O       3.01534355      2.38934801      3.83475054
H       2.41340325      2.57167075      3.09448443
H       3.65350876      3.12483241      3.81949111
O      -1.43421419     -3.71678418     -4.25827252
H      -1.50452162     -4.17866026     -5.10710492
H      -2.35543380     -3.58204952     -3.96679363
O      -3.50314562     -4.52760701     -0.59957100
H      -2.56249040     -4.59335672     -0.85176271
H      -3.76546486     -5.43120519     -0.36731532
O       0.49886013      3.29537695     -2.31383492
H       1.16510548      2.99412068     -1.67366671
H      -0.30285334      2.84450817     -2.00214074
O      -4.67239525      0.25558409      0.67493716
H      -4.75900864      0.94356070      1.35126174
H      -3.86866494      0.48571285      0.18154526
O       1.87223854     -3.51161883     -1.16830687
H       2.51132719     -2.91377032     -0.73867840
H       1.72167121     -3.11749348     -2.04984539
O      -0.78144838     -4.66355464     -1.49693330
H      -0.94483495     -4.39246105     -2.42165135
H       0.13013518     -4.37276957     -1.32160257
O       4.14409963      6.67851612      1.79074896
H       3.73896429      7.51945947      2.05298457
H       4.07471968      6.66179541      0.81872662
O       3.88380833      6.67364500     -1.06999794
H       3.08982712      6.42590278     -1.57785935
H       4.55969270      6.85808848     -1.74011303
O      -6.66396580     -2.08533062     -3.11553996
H      -6.78328423     -1.74585316     -2.20861291
H      -7.46936552     -1.83243334     -3.59140686
O       3.65786402     -1.57726495      0.12870980
H       3.00041433     -1.02515279      0.58612503
H       4.52177474     -1.20732140      0.36422993
O      -0.11399667     -1.01796503      5.76534471
H      -0.15172832     -0.80141736      6.71056914
H       0.76963386     -0.72710997      5.46998755
O       2.52726835     -0.20141471      4.90877150
H       3.42031918     -0.54771821      5.06072649
H       2.66407615      0.69129995      4.54449140
O      -4.11784819     -3.41912945     -3.27573858
H      -3.99377072     -3.76221413     -2.37441669
H      -4.98352609     -2.97469880     -3.25729301
