101
charge=0
O      -2.69605599     -5.89578145      3.07464724
N      -3.04006586     -3.92685136      4.16019991
N      -2.82787466     -2.68169712      4.17767078
N       2.86693372      2.54445485     -4.78399515
N       3.55947961      1.49290820     -5.14747481
O      -0.08129847      0.30025369     -2.56631267
C      -2.72352629     -4.67940095      3.03862872
C       1.77764359      2.17352410     -4.13011287
C       2.94215929      0.38322894     -4.69535502
C      -2.30546139     -4.69028947      0.64864139
C       3.28460465     -0.98974795     -4.75537685
C      -2.39325334     -3.99815749      1.78874047
C       1.79043433      0.78543084     -3.99873898
C      -2.11522628     -2.58769328      1.88716786
C       2.47877242     -1.87498321     -4.12079673
C       0.99027846     -0.15175840     -3.29285576
C      -2.31159218     -2.00189776      3.10713310
C       0.25819672     -1.30961067     -0.73707626
C      -0.26078601     -2.00020621      0.32571184
C      -1.87958164     -0.29132934     -1.09485394
C      -0.54934138     -0.45230427     -1.48082917
C      -1.59290795     -1.83751221      0.71761068
C      -2.41367013     -0.95719558     -0.01544662
N       1.36776189     -1.45273563     -3.41069570
C      -1.90467059     -0.59965235      3.35387255
C      -3.85129977     -0.76877876      0.32011090
H       1.02886977      2.85073026     -3.74847463
H      -2.04083619     -4.21773033     -0.27490529
H      -2.49406346     -5.74489020      0.64358011
H       4.16277420     -1.29913155     -5.29269973
H       2.70222391     -2.92864567     -4.14921281
H       1.30739707     -1.37540167     -0.97108747
H       0.35844601     -2.68393716      0.88184282
H      -2.49207717      0.40024678     -1.64461163
H       0.77765060     -2.15724018     -2.97694497
H      -0.83857655     -0.55949781      3.57623482
H      -2.44208634     -0.18988814      4.20880940
H      -2.09706257      0.04115723      2.49398975
H      -4.13690022      0.27924046      0.22073427
H      -4.48231357     -1.35434349     -0.34860369
H      -4.07104451     -1.07790353      1.34160696
O       0.66899332      6.31942636     -2.67334650
H       0.07528037      5.56459549     -2.85974647
H       1.51677391      6.07963798     -3.09071631
O      -1.86563408      2.31194981      2.26394175
H      -2.02255684      2.68290848      3.14532827
H      -0.92678023      2.49827100      2.07628528
O       3.18117397      5.39902544     -3.91730456
H       3.09224986      4.48500378     -4.26514340
H       3.81862836      5.83853577     -4.49716068
O       0.34091586     -8.36977484      4.76307887
H       0.64449926     -9.01718480      5.41710587
H      -0.60147302     -8.21534528      4.96969734
O      -3.26074013      2.32668936     -0.31561268
H      -3.26889135      3.25814718     -0.60869361
H      -2.80359911      2.33486994      0.54810987
O      -3.23659894      5.15094959     -1.20808812
H      -4.11405563      5.55720371     -1.26519636
H      -2.62992944      5.88822151     -1.00498653
O      -2.46040337     -7.77258212      5.23874036
H      -3.31647841     -7.80103573      5.69163888
H      -2.57364530     -7.11417588      4.52394199
O       0.85764199      0.39537996      3.19635719
H       0.93060391      1.23125294      2.69654341
H       1.46242305     -0.22262434      2.74476130
O       1.82533322     -4.26136193      1.61036607
H       2.64915688     -4.74562116      1.44071581
H       1.23372957     -4.92938559      2.00020885
O       0.93727446      2.88936617      1.64641150
H       1.71067332      3.44957650      1.80447378
H       0.85443265      2.84033786      0.67580781
O      -3.71489165     -1.73737177      6.87790596
H      -3.43736311     -2.08547169      6.00106772
H      -3.63404418     -2.48633392      7.48958787
O       4.52087416      1.31556714     -2.05587455
H       4.17567257      2.16688152     -1.73220797
H       4.51940008      1.40576655     -3.02536301
O       3.29761432      3.85469831     -1.32322516
H       2.38535092      3.52579444     -1.24408430
H       3.28552880      4.46067710     -2.08809208
O       0.17902136     -6.32034896      2.69986116
H       0.35308452     -7.01791736      3.35589292
H      -0.78246057     -6.16834197      2.78182135
O       2.53239193     -1.44116773      1.74117622
H       2.32564652     -2.39419674      1.77412799
H       2.93537378     -1.30815991      0.86257642
O       3.62847696     -1.18055475     -0.93365374
H       4.33385673     -1.79363923     -1.19393791
H       3.90909841     -0.31646569     -1.28642155
O      -1.94579368      1.63856344     -4.30886716
H      -1.32568138      1.12312325     -3.75547760
H      -2.17398076      1.06314045     -5.05353761
O      -1.32914470      7.28426649     -0.79317735
H      -1.00598820      8.08993174     -0.36410494
H      -0.62144216      7.02328622     -1.41184297
O       0.60866417      2.74093769     -1.18935174
H       0.42709716      1.85027353     -1.54035041
H       0.00096709      3.30159620     -1.70241615
O      -1.17008152      4.08569825     -2.99118767
H      -1.50837819      3.32528398     -3.49615406
H      -1.92749214      4.40167416     -2.46431541
