89
charge=0
N      -3.44822690      5.02893964     -6.44980211
O       2.72644290     -1.75047445      2.93974638
O      -2.08387404     -1.20667702      3.71005613
C      -3.45901964      4.48991487     -5.41901601
C      -0.62190433      1.33867621     -0.96947859
C      -1.32559460      1.96163159     -1.75006523
S      -4.62741848      3.56704962     -3.04419096
S      -1.03689138      0.02307572      1.36583093
C       2.68312207     -1.24226689      1.83069663
C      -1.03996187     -1.77692265      3.97838855
C      -3.60436785      2.71061405     -1.96634033
C      -3.35450091      3.82100397     -4.20462841
C      -0.04852621      0.58512122      0.04574422
C      -2.21266852      3.25266815     -3.73777882
C       1.22838071      0.16081784      0.21860511
C      -2.34582087      2.62145812     -2.46060618
C       1.42513097     -0.62348218      1.39841309
C       0.26385817     -0.81141395      2.11648672
N       3.77238617     -1.27569953      0.99919887
N      -0.94086162     -2.67027410      5.00433652
N       0.13028252     -1.57083892      3.25753510
H      -3.91068515      2.29310150     -1.02672852
H      -1.28298728      3.26921768     -4.28420910
H       2.01383039      0.36550650     -0.48827260
H       3.77187538     -0.89378701      0.05649460
H       4.51419522     -1.93590046      1.20405407
H      -1.73979982     -2.89871605      5.58155399
H      -0.12375652     -3.25339980      5.14983923
H       0.97009141     -2.03714763      3.60151731
O      -3.86307999     -1.53543908      1.42884523
H      -4.07347081     -2.47969907      1.36974850
H      -3.24705502     -1.45388871      2.18491199
O      -3.18100728     -3.41248152      6.87251611
H      -3.55941944     -2.56793426      7.15917252
H      -3.91956572     -3.90775553      6.48821169
O       0.40523894      5.60362481     -4.00129158
H       0.79771234      4.97624631     -3.36459354
H       0.65462306      6.48413617     -3.68355832
O      -4.18839400      1.30065452      0.78308349
H      -3.79721669      1.56300920      1.63636242
H      -4.15937603      0.32820062      0.84569090
O       1.63762890      0.99867582     -3.27962061
H       1.37909991      1.21651184     -4.19305565
H       1.16479966      0.16731687     -3.08307142
O      -6.41636533      2.72177544     -0.52849864
H      -5.71830280      2.23475721     -0.04825815
H      -7.19712386      2.69135135      0.04701119
O      -0.45173130      4.22683736     -6.39588244
H      -1.35873413      4.53346569     -6.56887558
H      -0.14062291      4.77116719     -5.64717468
O      -2.94431550      1.56426265      3.41942647
H      -2.62203868      2.04483433      4.19672468
H      -2.62482336      0.64605317      3.53318495
O       3.90870109     -0.00152834     -1.79994220
H       3.19161059      0.39265430     -2.33170930
H       4.67194824      0.57868765     -1.93479879
O      -0.64681394     -4.68635180      7.69627903
H      -1.49937780     -4.27700606      7.45369682
H      -0.65638049     -4.75238688      8.66254758
O      -3.69793046      6.08478700     -9.20836102
H      -4.46447308      6.67975044     -9.16171474
H      -3.59860829      5.72087966     -8.30631980
O       1.31839709     -4.74320286      5.58632987
H       1.30053014     -5.65446795      5.25215101
H       0.72984971     -4.75307869      6.36558026
O       3.19776575     -4.64611274      0.11719471
H       3.16017384     -4.02905466     -0.64057815
H       3.93641768     -4.33113183      0.67453414
O       5.48197173     -3.64120327      1.81361477
H       6.36054237     -4.02761478      1.94470205
H       5.01206845     -3.78817322      2.65602770
O       3.86031289     -3.93585838      4.27841365
H       3.49309797     -3.15205907      3.81907767
H       3.09194266     -4.26804525      4.77826409
O       0.81364170      1.68251460     -5.94332939
H       0.90007636      1.27134244     -6.81614570
H       0.40072139      2.54778733     -6.11755169
O       3.16135030     -2.78784376     -2.19341288
H       3.73138407     -3.17360131     -2.87547392
H       3.49093652     -1.87805289     -2.05846538
O       3.54524584      0.10598542      5.01119979
H       3.26008978     -0.48648386      4.28789278
H       4.12346908     -0.43631549      5.57222684
O       0.49446298     -1.58710256     -2.56898506
H       1.32700104     -2.07627339     -2.42490640
H      -0.21316181     -2.22305640     -2.39090315
O       1.53763438      3.68337147     -2.14299594
H       1.58057565      2.78579925     -2.52348589
H       1.76008521      3.57941968     -1.20526921
