86
charge=0
N       0.14895132      0.49384550      2.10732398
N       0.45083194     -0.27465090      3.02250935
N      -1.98686867     -2.22703044      1.26767418
C      -1.12400674     -1.43324080      1.75334323
C      -2.33184943     -3.45679087      1.78931128
C      -0.10690634     -0.22938264     -0.18573691
C      -2.03054782      0.80035776      1.09495806
C      -1.02107920     -1.74797912      4.25561250
C       0.82986594     -2.64338518      2.77485294
C      -0.77882808     -0.07552962      1.18134938
C      -0.21936572     -1.54380250      2.96754266
H      -1.45513591     -4.09281839      1.90311772
H      -3.02270259     -3.95984121      1.11072331
H      -2.82961243     -3.34155032      2.75196903
H      -0.77658044     -0.69543611     -0.90436929
H       0.19746492      0.73937505     -0.57861201
H       0.78039213     -0.85409137     -0.10024563
H      -1.78348381      1.78128173      0.69448428
H      -2.78292218      0.34865910      0.45213337
H      -2.46548213      0.93724172      2.08365957
H      -0.37066978     -1.65237058      5.12395381
H      -1.48274347     -2.73257898      4.28862344
H      -1.80332078     -0.99483350      4.33760866
H       0.38120681     -3.63384411      2.75529894
H       1.36594017     -2.49128823      1.83949405
H       1.55794432     -2.61818355      3.58423930
O      -2.37392508      2.69317829     -3.95856940
H      -2.69401560      2.67963408     -4.87289007
H      -1.72447204      1.96739047     -3.91295521
O      -0.04620779     -4.52852645     -2.11580225
H       0.53211886     -4.63941184     -1.34131634
H       0.29176250     -5.16131045     -2.76644971
O       4.75087883     -0.93380701      0.31709951
H       5.62294490     -0.82430869     -0.09135135
H       4.65256901     -0.15991275      0.90023330
O       2.28742083      1.19076387     -2.93564029
H       3.01623452      1.51429650     -3.48622777
H       2.00561125      1.96142421     -2.40717710
O      -2.95768523     -4.60743509     -1.40833284
H      -3.19372779     -3.66509983     -1.40930615
H      -2.01104611     -4.62983763     -1.63290634
O       1.32130474      3.42490353     -1.43883565
H       0.52022624      3.88562206     -1.73810481
H       1.23709657      3.39086131     -0.46857919
O       3.67265127     -3.39843826      1.39196693
H       4.22328302     -3.53639737      2.17823420
H       4.00713552     -2.57330956      0.99668083
O       4.51355240      1.33345378      2.00402925
H       4.33142990      2.24971215      1.72867713
H       3.95633325      1.22755719      2.79697931
O       3.65881273      4.02241742      1.34310911
H       2.70556189      3.82111612      1.41578873
H       3.70665761      4.94212294      1.04157183
O      -0.48244822      0.60123638     -3.78794619
H      -0.66646587     -0.31899512     -3.52833606
H       0.44859084      0.74892567     -3.53855960
O      -1.71413939      4.28354275      0.57537851
H      -1.54761171      4.48968153     -0.36536899
H      -2.61641489      3.91411169      0.57963119
O       1.65972953     -5.01235743      0.11955859
H       1.71681489     -5.82516395      0.64592380
H       2.33097854     -4.42369871      0.49734729
O       2.66057249      1.19984860      4.24034241
H       2.25455427      1.79490948      4.88855614
H       1.90675147      0.74585072      3.79260130
O      -1.02037672     -2.04742061     -2.89928314
H      -3.65888921      1.94107483     -2.62362691
H      -0.61890874     -2.84229780     -2.68722928
O      -1.18685724      4.72374071     -2.27720779
H      -1.61048950      4.05457199     -2.84702244
H      -1.32598189      5.56881924     -2.72947624
O      -4.87835240      0.86483472     -1.44563273
H      -4.35080910      0.04832263     -1.37941060
H      -5.73375362      0.57562938     -1.79670920
O       2.48578070     -1.38429832     -1.52857710
H       3.23613048     -1.25303188     -0.92328063
H       2.41274143     -0.54749804     -2.02844873
O       0.84921837      3.33571177      1.48446095
H       0.64712649      2.40618119      1.72989003
H      -0.02362730      3.72716348      1.29452902
O      -3.30627880     -1.51638501     -1.28541773
H      -2.57753405     -1.62674852     -1.92430992
H      -2.89413618     -1.73510308     -0.41752292
O      -4.34166808      3.06140508      0.39390203
H      -5.17702364      3.21724909      0.86001979
H      -4.52356800      2.32685160     -0.22255335
