88
charge=0
O      -0.13980199      1.91158803      2.64470040
O      -0.94389740     -2.26040399      1.78707329
O      -0.16361378     -2.45689577     -3.12111536
O       1.46912495      0.66848814     -0.30801648
O      -1.74208291      3.00648319      0.86799619
O       1.30284156     -3.50096948      1.57475810
O       0.65743367     -2.23366412      3.80361089
O       0.44942051      0.04609840     -3.11919413
O      -1.81357468     -0.81954871     -2.08859472
C      -0.71437952      0.33427136      0.42279350
C       1.28078744     -0.69691607      1.55749145
C       0.63231447     -1.44860174     -0.74890360
N       0.67599823     -0.25981598      0.21687146
P      -0.55387492      1.98388674      1.18238108
P       0.52118864     -2.25086485      2.20942985
P      -0.26669886     -1.16193097     -2.33327512
H      -1.49359565      3.81371590      1.35540289
H       1.00182953     -4.27366161      2.08387288
H      -0.01893043     -1.60305901      4.11610824
H       1.20408380     -0.28215632     -3.64658821
H      -2.12374443     -0.67457290     -3.00433505
H      -1.34278927     -0.31490939      1.03028459
H      -1.18457008      0.47871512     -0.54422129
H       2.35003871     -0.84710911      1.43658281
H       1.15714591      0.10765354      2.27733846
H       0.17066315     -2.30264432     -0.26424568
H       1.65532306     -1.71624079     -0.99698040
H       0.57587004      2.57696597      0.58573857
O      -1.19056887     -0.21774226      4.22576797
H      -0.88440732      0.55424939      3.71174481
H      -2.10491582     -0.33386694      3.92951561
O      -0.65225633     -4.86018998      3.00122356
H      -0.96527625     -4.00190491      2.65600918
H      -1.35117715     -5.17908760      3.58851982
O       2.26879269     -4.11435230     -1.07574758
H       2.03211006     -3.96080431     -0.14166382
H       1.48904465     -4.56781145     -1.44065971
O       3.09671980      0.48793900      3.63240765
H       4.01373658      0.42505345      3.93846166
H       2.96245052      1.42792355      3.40989303
O      -0.43121708      5.05649989      2.14001938
H       0.43160439      5.17519652      1.70112875
H      -0.45770318      5.71634046      2.84552299
O      -2.27230330     -0.42928334     -4.81839572
H      -1.50424976     -0.83499021     -5.25805467
H      -2.94929840     -0.35573023     -5.50485404
O      -2.53813702      3.17792613      3.77390444
H      -2.42245798      3.45024070      4.69648418
H      -1.66431574      2.84508246      3.48378059
O       0.12531892     -1.75621545     -5.83997832
H      -0.03523924     -2.22357470     -4.99761547
H       1.03026546     -1.42009477     -5.71002596
O      -2.98765871      0.62974250      2.30662893
H      -3.41428053      0.65716544      1.43106701
H      -3.05426214      1.52784476      2.67594833
O       2.42940282      3.21071109      2.91908812
H       1.52296606      2.84015828      2.90153922
H       2.42068887      3.90370233      2.23340211
O      -2.05493195     -3.38012189     -0.64766948
H      -1.78492744     -3.07425287      0.23959369
H      -2.10117423     -2.56620467     -1.18615587
O       1.52978596      3.34188866     -1.38837445
H       1.67212735      2.42019217     -1.10422384
H       0.86018701      3.26624724     -2.09142708
O      -3.89335636      0.56855682     -0.48213593
H      -3.32180594     -0.01150488     -1.02243085
H      -3.79892622      1.43734782     -0.91060317
O      -2.94368022      3.00288545     -1.74406238
H      -2.17197276      2.96567252     -2.34038753
H      -2.56170519      3.12692843     -0.85180292
O       2.66790115     -0.83457870     -4.71093549
H       3.09794617     -1.51173886     -4.15752601
H       3.38073557     -0.46016406     -5.24714267
O       1.19600566      0.29293884      5.94344180
H       0.34736792      0.14501000      5.48295584
H       1.86068732      0.34060846      5.22781963
O      -0.27741419     -5.10604141     -2.01458937
H      -0.30297033     -4.25066897     -2.48809328
H      -1.09918003     -5.10671805     -1.49606124
O       3.87404906     -2.77054209     -3.01709315
H       3.32958613     -3.24560553     -2.36383680
H       4.70741105     -3.26300353     -3.04740395
O       2.12653695      5.17906924      0.74154643
H       1.96359157      4.59875432     -0.02626367
H       2.77094034      5.83151381      0.43367906
O      -0.53548013      2.73632624     -3.38363093
H      -0.66740525      2.93331224     -4.32195059
H      -0.24209906      1.80449787     -3.35202608
