102
charge=0
O      -4.34190288      1.83913630     -2.23098172
O      -6.04137924      1.29993443     -0.96414957
O      -0.35227577     -1.24968792      2.37422634
S      -2.20136924      1.21118196     -0.22232749
C      -3.10429013     -0.41514259      1.55994858
C      -4.22470331      0.05657689      0.86172945
C      -1.91266517      0.04674158      1.03981254
C      -3.90657454      0.87294307     -0.19105245
C      -0.59913687     -0.31921063      1.39176147
C       2.66516733      5.40671089     -2.43618037
C       2.35593538     -1.66286799      4.82703719
C       1.34566189      4.99870916     -2.34704171
C       3.66163113      4.66469474     -1.82618986
C       3.44240913     -1.17441203      4.13004104
C       1.11421417     -1.68437226      4.24020553
C       1.01633815      3.86119407     -1.65692321
C       3.34835740      3.52373875     -1.13491688
C       3.28206921     -0.70478345      2.84192453
C       0.93136760     -1.21633171      2.94054281
C       2.01137474      3.08807641     -1.02861807
C       2.03916904     -0.71253042      2.24026370
C       1.68526412      1.91175845     -0.31956727
N       0.43376625      1.46367318     -0.08313196
N      -4.81421095      1.36558138     -1.17833204
N       0.43019796      0.26051540      0.70403757
C       2.65828387      0.94664545      0.31178886
C       1.80955623     -0.24431709      0.83607373
H      -3.14810663     -1.11160630      2.38445726
H      -5.23894112     -0.24713189      1.07205089
H       2.91769468      6.29547745     -2.99041439
H       2.48048740     -2.02812303      5.83317971
H       0.57573184      5.57048262     -2.83821930
H       4.68952725      4.97747963     -1.90863213
H       4.41593579     -1.15797489      4.59135037
H       0.25673558     -2.04413244      4.78009142
H      -0.00979614      3.54347436     -1.61432376
H       4.12785226      2.94637487     -0.66973329
H       4.13092485     -0.33112226      2.29625267
H      -0.42776063      1.91186452     -0.42249198
H       3.40029156      0.61941022     -0.42430260
H       3.19074674      1.43472894      1.13192495
H       1.90260949     -1.10296243      0.15666427
O      -0.78992060      4.26043145     -4.50951201
H      -1.42809270      4.69714570     -5.09279956
H      -1.28131570      4.08133391     -3.68530090
O       3.45512208      2.71429706      3.01791940
H       2.48299467      2.62773552      2.99255975
H       3.63273814      3.41708425      3.66251322
O       2.45036255      0.58981708     -3.03807494
H       3.11743676      1.22628799     -3.36135255
H       1.65114666      0.79424608     -3.56179904
O       0.70744022     -5.02900538      5.18511207
H       0.42546806     -4.80836930      4.27618363
H       1.32658582     -5.76783657      5.09215792
O      -1.19637543     -3.07288252      6.18758765
H      -1.30394186     -3.16205443      7.14639948
H      -0.56222083     -3.76882612      5.92941262
O       1.87494532      3.47511996     -5.54354282
H       1.60184031      2.58432913     -5.82757522
H       1.05111705      3.86515587     -5.19845358
O       1.92124650     -2.70680938     -1.57565016
H       1.81694050     -3.43638267     -0.93586730
H       2.71969182     -2.91022739     -2.08410853
O      -3.07618412     -5.05751166      2.59683719
H      -3.35142939     -4.92674091      1.67125843
H      -3.62495266     -5.78630787      2.92090863
O      -6.63648109      3.37147179     -3.16719621
H      -5.86525207      2.84595336     -2.88213547
H      -7.38266914      2.97660151     -2.68883892
O       0.10551986      1.42700860     -4.69593920
H      -0.67695325      0.89991201     -4.46146145
H      -0.21445021      2.34749680     -4.62125312
O      -0.26887019     -0.93002703     -1.95864954
H       0.51532890     -1.50499455     -1.99277984
H      -0.02904428     -0.25595003     -1.27919189
O      -2.20352238      3.68248288     -2.06694647
H      -2.56512549      4.35459375     -1.46874487
H      -2.91857258      3.02829424     -2.15505587
O      -0.27585711     -4.21892597      2.57701712
H      -1.20686458     -4.50729092      2.55734427
H      -0.31095111     -3.24321726      2.54335298
O       4.28300851      2.64187582     -4.17165347
H       3.50052116      2.99372871     -4.63897649
H       5.02170903      2.75199730     -4.78995644
O      -3.02040038     -2.43855512      3.95652012
H      -2.43573650     -2.59109247      4.72336105
H      -3.08919796     -3.31031953      3.51865300
O      -3.73652315     -4.56700074     -0.14814454
H      -4.19584352     -4.47597843     -0.99543795
H      -2.97371742     -3.95924091     -0.20087592
O       0.56618316      2.41401869      2.87820833
H      -0.17566245      2.07469864      3.39995840
H       0.50585279      1.94876638      2.01144135
O      -2.30009697      0.15077917     -3.72475484
H      -1.70771292     -0.27154520     -3.07106924
H      -2.98032516      0.62987514     -3.21356018
O      -1.48150728     -2.81628176     -0.09138776
H      -1.14456399     -2.25399546     -0.81011523
H      -1.14200305     -2.38394473      0.71480142
O       1.55577714     -4.82438259      0.37691021
H       0.94939174     -4.61035316      1.11022560
H       1.42804371     -5.77114594      0.21201695
