108
charge=0
O       2.23025208      0.95223212      2.30446028
O       1.93916978      2.25666190      4.46890744
O       0.04409394      1.96667741      2.91997664
C       0.03554081      1.49471984     -1.15953860
C      -0.38544808     -1.60355653      0.83333749
C      -0.44403170     -2.98381661      0.81380019
C      -0.09341288      0.61682625     -0.10468976
C      -0.25580684     -0.75068225     -0.25077824
N      -0.19735264     -3.85503121     -0.21093354
N       0.24532842      2.83698961     -1.04730104
C       1.74657119     -3.05135207     -1.53511535
C       0.01853147      1.13450384     -2.61950745
C      -0.75651168     -3.78084042      2.05368827
C       0.33016785     -3.58353247     -1.55954787
C      -0.31802986     -5.27775077      0.18145243
C       0.43195753      3.52857773     -2.33903194
C       0.45464430      3.55709054      0.21551447
C      -0.56729607     -5.26869964      1.69534323
C       0.40077233      2.41385646     -3.39758503
C       1.89747107      3.42603620      0.70831161
C       2.04764302      3.54960892      2.21667234
S       1.52128670      2.00870219      3.06794456
H      -0.48147679     -1.14181809      1.80079968
H      -0.03743673      1.00995757      0.89517528
H      -0.32976804     -1.14307412     -1.24550216
H       2.11618055     -2.81888495     -2.53571780
H       1.81783361     -2.14296716     -0.93708094
H       2.42740535     -3.77619610     -1.08734511
H      -0.98132887      0.78004781     -2.89408155
H       0.71825656      0.31468097     -2.81584383
H      -1.78652573     -3.57248983      2.36490832
H      -0.10570886     -3.46869246      2.87842740
H       0.27997287     -4.51282819     -2.13694650
H      -0.35460634     -2.90080468     -2.06514941
H       0.59397649     -5.81763164     -0.09212436
H      -1.15150602     -5.72220061     -0.37063616
H       1.37877742      4.07692554     -2.32818616
H      -0.37810318      4.25214660     -2.47246570
H      -0.24191977      3.15082147      0.95182390
H       0.17034725      4.60550298      0.08671535
H       0.28774008     -5.69492955      2.23386923
H      -1.44163190     -5.87151565      1.96920765
H      -0.31073751      2.63216161     -4.20320488
H       1.38417462      2.30063972     -3.86987690
H       2.52137194      4.16739830      0.19470998
H       2.29493982      2.45353378      0.39022896
H       1.45522658      4.38004131      2.59962269
H       3.08452041      3.73259136      2.50236359
O      -2.85618636     -6.65066081     -2.41262736
H      -2.64322575     -7.57556439     -2.60826808
H      -3.10877635     -6.64158310     -1.47068327
O       3.33432067      7.07063284      0.99810755
H       2.84117252      6.91577142      1.82364625
H       4.02139508      7.71038374      1.24066465
O      -2.59830433      2.54646519      1.88070937
H      -2.98582604      1.65073541      1.85618877
H      -1.71657871      2.40789729      2.28043263
O       1.95139593      6.68545251      3.48038421
H       1.11313897      7.07113541      3.77658428
H       2.19879035      6.05894015      4.18421211
O       3.15469363      5.77351856     -1.55290182
H       3.21609627      6.20865639     -0.68245832
H       2.82804898      6.46061960     -2.15345428
O       2.58176857      4.78851373      5.53984356
H       2.92141983      4.63657558      6.43412970
H       2.35578537      3.90129223      5.20384305
O      -3.11573559     -4.05494102     -3.62273346
H      -3.69371663     -4.19857652     -4.38720196
H      -2.99935634     -4.93780567     -3.22498980
O      -3.97488206     -3.92890084      1.25019250
H      -3.76019224     -3.39545239      0.46234922
H      -4.50710048     -3.33512562      1.81127619
O       3.22187376      0.39529856     -2.29991129
H       3.53253335      1.30907090     -2.16022144
H       3.20589140     -0.00006052     -1.40938218
O      -3.57054565     -6.62283601      0.38264420
H      -3.70400079     -5.70430562      0.68034523
H      -3.98337831     -7.16979730      1.06798934
O      -1.17082904     -0.52614815      3.77783653
H      -0.72761340      0.27874105      3.44583184
H      -1.06656519     -0.45453857      4.74098729
O      -5.59642364     -2.11312074      2.91339579
H      -5.71218651     -2.18408016      3.87288051
H      -6.44012320     -1.78112290      2.57079633
O      -3.46541758     -0.26814551      2.00346386
H      -2.71556506     -0.42440479      2.61086731
H      -4.16317164     -0.88796981      2.28915657
O      -3.38075457     -2.44938129     -1.13685289
H      -2.81293987     -1.69292690     -1.35311344
H      -3.35031059     -3.00721308     -1.93686446
O       4.19630278      3.09640274     -1.86990625
H       3.82298374      3.99285344     -1.78496047
H       5.14460003      3.20301852     -1.69489214
O      -1.64184978     -1.54316057     -3.23986858
H      -2.11603488     -2.37020057     -3.45362672
H      -1.10951246     -1.34909569     -4.03373237
O       3.19664230     -0.77837937      0.34483707
H       2.83434313     -0.17570472      1.01883426
H       3.76213873     -1.38698986      0.84516124
O      -0.01468514     -0.99961803     -5.55657938
H      -0.04996260     -0.85927887     -6.51494971
H       0.92733785     -0.91199287     -5.31949896
O       2.75016776     -0.72158590     -4.85831507
H       3.63524838     -0.89306135     -5.21404342
H       2.90478725     -0.33593218     -3.97697287
O      -0.15250732      1.23273102      5.81152129
H      -0.12399849      1.59494094      4.90110440
H       0.75565192      1.38730572      6.12110358
