70
charge=0
O      -1.00488656      0.34537407      1.16145843
O       0.05844330     -2.06206194      0.55323351
O      -1.41738687     -0.72199065     -1.25646929
O       1.64350492      0.01315306      0.89038217
O       0.23821134      1.38185699     -0.97187239
O       1.14803612     -0.93507100     -1.66010975
P       0.24431449     -0.64545113      1.27124881
P      -1.02991926      0.58147367     -0.41422044
P      -0.12319194     -1.60718693     -0.96880568
P       1.36375372      0.29451150     -0.65403961
O      -3.73868438      0.90704134     -0.08257115
H      -4.42430890      0.34234745      0.30720004
H      -2.96771034      0.73893498      0.50503521
O      -1.34030784     -1.23182727      3.69402503
H      -0.53694444     -0.69216890      3.81299298
H      -1.02289211     -2.13808473      3.52663391
O      -0.01604495      2.51989281     -3.72097543
H      -0.87180020      2.19589641     -3.37887567
H      -0.08241843      2.44581223     -4.68424115
O       2.13305800     -2.53727436      2.40001115
H       2.37290393     -2.66775707      1.46467930
H       2.68924007     -1.77775976      2.64962760
O       3.84709960     -0.17404554      2.64486485
H       4.75381734     -0.14144031      2.98432399
H       3.92441286     -0.04307603      1.67988626
O      -3.07632733     -1.59129132     -3.50616763
H      -3.02819419     -0.68748563     -3.14065786
H      -2.36498759     -1.62587802     -4.17125946
O      -3.63176924     -0.64727712      2.09625895
H      -4.37392951     -0.65655333      2.71982536
H      -2.83953682     -0.74585827      2.65705345
O       2.69668778      2.65333228      0.26631462
H       1.99313714      2.62179914      0.94312918
H       3.26795682      3.39231989      0.52859558
O       3.05000822     -2.50833936     -0.29868980
H       3.44434225     -1.61773385     -0.37883390
H       2.84445825     -2.78564461     -1.20354449
O      -0.57179630     -0.35867585     -3.96907004
H       0.03814807     -0.59069624     -3.24246956
H      -1.24133079      0.21762218     -3.54984152
O       0.49691667      2.76492583      2.17896036
H       0.32564322      3.42453204      2.86838986
H      -0.27508645      2.82235311      1.58895437
O      -2.53774736     -3.10867596      0.90091176
H      -2.94406779     -2.29910861      1.26120804
H      -1.83991715     -3.35778653      1.53766725
O       0.56334736      4.12850426     -1.35578783
H       1.29095415      3.65306511     -0.91055596
H       0.41616292      3.63081697     -2.18162898
O      -1.65189206      3.18743511      0.30774485
H      -0.98585415      3.55221394     -0.30840834
H      -2.50457625      3.54953588      0.02539469
O      -1.75973069     -3.66565720     -1.78377574
H      -2.08405798     -3.53631412     -0.87196759
H      -2.26927626     -3.03450427     -2.33103761
O       2.52533017      1.17982220     -2.95776076
H       2.31821489      0.24318878     -3.13930641
H       1.71737455      1.66841331     -3.21116663
O       4.15089609      0.22696559     -0.47462650
H       3.69172103      1.06319558     -0.25656944
H       4.52950536      0.38791712     -1.35177663
O      -0.38435812     -3.83607781      2.89220360
H      -0.21533623     -4.77245080      3.07085381
H       0.49129426     -3.45110670      2.69602422
O      -2.63502306      1.43199007     -2.71353053
H      -3.34307765      1.87225444     -3.20879556
H      -3.02492909      1.26240924     -1.83506927
O       1.07615260      0.38652916      3.71041333
H       1.99453110      0.19182773      3.43951096
H       0.85996961      1.20832819      3.22804246
