102
charge=0
N      -3.78136848      2.82826331     -5.14789115
N      -3.15030409      0.72726690     -3.18038155
N      -1.67839154      2.75371956     -5.90371639
N      -1.21866486     -0.30666695     -2.93617460
N       1.35463377     -0.68722845      5.28464644
N       2.47739580      0.79890376      3.79108416
N      -0.08999501     -0.05385675      0.83451375
O      -1.07970830      0.57359391     -3.93104982
C      -2.58897814      2.25002023     -5.02651881
C      -2.28913422      1.19962667     -4.05878325
C      -2.32532169      3.66121103     -6.57784426
C      -2.46855069     -0.19974002     -2.50154748
C       2.33461407      0.16836103      4.96385291
C       0.41161116     -0.84899866      4.39135420
C       1.50796461      0.61686713      2.94355421
C      -0.95119988     -0.19920515     -0.14417553
C      -0.50592702     -0.43658020      2.05043859
C      -1.73381277     -1.05925069      2.24307157
C      -2.58272182     -1.24461608      1.18315889
C       0.43580049     -0.22261282      3.15651702
C      -2.19544443     -0.78692374     -0.05951934
N      -3.62028478      3.70296869     -6.10827799
N       3.31901244      0.40320306      5.89598884
C      -4.78358993     -2.14655422     -1.87223739
C      -4.56384417     -0.79253755     -1.16180019
C      -3.28729061     -2.47885969     -1.68580857
C      -3.02133512     -0.98286225     -1.32704909
H      -1.90380475      4.26821377     -7.36740410
H      -0.40046852     -1.50923768      4.65518610
H       1.57092849      1.13522687      2.00142397
H      -0.60451564      0.10817431     -1.11422418
H      -2.00117949     -1.41835407      3.22023607
H      -3.52237791     -1.75296339      1.31087360
H      -4.38929798      4.31826285     -6.43414065
H       4.12338219      0.98013542      5.67229546
H       3.40653919     -0.08350681      6.78185183
H      -5.46867618     -2.82895979     -1.35061880
H      -5.07534037     -2.04034524     -2.92562670
H      -4.89230920     -0.76645918     -0.11683562
H      -4.94561266      0.07773129     -1.71143351
H      -2.76964843     -2.80017725     -2.59894421
H      -3.06412214     -3.15950465     -0.85493186
O       1.27872407     -0.72729713     -7.43146599
H       1.27152923      0.16529814     -7.03611290
H       1.98770126     -0.70752051     -8.09177321
O       5.77657030      1.97711634      5.38242231
H       5.85318900      2.94171631      5.41182378
H       6.19488577      1.71087820      4.54154056
O       6.31104186     -0.52338534      6.91913412
H       5.53489100     -0.70753085      7.48068764
H       6.13393870      0.34676238      6.50864814
O      -5.75466231      5.47471851     -7.07825583
H      -6.02775634      6.16231371     -7.70486502
H      -6.54811075      5.27333996     -6.54419432
O      -6.55266102      2.73387195     -3.99860444
H      -5.64501416      2.76443310     -4.37476859
H      -7.05022923      3.42410945     -4.48121193
O      -1.41887945     -2.49388775      7.89911900
H      -0.44302256     -2.48482869      7.87009104
H      -1.70307052     -2.48614132      6.96288940
O       2.56431849      0.68444141     -0.52996604
H       1.71688003      0.50531350     -0.06058824
H       3.19766385      0.98936873      0.14563171
O       1.54260496     -2.53510131      7.57198456
H       1.76580139     -3.40167516      7.19830371
H       1.48027929     -1.92283944      6.80204209
O       1.20590204      1.86093441     -6.13835472
H       1.47595965      1.69156428     -5.21714462
H       0.27280863      2.16729552     -6.06838166
O       3.85489511     -1.02032234      8.51879025
H       3.82657858     -0.91177059      9.48057338
H       3.08111725     -1.57358473      8.30083775
O      -0.38730283     -1.90556792     -5.36170873
H       0.17015616     -1.58816777     -6.08789886
H      -0.63262072     -1.08963029     -4.87205996
O       1.84413949     -2.13774316     -0.31294290
H       1.22111609     -1.55273093      0.16128961
H       2.49421290     -1.53286543     -0.70744037
O      -8.13045769      4.85028870     -5.45624669
H      -8.90865470      4.38628711     -5.80061781
H      -8.46327192      5.43806564     -4.76108859
O       1.71801401      1.17559270     -3.33416930
H       0.77359602      0.89794906     -3.37985553
H       2.00775836      1.01541310     -2.41666748
O       4.44348901      1.50949716      1.65595253
H       5.32922017      1.35484362      2.03321733
H       3.82526925      1.29390862      2.38708041
O      -2.31667097     -2.56023679      5.02844292
H      -3.24306633     -2.32154565      5.19103557
H      -2.33306708     -3.47807210      4.71464432
O      -0.63211648     -3.77802696     -0.67142452
H      -0.73282226     -3.88901400     -1.63695722
H       0.21769788     -3.31122422     -0.55925503
O       7.71928931     -1.32414835      4.49826162
H       7.27258180     -1.11598345      5.34028805
H       8.10550611     -2.20288563      4.62541116
O      -1.02014069     -4.02211596     -3.55661573
H      -0.82780013     -4.83128144     -4.05470354
H      -0.79645245     -3.29620132     -4.16687004
O       7.05069687      1.00273521      2.92317663
H       7.29350608      0.18100985      3.39061686
H       7.77772890      1.16278605      2.30388653
