87
charge=0
O      -1.54958533      4.09243004      1.18180444
N       1.76725232      3.19068772      0.24853824
O      -0.31579876      5.01601982     -0.45916094
C      -0.50977689      4.12896398      0.54871190
C       0.56062530      3.15678984      0.81456139
C       2.23892020     -2.18581211     -1.06220424
C       1.86965865     -2.88148821     -0.00571496
C       0.41715914      1.94332251      1.54517409
C       1.60338270      1.27226838      1.38878446
N       2.37788780      2.07012439      0.57113661
C       0.71268035     -2.52222168      0.86747956
C      -0.65754161      1.05867125      2.13423206
C       1.45824338     -0.17433091      1.78799663
C       0.47491769     -1.01252555      0.96906353
C      -0.00735813     -0.34625625      2.25294646
H      -1.15650012      5.52316166     -0.53210923
H       1.73198165     -1.28441069     -1.34460092
H       3.05645472     -2.49500911     -1.68367345
H       2.39882560     -3.79217042      0.22630237
H       3.32034092      1.82627915      0.21979071
H       0.86490260     -2.92532153      1.87495492
H      -0.19563692     -3.00525022      0.49171931
H      -0.97791263      1.44080906      3.10858352
H      -1.53069780      1.02265506      1.47777923
H       2.26396893     -0.63675339      2.36874146
H       0.11848582     -0.56359794      0.03764347
H      -0.22653526     -0.95507918      3.13843990
O      -3.45819232      2.24214734      0.09048687
H      -3.55316659      2.60847128     -0.80512764
H      -2.82022212      2.86219551      0.50034635
O       4.00153795      4.54533383     -1.03655203
H       3.29605260      4.04333559     -0.55939152
H       4.27921769      5.24819661     -0.43000557
O      -2.94005696      6.23430122     -0.76286094
H      -3.26421900      6.02062827      0.12590728
H      -3.36629328      7.06891836     -1.00663193
O      -3.00228092     -0.61367248     -0.27953557
H      -2.49010058     -0.69172161     -1.10522923
H      -3.20779753      0.33493248     -0.19341395
O       1.64282313      5.43098374     -2.61230475
H       1.01509817      5.41058736     -1.86266887
H       2.49620970      5.17784248     -2.21534920
O       5.12070561      1.78132379     -0.79797939
H       5.73283092      1.53560560     -1.50840506
H       4.87746522      2.71131219     -0.97209617
O       0.91869111      0.90966244     -1.85950897
H       0.51521920      1.69028817     -2.28288126
H       1.37107236      1.28283765     -1.06680047
O      -0.33409084     -3.62856963     -2.28078947
H       0.42220328     -4.16307122     -2.58509643
H      -0.80124154     -4.17968506     -1.62340149
O       3.07983768     -5.70267377      1.18986017
H       3.31860812     -5.88798428      2.11048615
H       2.16684888     -6.03259399      1.09346853
O      -1.82197585     -5.13548423     -0.17057682
H      -2.08577562     -4.38282340      0.38990188
H      -2.65046686     -5.45588280     -0.55765738
O      -2.53726786     -2.87507473      1.38904369
H      -2.71843107     -2.13508236      0.78004028
H      -2.79550565     -2.51091296      2.25359972
O      -0.27520536      3.37211583     -2.89652900
H      -0.27816961      3.87414534     -2.05608104
H       0.31166525      3.88646315     -3.47452881
O      -3.33784628     -1.49190368      3.80192160
H      -3.54170736     -0.59568722      3.47320444
H      -3.93192596     -1.62451142      4.55619074
O      -3.21181770      3.71470730     -2.39078253
H      -2.30133257      3.53409162     -2.69059257
H      -3.15681126      4.57567984     -1.92812910
O      -1.28307475     -0.91425214     -2.55934983
H      -0.94090855     -1.82819130     -2.53587115
H      -0.51294785     -0.33317109     -2.40595285
O       1.96210997     -5.16608912     -3.12877510
H       2.74979854     -5.23703342     -2.55787792
H       2.22819266     -5.54394182     -3.98061280
O      -3.89992561      1.16041440      2.82295614
H      -3.89946221      1.42903653      1.88623741
H      -3.45126795      1.90192157      3.27081538
O       0.39221834     -6.64037986      0.90815555
H       0.04897852     -7.54583577      0.94783573
H      -0.33983101     -6.11105390      0.54284428
O       4.28281176     -5.35969736     -1.40941931
H       5.23763925     -5.48246561     -1.30062966
H       3.90215675     -5.49164432     -0.52053536
O      -2.35871032      3.41263807      3.82352341
H      -2.20742876      4.18525721      4.38801766
H      -2.06135927      3.68147029      2.93026588
