94
charge=0
N      -3.97186417     -0.32309347      1.99228604
O       1.94803511      0.04760871     -5.75068523
O       3.18886554      0.73530697     -4.10040484
C      -2.84350299     -0.44259183      1.72051207
N       0.11859693     -1.02838763     -3.86416690
N      -0.43431940     -1.32488773     -2.77670613
N       1.62604230     -0.64145442     -2.31462683
N      -0.93094769      2.70420231     -2.25532813
O       0.71001928     -1.37868245      1.85728855
C       1.39158183     -0.62617454     -3.60274592
C       0.99219734     -1.46266743      0.49605862
C       0.13954797     -1.01365505     -0.44294680
C      -0.59229481     -1.10497857      2.23920605
C      -1.34069260      3.62694737     -1.40827845
C      -0.86840349      1.47732477     -1.77849030
C      -1.70737848      3.37095959     -0.11051273
C      -1.64682933      2.08330440      0.35569657
C      -1.21190100      1.08958062     -0.49556830
C      -1.53049184     -0.62134864      1.35210703
N       0.48528194     -1.09660914     -1.83548448
N       2.23470877      0.08438107     -4.54658606
N      -0.90980471     -1.38984995      3.55460406
C       2.27242215     -2.08379617      0.09504519
C      -1.16615195     -0.37586948     -0.09198183
H      -1.37879374      4.63958734     -1.78484745
H      -0.50724983      0.73662152     -2.47198114
H      -2.02782413      4.17035270      0.53865561
H      -1.93276920      1.85916120      1.36877786
H      -1.86537851     -1.62103501      3.80952629
H      -0.27172310     -2.03889384      4.00003444
H       2.90011378     -1.36507416     -0.43486949
H       2.09754006     -2.93538347     -0.56238648
H       2.81477546     -2.43726943      0.97167456
H      -1.92961288     -0.89237745     -0.69563999
O      -2.51895268     -0.76883458     -5.23725158
H      -2.13392834     -0.15948468     -5.88807086
H      -1.73674937     -0.96465118     -4.67069668
O      -0.75120613      1.00056954     -6.65677265
H       0.13238375      0.61583006     -6.49708275
H      -0.69399379      1.87518284     -6.22975330
O       7.59218267     -0.49616119      0.79385450
H       8.13675224     -0.56320542      1.59270483
H       8.21269570     -0.36748601      0.06047167
O       0.40418751     -4.63929453      1.79939760
H       0.55003457     -5.43191967      1.26007531
H      -0.49017658     -4.33256346      1.55813974
O      -0.07188358      5.14060039      1.79245581
H       0.36682252      5.99645071      1.67731643
H       0.53255281      4.48468209      1.39647721
O      -4.58241885     -1.38189644     -3.30865042
H      -3.88952345     -1.17855162     -3.96292684
H      -5.40151359     -1.43003008     -3.82390005
O      -3.78347897     -2.03189477     -0.62528114
H      -4.28467918     -1.42003660     -0.05641388
H      -4.07268601     -1.83900924     -1.53513459
O       1.63307764      3.09979136      0.75475750
H       2.11729089      2.57173297      0.09602861
H       1.90019364      2.75197199      1.62904076
O      -3.70636129     -2.17550378      4.24203981
H      -3.98929225     -1.52006130      3.57782379
H      -3.95964789     -3.03876177      3.86120164
O      -0.31811701      1.32693297      4.67676396
H      -0.50531663      0.43835693      4.30320958
H      -0.67985872      1.30369509      5.57457059
O       2.61778153      3.40894096     -5.12151724
H       2.84976948      2.52160688     -4.80184352
H       3.34167666      3.66408123     -5.71254805
O       2.18779354      2.29438081      3.56405254
H       2.51915868      2.98219236      4.15974459
H       1.34162135      1.99893527      3.95245645
O      -2.27952705     -3.82472208      1.10379455
H      -2.75139088     -3.24648610      0.47687969
H      -2.97361994     -4.13567798      1.71706023
O       0.95876682     -3.45511894      4.41213508
H       1.81948613     -3.77934640      4.71656115
H       0.81320855     -3.87926834      3.54345150
O      -4.41993363     -4.74025543      2.96160299
H      -4.26636243     -5.52369489      3.51068113
H      -5.30879646     -4.85109835      2.59205437
O       4.72312133     -0.41815175      0.31631339
H       4.31540421     -0.36302239      1.20235101
H       5.68377916     -0.44588756      0.47459764
O       3.23283249     -0.29086242      2.79810046
H       2.97924394      0.60362556      3.09079613
H       2.37843023     -0.71012080      2.57496183
O       3.07994456      1.48926865     -1.15968075
H       3.10406561      1.23377385     -2.10489793
H       3.68070130      0.86324651     -0.71218061
O      -0.28432087      3.43090161     -5.11137398
H      -0.50050537      3.21278914     -4.17494848
H       0.68899695      3.49943546     -5.13483780
O      -1.91147675      3.28429839      3.11458996
H      -1.36970156      2.67254753      3.65118042
H      -1.29156860      3.94664489      2.75202219
