96
charge=0
O      -3.99618273      0.74897584      3.89141835
O       1.47895370     -1.09492354      0.36072798
O      -0.42815515     -0.41718495     -1.26190418
N      -3.26795434     -3.05447233     -1.22742766
N      -3.01924587     -3.12386585      0.05683094
N       0.28925653      1.17379165      0.68395633
S      -3.50611980     -1.76967967      2.40178808
S       3.26520159      0.29077092     -2.19175536
C      -2.98609154      0.82452036      3.21520059
C      -3.88981830     -1.92680275     -1.47720719
C      -3.54513853     -2.06586839      0.65124656
C       3.66274383      1.86517387     -2.79017061
C       2.75318611      2.77340423     -2.39069377
C       1.72650729      2.21248999     -1.57845687
C      -2.57470408     -0.27794799      2.35664014
C      -1.50473823     -0.16864123      1.54556225
C       1.86107122      0.89139357     -1.36978384
C      -0.68584890      1.01413367      1.50524292
C      -1.60853611      4.18533293      4.15430098
C      -0.45921711      4.23484567      3.38596812
C      -2.43528404      3.09086916      4.08947264
C      -0.15473678      3.19879334      2.53992381
C      -2.14077645      2.02745170      3.24489191
C      -0.99677700      2.09625597      2.43611491
N      -4.09675195     -1.26005487     -0.30495744
S       0.70306162     -0.03769111     -0.35796313
H      -4.19132302     -1.59529769     -2.46171616
H       4.52544655      2.06340479     -3.39904695
H       2.78011344      3.82320016     -2.64944767
H       0.92008046      2.79199837     -1.15263945
H      -1.25938116     -0.98224299      0.88590629
H      -1.84808794      5.00046865      4.81775110
H       0.20378436      5.08136445      3.45969249
H      -3.32117104      3.04636474      4.69946093
H       0.76969643      3.20041331      1.98396977
H      -4.45513109     -0.30021787     -0.20255279
O      -3.54660591     -1.61096140      5.48734940
H      -3.71133995     -0.80367537      4.96073084
H      -4.30282688     -1.68619219      6.09131222
O       3.61827374      0.62033079      1.41428723
H       4.44282841      0.12335033      1.26347325
H       2.90742705      0.01177804      1.13181114
O       6.24587669      1.87075881     -4.36435639
H       6.94610155      2.21442315     -4.94002046
H       6.52054892      0.96133761     -4.13873382
O       0.70390648     -2.10163295     -3.31414919
H       1.51599284     -2.31904523     -2.81754042
H       0.20959898     -1.53340117     -2.69418170
O       7.02325055     -0.82936317     -3.67522360
H       7.69643861     -1.44277560     -4.00622293
H       6.51979295     -1.33868026     -3.01459973
O       0.63363505     -2.91243545      2.40018799
H       1.12023172     -2.69555268      3.20902195
H       0.95126415     -2.28332627      1.72325560
O       5.99584203     -0.93834148      0.81428213
H       6.85409547     -1.23368398      1.15223489
H       5.86555696     -1.41871851     -0.02498285
O      -2.79857982     -5.36020166     -3.14401473
H      -1.86600525     -5.24589322     -3.41053348
H      -2.96577623     -4.63311299     -2.50249581
O      -1.03992341      3.77617257     -0.66919260
H      -0.92242157      3.48815141      0.24900090
H      -1.53849656      3.05400679     -1.09533291
O      -0.02951781     -4.83213623     -3.90695846
H       0.28366129     -5.05792910     -4.79529484
H       0.18200357     -3.88609621     -3.78655354
O      -6.28542941      0.87423272      2.11931100
H      -5.54733751      0.79711851      2.75660789
H      -5.84995323      1.13052408      1.28239031
O      -0.68982277     -4.90709806      0.78063080
H      -0.22017303     -4.32329511      1.40614904
H      -1.47821599     -4.38134143      0.52335210
O       2.89300951     -2.79061926     -1.42421448
H       2.45308955     -2.23976720     -0.74863633
H       2.46107315     -3.66068760     -1.34440980
O       5.46074549     -2.31476821     -1.73867924
H       4.69538266     -1.72532558     -1.87910392
H       5.03985542     -3.17988632     -1.62170740
O       1.34867300     -5.20266186     -1.29067021
H       0.85648412     -5.21552617     -2.13359163
H       0.66507148     -5.20113440     -0.59580864
O      -4.81765025      1.64108388     -0.31597050
H      -5.36859830      2.35394094     -0.67305868
H      -3.99595055      1.66276455     -0.84466386
O      -2.39806086      1.50801049     -1.91833791
H      -2.47436007      1.46501047     -2.88297665
H      -1.75594205      0.81028773     -1.68959097
O       2.67486473      3.34536982      1.35153348
H       3.48494517      3.87605512      1.29876610
H       2.98096624      2.41961769      1.38572304
O       0.97515713      5.24460886     -2.19733135
H       0.27620295      4.79704663     -1.68277759
H       0.68887982      6.16801821     -2.27227239
O      -5.39032377      2.64620856      5.53550463
H      -4.96687668      1.95032463      4.99227997
H      -6.34404986      2.49537484      5.44607759
