109
charge=0
O      -1.83698780     -0.86220132      3.18587112
O      -0.12764216     -2.75352452      3.55732154
O       1.51361946      3.22043378      0.17548439
O       3.07869494      3.23132171      2.22458996
O      -3.06666764      1.51565151     -0.98893673
O      -3.52210499     -1.02000603     -1.31324545
O       1.60394514     -0.78876736     -3.39935812
O      -0.74926062     -0.66317176     -3.49088693
O       1.69723745     -0.69981712     -1.00741977
O       0.60601488     -0.39065306      3.00917305
O       2.30454255      1.01965579      1.24093919
O      -1.43135155     -0.14170949     -0.10127611
C       0.42115030     -2.01375641     -5.13845846
C       0.56465457      0.52330919     -5.14569836
C       1.13205631     -1.31340857     -2.16702467
C       0.46140249     -0.74158154     -4.29197227
C       0.59563591     -0.60786311      1.62360259
C      -0.39953918     -1.01616391     -2.15383625
C       0.90287190      0.43138787     -0.65680442
C      -0.44177727     -0.92211811      5.46623568
C       4.05372895      2.52106651     -0.10446696
C      -3.83997320      0.03282130      1.06924190
C       0.99903325      0.65609690      0.86408452
C      -0.55474703      0.16999327     -1.16471710
S      -0.50348029     -1.31570489      3.68763099
S       2.58712734      2.56871163      0.98394681
S      -2.94375602      0.10206506     -0.52241478
H       0.34472755     -2.88319459     -4.48824576
H       1.32832150     -2.10917410     -5.73146412
H      -0.44191888     -2.00514359     -5.80087842
H       0.68859002      1.37787104     -4.48393858
H       1.42553290      0.47726399     -5.80930659
H      -0.34242929      0.67191831     -5.72926073
H       1.36006079     -2.38887893     -2.13979142
H      -0.41839764     -0.92512146      1.33028369
H       1.30097761     -1.42015188      1.39219434
H      -1.00135051     -1.87839456     -1.83994711
H       1.34040442      1.28998552     -1.18993374
H      -1.43927176     -0.69534273      5.83344149
H       0.19313416     -0.05761039      5.64422111
H      -0.04711024     -1.76908613      6.01873446
H       3.78818527      2.85534026     -1.10246166
H       4.45139881      1.51227096     -0.16480960
H       4.82358013      3.17466033      0.29360162
H      -3.33266510     -0.62988135      1.76555709
H      -3.89954208      1.02514018      1.50559553
H      -4.85187147     -0.32740042      0.90570906
H       0.33728494      1.47941399      1.18317534
H      -0.95141352      1.05989893     -1.68951285
O       0.57137189      5.09035925     -1.74216895
H       0.38086749      5.93730089     -1.31224345
H       0.93472497      4.51609071     -1.03882830
O      -0.89332948     -3.72743412      0.94197046
H      -0.71163833     -3.46559902      1.86258104
H      -0.01836425     -3.93250294      0.55750698
O      -5.76246598     -0.69227747     -3.02065452
H      -5.99613551     -1.50654868     -3.48913413
H      -4.96531899     -0.91121947     -2.49625349
O       1.69818633     -4.18041568     -0.40121713
H       1.19261377     -4.34995025     -1.22012388
H       2.60860126     -4.01563036     -0.71012503
O      -2.08466743      2.00565576      3.49719358
H      -2.02459739      1.04359968      3.31828496
H      -1.87924065      2.43457650      2.64722422
O       1.96069180      4.14326854      4.70057486
H       2.60239551      4.76338300      5.07784181
H       2.34096326      3.86838557      3.84442915
O      -6.43432432      0.48163325     -0.36111964
H      -7.07889724      1.19508535     -0.48099755
H      -6.28415861      0.11588081     -1.25268949
O      -2.61327375      1.13512602      6.28948739
H      -2.55098665      1.47299885      5.37638208
H      -2.07127353      1.74300713      6.81568382
O       4.35963062     -3.52421505     -1.33682529
H       5.25308503     -3.89356625     -1.39097359
H       4.48397899     -2.59014150     -1.08696658
O       0.11577313      2.04809055      5.45212689
H      -0.57819365      2.12919975      4.76892712
H       0.75054742      2.75737681      5.24809817
O      -0.16664988      2.53218780     -2.91726915
H      -0.82664239      2.66537710     -3.62335252
H       0.04681156      3.42353616     -2.58858908
O       3.13637200      0.76490722      3.93305412
H       2.27399355      0.38505154      3.66655901
H       3.18051012      1.60840992      3.44235614
O      -4.28429653      1.80176846     -3.57540253
H      -3.86416831      1.80605596     -2.69319020
H      -4.86541969      1.02139304     -3.53603770
O       4.53499031     -0.71274648     -0.46115143
H       4.58026051     -0.88272900      0.49860052
H       3.57750796     -0.66952528     -0.66389011
O      -2.06553604      2.75123092     -5.12415499
H      -2.42331103      3.42476070     -5.72206969
H      -2.83857827      2.41470016     -4.63388813
O       4.49317533     -1.30074601      2.34719995
H       4.12304795     -0.61015859      2.92708817
H       3.86805992     -2.04744077      2.42167856
O      -1.40870581      3.05093528      0.90110687
H      -0.50803368      3.21173467      0.56103968
H      -1.92266916      2.64534245      0.17654172
O       0.02258562     -4.42681551     -2.84501190
H      -0.09176864     -5.32317876     -3.19473481
H      -0.83808777     -4.20019562     -2.44531730
O      -2.41108130     -3.66507203     -1.49378874
H      -2.88343082     -2.81229921     -1.46315280
H      -2.00792192     -3.74849711     -0.60842970
O       2.45737222     -3.39072491      2.37921357
H       2.22648380     -3.73490552      1.49455173
H       1.60703359     -3.25773217      2.84132358
