100
charge=0
Br      4.94115244     -1.61202241     -2.67523543
Br      7.88165289      2.55938814      0.17930612
N       4.70639126      2.06330866      1.15218049
N       0.38120831     -1.54991916     -1.74010711
N       2.71178603      0.75606889      0.93074354
O       0.23722285      0.24654394     -0.35728431
C       3.51887814      1.67550107      1.49168122
C       1.01584765     -0.70834560     -0.98412915
C       3.19401120      0.11535653     -0.10659985
C       6.59606598      0.42255554     -1.35252459
C       5.37083749     -0.24014699     -1.44142116
C       6.52788151      1.37042666     -0.36184767
C       4.54965629      0.31854408     -0.46914477
N       2.40334551     -0.71339596     -0.90446582
N       5.26164423      1.30874970      0.18559174
N      -2.92984294      1.39533001      0.10680301
C      -3.72544513      1.38971982     -1.15183539
C      -2.03612666      2.59907538      0.15235202
C      -2.79172253      1.30668896     -2.37613456
C      -1.08071759      2.60141767     -1.05780148
C      -0.97706130     -1.24806321     -1.69289059
C      -2.14903208      0.13485902      0.18949178
C      -1.32361388      1.32118960     -1.88816595
C      -1.07616602      0.10476238     -0.93347240
H       3.07688797      2.22010110      2.31331178
H       7.45771324      0.22674251     -1.97057318
H       2.89388862     -1.32475535     -1.54825117
H      -4.33813735      2.29666406     -1.17282502
H      -4.42397118      0.54728556     -1.11575243
H      -2.65987386      3.49772123      0.18317887
H      -1.48139295      2.56888793      1.09560630
H      -2.96955742      2.14561245     -3.05867582
H      -2.99273630      0.39876133     -2.95532951
H      -1.23294777      3.49168056     -1.67871685
H      -0.03532704      2.62896244     -0.72593619
H      -1.38029462     -1.18449581     -2.71037476
H      -1.50323418     -2.04781634     -1.15770575
H      -1.66147566      0.07653924      1.16341517
H      -2.82898478     -0.71580230      0.11348128
H      -0.61495390      1.26156658     -2.72898197
O      -0.08855974     -4.90431626     -1.04773682
H      -0.03938845     -4.27762986     -0.29885085
H       0.63656563     -4.64750397     -1.63889718
O      -3.94438557     -2.63114749      0.53680324
H      -3.60546338     -3.13503622     -0.22480733
H      -3.43178358     -2.95951653      1.30149298
O      -4.46089299      2.06843673      2.62907270
H      -4.13783393      1.40824064      3.27098923
H      -3.98198369      1.85417771      1.79592494
O      -2.80952151     -4.07275121     -1.66758161
H      -3.07065810     -4.55171400     -2.47491855
H      -1.91241787     -4.40086463     -1.46975729
O       6.29321261      3.86013468     -3.79206608
H       5.67331963      3.11474830     -3.90035493
H       6.82265457      3.86566105     -4.60357779
O       0.41384905     -0.33456783      2.47051318
H       1.15379888     -0.01534766      1.91507578
H      -0.08185772      0.47620861      2.69619475
O      -2.44203074     -3.57471781      2.87318863
H      -1.99250154     -2.99629215      3.51872380
H      -2.79281006     -4.31364939      3.39091843
O      -3.48152352     -5.55181762     -4.09171764
H      -2.76810643     -5.98973216     -4.58076388
H      -4.30726082     -5.92299596     -4.43783629
O      -0.16196027     -2.93981839      1.11087845
H       0.10741245     -2.07306217      1.46674155
H      -0.92157666     -3.20688888      1.66406017
O      -6.41030662     -1.94145318      1.84277703
H      -7.08249283     -1.87432879      1.14812582
H      -5.58398829     -2.17104796      1.37828634
O      -1.24634454      1.91692887      3.30522022
H      -1.36779767      2.78422471      3.71811869
H      -1.93163812      1.34764012      3.70437251
O       1.94581626      1.85675123     -2.60808988
H       2.03426736      1.05444010     -2.05053385
H       2.39370927      2.55331553     -2.09231454
O       2.01577392     -3.74468514     -2.85533288
H       2.91293900     -3.37946744     -2.92305843
H       1.47021084     -2.99686700     -2.51417867
O      -5.65208713     -1.45069048      4.58743380
H      -5.92745229     -1.62320088      3.66741365
H      -6.45751702     -1.55008663      5.11649694
O      -3.22006104      0.05480999      4.40469085
H      -4.04087227     -0.44766337      4.52245697
H      -2.50948247     -0.60444331      4.52664612
O       5.80280724      5.52485140     -1.48257844
H       6.02935354      4.99178644     -2.26934849
H       6.08856549      6.42575079     -1.69361840
O       3.60728237      3.63312759     -1.10911465
H       4.26316886      4.34276422     -1.22234600
H       4.10759926      2.91210479     -0.66401186
O       4.46893528      1.61020970     -4.10559031
H       3.58342598      1.75134954     -3.72530950
H       4.70314492      0.70888034     -3.82962558
O      -0.92292074     -1.80245167      4.58295720
H      -0.31220511     -1.93233080      5.32212532
H      -0.40402567     -1.33586144      3.89981135
O       5.80985309      4.85373853      1.42393941
H       5.47754353      3.92989045      1.36085096
H       5.84673609      5.15360684      0.49395145
