95
charge=0
O       1.81298262      1.01178792      2.85030672
O       1.95094861     -4.20465917      2.31905153
O       2.70391828     -0.41009783     -2.06665909
N       0.18685950     -4.06195448      0.92863998
N      -1.04407538     -2.00767519      0.90074133
O       1.57920584      1.52786612     -2.38467471
O      -1.23376535      4.05999287      3.69630072
O      -1.00360739      1.86386399      1.99793044
S       1.69411173     -1.53961397      3.58706457
S       0.58545968      2.94416282      0.24836914
C       1.19165588     -0.02567797      2.80759032
C       0.91448375     -3.65716928      2.00478493
C       2.01360856      0.48551736     -1.63601050
C      -0.83454219     -3.31578514      0.54545464
C      -0.35506254     -1.60655197      1.92019940
N      -1.62913782     -3.80437045     -0.44768686
N       0.02437779     -0.27319459      2.09228050
C       0.40414945     -2.50681390      2.81627093
C      -0.76405160      4.21301873      2.37978344
C      -0.07869148      2.93559404      1.92019336
C       1.58053666      0.41958249     -0.19967892
C      -0.57683951      0.74128776      1.22302879
C       0.29134678      1.19464235      0.02519273
H       1.87915474      1.40052141     -3.31084427
H      -1.86509777      4.78079020      3.93996302
H      -2.27194948     -3.21627531     -0.96085380
H      -1.40839698     -4.66085155     -0.94246738
H      -0.25266331     -2.88600907      3.60878395
H      -1.62064870      4.41279299      1.72706224
H      -0.08348004      5.07290676      2.33133720
H       0.72878766      2.67842581      2.62283963
H       2.36916138      0.80510125      0.45161575
H       1.43432823     -0.63298675      0.06273406
H      -1.50493914      0.28112590      0.84278269
H      -0.30851841      1.10738690     -0.88994762
O       1.46047660     -6.02848530     -0.91199009
H       1.03144101     -5.40937174     -0.27748177
H       2.39866183     -5.82105944     -0.78528605
O      -2.52266284      1.21061508     -4.57185195
H      -2.45274466      0.35423120     -4.10787906
H      -3.14995647      1.06587839     -5.29446048
O      -2.68517269      0.75408322     -0.92606043
H      -2.30691948      1.49377598     -1.44078592
H      -2.61092077      0.00130664     -1.53983454
O      -3.54895435      2.48289925      1.30380230
H      -3.36279563      1.85044902      0.58425623
H      -3.18294855      2.05488663      2.10581529
O      -2.13661500     -1.24208266     -3.00631804
H      -2.42324684     -2.17258435     -3.01157162
H      -1.20842920     -1.26712209     -3.31058696
O      -2.34565441      1.18463697      3.94412777
H      -1.98633799      2.10044073      3.94925681
H      -1.66121815      0.68265437      3.44405340
O       0.40283447      5.95246831      0.40092718
H      -0.41258373      5.54414662      0.04792597
H       0.65445795      6.62907788     -0.24500931
O      -3.14590522      6.11187151      4.32196639
H      -3.14069390      7.05298884      4.09359839
H      -3.67639572      6.04546850      5.12962842
O       0.60051050     -1.13679638     -3.93486593
H       1.28977868     -1.09015931     -3.24652873
H       0.93530723     -0.50088628     -4.59122290
O       4.41424969     -1.84968586     -0.22480503
H       4.49506040     -1.20068428      0.50010961
H       3.85905585     -1.39601769     -0.89202567
O      -2.90969486     -4.02720906     -2.88414936
H      -3.71189603     -4.40363120     -3.27423884
H      -2.30286315     -4.78160957     -2.76714860
O      -1.07321001     -6.20387890     -2.23821844
H      -1.19641403     -7.11129525     -2.55246972
H      -0.17414435     -6.19739085     -1.86283783
O       3.79893354     -4.68021256      0.10282537
H       4.09747370     -3.77324677     -0.07137103
H       3.21361266     -4.57724801      0.88233792
O       4.50507358     -0.52410066     -4.31404005
H       5.25544057     -1.10360381     -4.12114825
H       3.95532582     -0.53309731     -3.50258719
O       4.42638375      0.21065066      1.87170437
H       3.57937925      0.50753286      2.25918828
H       5.10588833      0.46251335      2.51380020
O       2.63806371     -3.93673564      5.09496126
H       3.28644290     -4.62698237      5.30534590
H       2.43195675     -4.05710447      4.14581840
O       2.23289522      1.00101632     -5.21473514
H       3.05776532      0.50958051     -5.04507923
H       2.34934357      1.40496699     -6.08573550
O      -2.06321723      4.52086181     -0.43893010
H      -1.80069443      3.99054705     -1.21535003
H      -2.66894625      3.93903057      0.05822035
O      -1.18617072      2.75150655     -2.56705774
H      -0.26259428      2.43459098     -2.60275924
H      -1.62148195      2.34904991     -3.33425473
O      -4.93217885      4.90675276      2.19162960
H      -4.51222419      4.07954760      1.88567082
H      -4.33783976      5.26829929      2.88064333
