76
charge=0
Cl     -0.83510055     -0.60246359      3.47265099
N      -1.51872358     -0.29106308     -1.47746022
N       1.77089929     -1.05598422      3.36055409
N      -0.38207843     -0.55812245      0.54282434
S       3.11936465     -1.47739619      2.49464529
S       2.23901624     -1.32680598      0.57025802
S       0.94187754     -1.01639872     -1.85893017
C      -0.44848728     -0.58728728     -0.81497023
C       0.68135728     -0.86296726      2.66849952
C       0.67965017     -0.87264326      1.23677340
C      -1.40040896     -0.36077781     -2.87593421
C       0.02011520     -0.68697001     -3.33278911
H      -1.74025432      0.60521321     -3.27994099
H      -2.11421221     -1.11768684     -3.23339484
H       0.06566415     -1.55491641     -3.99525300
H       0.49633869      0.15483077     -3.84183871
O       0.74699356      0.22406180      5.94676106
H       1.10369796     -0.22108979      5.14587876
H       0.14863500      0.90014799      5.57663243
O      -2.60032988     -3.35109000      0.32905836
H      -2.88440164     -2.53151075      0.77506349
H      -3.40463211     -3.71223083     -0.07037683
O      -2.34970083      2.22692316     -4.71219552
H      -2.66336558      2.52280007     -3.83757713
H      -3.10716697      2.34965760     -5.30252835
O      -0.89598907      2.21508396      4.26700371
H       0.04764725      2.40620423      4.10022171
H      -1.25869835      2.21202642      3.35879308
O       1.57314675      2.42622700     -1.99812558
H       1.26317116      2.35610305     -2.92062968
H       2.31031779      1.79054927     -1.93388497
O      -0.66813413     -3.86165508      2.50698012
H      -0.64131371     -2.98999246      2.93508517
H      -1.38642506     -3.78368088      1.84986958
O      -3.21578507     -0.85982128      1.80937937
H      -3.23942034     -0.47154764      2.70157079
H      -2.30333624     -0.70164607      1.47112548
O       4.91512686     -2.01207405     -0.33520338
H       4.26301145     -2.62826736     -0.72500317
H       5.64039628     -2.56553443     -0.00938629
O       1.87495399      2.50915722      3.46820344
H       2.13402069      2.33210823      2.54414586
H       2.69216074      2.43419062      3.98371770
O       2.86711177     -3.81330428     -1.59624955
H       2.00632876     -3.83360796     -1.13844396
H       3.05005380     -4.74131724     -1.80796651
O       3.80519775      0.41952599     -1.57808520
H       3.57624764     -0.11840791     -2.35990163
H       4.28040952     -0.23593974     -1.03476068
O      -1.68349073      2.01034416      1.48349137
H      -1.26595932      1.17476024      1.18631203
H      -1.41134295      2.65308674      0.80298670
O      -0.67240784      3.70478997     -0.65815620
H       0.07388963      3.28974639     -1.13162408
H      -0.41875388      4.63200711     -0.53981531
O       0.33387227     -3.98568307     -0.19047416
H      -0.61265028     -3.75481361     -0.18220164
H       0.51215495     -4.19876349      0.74216450
O       2.61224700      2.01156310      0.68924030
H       1.97210095      2.50207759      0.14472902
H       3.08580908      1.45915243      0.04111035
O      -3.16922928      2.96579187     -2.06868221
H      -2.38308426      3.25738348     -1.56768679
H      -3.59476437      2.30227354     -1.49715540
O       3.19935370     -1.63340653     -3.58160690
H       3.07714035     -2.36820336     -2.94836455
H       3.60330845     -2.02930034     -4.36842198
O      -3.23766514      0.31476869      4.50059447
H      -3.54416229      0.29218328      5.41915673
H      -2.49319918      0.94584592      4.49469204
O       0.53147799      2.15639224     -4.70930456
H      -0.44271991      2.20256311     -4.73943434
H       0.83149716      2.54266847     -5.54521802
O      -4.10287104      0.71625624     -0.41611076
H      -3.25276273      0.36654702     -0.77661297
H      -4.11989405      0.33377304      0.47491971
