85
charge=0
O       3.31475380     -4.40315485      0.17896888
O       2.45737287     -0.04022982      1.44047563
Cl     -2.42526153      3.48444369     -1.50992084
S      -0.75980864     -2.53893095     -1.55404532
C       2.61234228     -3.39175696      0.16234893
C      -0.22252690     -4.14501546     -1.99220832
C       2.95984431     -2.21415894      0.84016785
C       0.92650235     -4.44114628     -1.36933846
C       2.14822463     -1.06281117      0.82550952
C       0.62697868     -2.26632185     -0.57274336
C      -0.04118028      2.31658669     -0.96142127
C      -2.01377356      1.00908869     -0.56610491
C       0.73740798      1.25338600     -0.56451467
C      -1.23549014     -0.04248870     -0.15734420
C      -1.41936714      2.18913974     -0.97502194
C       0.15152536      0.05923282     -0.16519163
N       1.38909847     -3.37834005     -0.56643681
N       0.94982875     -1.10747102      0.07396618
H      -0.75787682     -4.79785595     -2.65672817
H       3.88772772     -2.19083546      1.37844299
H       1.47681555     -5.36644450     -1.45983711
H       0.40897691      3.25140697     -1.25669636
H      -3.08771507      0.93398600     -0.55417853
H       1.81252454      1.32218260     -0.57876882
H      -1.68936824     -0.95464584      0.19063348
O       3.04606080      2.89585732     -1.01516164
H       2.91314766      3.34194326     -0.15572139
H       3.99203266      2.66243961     -1.01411382
O      -3.74805097      1.16100185     -3.45753294
H      -3.21638303      1.83160184     -2.99381791
H      -3.97828449      1.56026031     -4.30872457
O       5.97263635     -2.29635634      2.07209142
H       5.91179853     -2.95889677      2.78486579
H       6.37823360     -2.78432660      1.33496586
O       2.61837770      4.01852556      1.65654656
H       3.26819507      4.37175971      2.28069248
H       2.13284883      3.32148106      2.13992641
O      -3.57815417     -1.29811233      1.80577648
H      -2.91724113     -0.70765633      2.21499643
H      -3.44860497     -2.16036923      2.22623823
O      -3.55855160     -1.76643179     -3.30792044
H      -3.64966160     -0.79755458     -3.36774822
H      -2.75096737     -1.91838807     -2.78683763
O      -5.44265948      0.78213053      1.04086083
H      -6.30772278      0.57418197      1.42147580
H      -4.87224021      0.02534653      1.27262047
O      -1.83651199     -5.92884719     -3.84727154
H      -2.64049128     -5.41464145     -4.05121707
H      -1.90355523     -6.73043205     -4.38814117
O      -3.36447026      2.79440766      1.61801214
H      -3.16649585      3.12856344      0.72594647
H      -4.14162335      2.21939705      1.49273270
O      -5.48736381      2.44860547     -1.34589190
H      -5.53377803      1.87960243     -0.55460093
H      -5.06032316      1.90642271     -2.03655132
O      -4.77589915      5.14566179     -2.38596538
H      -5.06144085      4.28449876     -2.02166115
H      -3.97456765      5.38522059     -1.89328325
O       5.78603889     -4.54278061      4.00102044
H       6.54288693     -4.81590855      4.54069021
H       5.00085569     -4.85403394      4.47555949
O       5.29691936      0.46599103      1.58215221
H       5.62406836     -0.42965246      1.78441428
H       4.32473647      0.35270481      1.55324589
O      -1.71925584      0.64817540      2.83450587
H      -2.24723563      1.39909055      2.49869879
H      -0.81092098      0.99210638      2.91094762
O      -0.99453784      4.07794758      2.79812148
H      -1.82642851      3.68026959      2.47614597
H      -0.36099187      3.33872089      2.90677919
O       0.24294585      5.11711264      0.35596365
H       1.13516495      4.86506458      0.65940366
H      -0.30815183      4.91174156      1.13413005
O       6.02566600     -4.92918643      1.03312660
H       5.94535065     -4.92558632      2.00833292
H       5.11349197     -4.79679576      0.70428868
O       5.83403391      2.14946380     -0.69718014
H       5.69487558      1.57852621      0.08273621
H       6.79376391      2.17868955     -0.82755236
O       1.01333941      1.82096643      3.00656885
H       1.47152152      1.16703371      2.44187856
H       1.35445709      1.65720080      3.89942738
O      -4.18693714     -4.34682059     -4.42222705
H      -5.08354996     -4.29166664     -4.78488552
H      -4.00279962     -3.46078684     -4.05798523
