68
charge=0
Cl     -2.78464307     -2.49122326     -1.12673344
Cl     -0.02871280      0.76424819      2.50265928
N      -2.14922815     -0.00858554     -0.59446745
N       0.47616114     -0.93639146      0.56642656
S       0.06472856     -1.50586243     -0.96478381
S      -0.95875700      1.15274224     -0.29812064
C      -1.68743574     -1.16847506     -0.86181219
C      -0.07775897      0.16832013      0.87982782
O       2.03733287      1.72010628     -1.66324602
H       2.86965369      1.29401599     -1.39255688
H       1.73206557      2.19347329     -0.86398209
O       2.69869567     -2.22807679      1.93722482
H       2.78788027     -1.74411799      2.77460305
H       1.95210924     -1.75768675      1.49407355
O       3.13531870      1.21630637      1.90440987
H       2.75726474      0.73639961      2.66394437
H       2.44095845      1.83474351      1.60239828
O      -0.48905255     -4.66818722     -0.92282297
H      -0.55876407     -4.12371669     -1.72946383
H      -0.69923624     -5.56869547     -1.21347304
O      -0.14027233      1.62633628     -3.53207029
H       0.64891118      1.64443108     -2.96116547
H      -0.81723489      2.13872365     -3.04442996
O       1.12692520      3.15739849      0.73682470
H       1.36687190      4.06819249      0.50538232
H       0.40706057      3.24772882      1.38867738
O      -0.68090935     -3.00031671     -3.32918135
H       0.25890151     -2.83604266     -3.53624462
H      -1.15353115     -2.20134988     -3.62731000
O      -2.38242138      2.99978167     -2.10097751
H      -3.04138100      2.37840372     -2.46730641
H      -2.50757779      3.82303226     -2.59834565
O       0.17507205     -2.63294390      4.36206374
H       0.18271031     -3.13757213      3.52837365
H      -0.24200685     -3.22609253      5.00472501
O      -0.97757266      3.52263374      2.73434484
H      -0.67388034      2.94556633      3.46120296
H      -1.31934963      4.31737171      3.17281472
O       2.13807124     -2.50698352     -3.68681117
H       2.50920860     -2.36292171     -2.79547837
H       2.88576806     -2.40956777     -4.29547346
O       3.18846844     -2.03237137     -1.03947326
H       3.64519852     -1.17314806     -0.96811996
H       3.07227448     -2.29725620     -0.11039207
O       0.35205534     -4.12850115      1.85163377
H       1.20583244     -3.66379440      1.75459038
H       0.05590193     -4.31719611      0.94206919
O      -2.02881205     -0.51072965     -4.02662199
H      -1.33185931      0.16784153     -3.94978793
H      -2.84386727     -0.04058525     -3.76416323
O      -4.92751510      0.93419228     -0.25853503
H      -4.73946031      1.74550872      0.24347517
H      -4.03594311      0.52336162     -0.33190109
O       4.47568056      0.52633532     -0.53248706
H       4.10053597      0.74264319      0.34337833
H       5.42490545      0.69924901     -0.45621486
O      -0.01282606      1.86037722      5.06827999
H      -0.71295949      1.24014318      5.32677153
H       0.36155269      2.19470905      5.89803419
O      -4.40974357      1.10775806     -3.13366117
H      -4.70979408      0.99046205     -2.21313670
H      -5.18346315      0.91077422     -3.68100658
O      -3.29256289      3.17224042      0.78101694
H      -2.52665045      3.24858233      1.38220361
H      -2.92688763      3.16424720     -0.12653052
O       1.96613101     -0.33916362      4.19753457
H       1.39151301     -1.12374505      4.29471929
H       1.39009602      0.40016848      4.47672421
