96
charge=0
F       2.48483861      4.19418967      3.72148602
F       1.18980730      4.55365922      5.46920502
F       1.93987530      2.52570721      5.05483454
F       4.05312244      3.12139565     -1.04721228
F       2.51250326      4.57072696     -1.64419185
F       3.93453984      3.79290871     -3.13936815
F      -4.21252156      3.88478926      3.72171425
F      -3.90805363      1.76273824      4.19558338
F      -3.22847020      3.30809412      5.60543348
N      -0.35911979      2.17631438      0.46529637
N       0.50001910      2.94980968      2.44862072
O      -1.17874773      1.29959235     -1.55032065
C      -1.37640650      1.73874852     -0.25190275
C       0.30155011      3.37837501      3.66805874
C       1.75735468      0.35602081     -3.52333789
C       0.49770980      0.36085628     -2.98376323
C       2.65717814      1.34219735     -3.18123247
C       1.02420712      2.36087908     -1.77811227
C      -2.68751559      1.67451870      0.24928451
C      -0.94496218      3.42936906      4.28517731
C       0.10962013      1.35313465     -2.08359050
C       2.27932085      2.36607337     -2.33597625
C      -2.94679671      2.09226157      1.50654517
C      -2.05129938      3.02106555      3.61433553
C      -0.58859172      2.58103557      1.73018113
C      -1.88747638      2.57404961      2.28983904
C       1.52399503      3.67883717      4.50629505
C       3.23149910      3.50362904     -2.03157889
C      -3.39615844      2.99662937      4.30863304
H       2.04868923     -0.43718673     -4.20075715
H      -0.21075723     -0.41025797     -3.23511896
H       3.66057951      1.33303513     -3.57713976
H       0.75432000      3.14785679     -1.09360993
H      -3.46401713      1.27572802     -0.38297502
H      -1.02495685      3.75913358      5.31084301
H      -3.94521144      2.04310426      1.90943578
O       3.61565057      2.38580025     -5.71147639
H       3.80192207      2.99794916     -4.98045094
H       2.65079688      2.45141361     -5.85226597
O       3.19168485      1.94278342      1.41324623
H       3.45228183      2.44438163      0.62645234
H       2.34409702      2.33078206      1.72132585
O      -4.16521255     -4.73590855      3.04881445
H      -3.96909004     -5.68897746      2.96769685
H      -4.64799404     -4.63707972      3.88379796
O      -2.26559738     -0.56283612      3.52728936
H      -1.33717334     -0.32342406      3.71006764
H      -2.80090532      0.18914877      3.82942762
O       1.38494916     -2.17944632      0.10513741
H       1.84818299     -1.69010688      0.81009018
H       0.97644059     -2.93464163      0.56783872
O      -1.78944884      1.36618972     -4.89985076
H      -1.95019918      0.53793629     -4.41079025
H      -2.65080450      1.80945628     -4.92809301
O      -3.60123095     -7.63918290      2.79685674
H      -3.95813009     -8.30521389      3.40319505
H      -3.84605608     -7.93982461      1.90857467
O      -1.42180011     -1.68794715     -0.75268705
H      -0.48304982     -1.80974775     -0.53848291
H      -1.88662675     -2.02991700      0.03186782
O      -2.19956666     -1.09792602     -3.41525146
H      -1.99423566     -1.28631062     -2.48138969
H      -2.59522904     -1.91571030     -3.75105915
O       2.75267287     -0.74825018      2.25007277
H       2.96220091      0.15137218      1.95017842
H       3.57023350     -1.07999524      2.64954606
O       2.25605312     -2.21905881     -2.66489143
H       2.00373358     -2.24877703     -1.72223690
H       3.19126871     -1.93376736     -2.69194416
O      -6.01494222      2.17595679      2.25843860
H      -6.64510398      1.70930970      2.82723914
H      -5.55221481      2.79663896      2.84494592
O       3.77672775     -0.57771733     -5.58516488
H       4.27215869     -0.77547215     -4.76483143
H       3.82829435      0.38933518     -5.71820692
O      -0.07600619     -4.20497397      1.49750573
H      -0.25226695     -5.06277745      1.92376047
H      -0.91936609     -3.72533584      1.56936786
O       6.03682106      1.09964246     -1.46032635
H       5.39425411      1.81390235     -1.32606162
H       6.86200121      1.42834441     -1.07605260
O       5.02538857     -1.13502386     -2.94925940
H       5.72479582     -1.80533665     -2.94885268
H       5.38455444     -0.39317069     -2.42790649
O       0.51157843      0.18885255      3.93083943
H       0.96717748      0.92609593      4.36971462
H       1.19775469     -0.21363274      3.37526163
O      -0.78795339     -6.70000846      2.80713590
H      -1.71591120     -7.00460333      2.81304550
H      -0.31018856     -7.29401291      3.40601391
O       0.70238402      2.46817663     -5.92425848
H      -0.12227553      2.08927780     -5.56667968
H       0.44409409      2.87183491     -6.76724206
O      -2.60829738     -2.71438471      1.67012099
H      -2.52406319     -1.98969735      2.31795552
H      -3.17289209     -3.37727950      2.10846502
