98
charge=0
O       0.18882925     -0.65444138      0.40852461
Cl      5.70991077     -0.55076485     -1.92201166
Cl     -1.10915808      5.33463807      1.42885783
Cl     -0.40243392     -3.43546126      5.70074435
Cl      4.50374964     -2.63699886      0.03044739
Cl      3.94328396      0.77158053     -4.10050456
Cl      1.22831983      4.02130698     -0.24377886
Cl     -3.69140967      3.60730465      2.03133689
Cl      0.14052142     -5.62570903      3.54378673
Cl     -1.67740335     -0.70909203      4.88322308
Cl      1.41169777     -3.23992635     -0.05602784
Cl      0.85865503      0.03883934     -4.28564874
Cl      0.80931281      1.21060867     -1.51090866
Cl     -4.23789049      1.05217789      0.40206123
Cl     -0.70156952     -5.14222268      0.58291506
Cl     -2.42865730     -0.18473017      1.90240005
O      -0.12241188     -1.60517044     -2.04251755
O      -1.92784349     -0.01766077     -1.00563689
O      -1.62947085     -2.43031744     -0.02393714
C       4.03000688     -0.97574633     -2.04918425
C      -1.29864531      3.74517426      0.74765035
C      -0.83791430     -3.14740637      4.04309021
C       3.48267256     -1.87258043     -1.14683459
C       3.22989392     -0.36603332     -3.00220830
C      -0.27786106      3.17769086     -0.00888051
C      -2.50017351      3.06624186      0.90081068
C      -0.61867964     -4.13010219      3.08959665
C      -1.39573161     -1.93202000      3.67464467
C       2.12225490     -2.12667569     -1.16271183
C       1.86773948     -0.62742198     -3.03779521
C      -0.45959693      1.93633116     -0.59562360
C      -2.70325588      1.85340332      0.27215585
C      -0.93168472     -3.89457486      1.76308156
C      -1.70278521     -1.68629525      2.34683802
C       1.27394937     -1.46509311     -2.06988731
C      -1.67369234      1.23957757     -0.45594282
C      -1.42777754     -2.64541173      1.34861820
P      -0.81554484     -1.14693454     -0.62913387
O      -5.36092814     -2.75721270     -2.23817951
H      -5.85694297     -2.97178447     -3.04268840
H      -4.46328872     -2.51879029     -2.53965152
O       3.83079212      2.16322560     -0.97807508
H       3.43933064      1.97452560     -0.11198687
H       4.35337782      1.36922217     -1.17769419
O       4.00345777     -4.30870823     -3.04244753
H       4.90580961     -4.37197532     -3.39273585
H       3.51691724     -3.79098912     -3.70957168
O       2.61984080     -2.78034345     -5.07706211
H       1.74001502     -3.10684266     -5.32133275
H       2.72671760     -1.95495685     -5.58393027
O      -4.29656617      1.15732022      3.69009821
H      -4.74687905      2.00661043      3.86478955
H      -4.37957987      1.01508743      2.73209752
O       3.44266143     -5.55082047     -0.46245266
H       3.61854071     -5.12488607     -1.32216147
H       3.58496771     -6.49738172     -0.61684716
O       2.86980740      3.71131735     -3.28564897
H       3.18911707      3.20795202     -2.51594899
H       3.33955733      4.55660317     -3.23512646
O      -2.69042958      2.00635312      5.80415314
H      -2.70521649      2.94637712      5.54824076
H      -3.45628645      1.62279979      5.34429108
O      -2.69191002     -1.98418862     -2.99590588
H      -1.80172334     -2.30946906     -3.21039312
H      -2.52144416     -1.27368671     -2.34839127
O       2.16873575      2.40461242     -5.87180934
H       1.44689638      2.96171153     -6.20045202
H       2.44862029      2.81786163     -5.03919497
O       0.02681424      3.22923910     -3.63843039
H       0.08627694      2.27585813     -3.82437616
H       0.94808019      3.48154004     -3.43927861
O       2.80367058     -0.33700030     -6.65266398
H       3.21031390     -0.23365451     -7.52659420
H       2.58699090      0.57036288     -6.36740961
O       0.96788044      2.16428655      3.47413885
H       0.42219866      2.91259988      3.75547451
H       0.59553547      1.38968578      3.92556292
O       2.60931266     -1.31610105      2.12401437
H       1.80803376     -1.18263710      1.57961166
H       2.76589956     -2.27940374      2.14461160
O      -1.65296481      4.35189593      4.51327819
H      -2.31756717      4.92709765      4.93942712
H      -1.56211172      4.70429406      3.60925416
O       2.76572682      1.41993553      1.46753723
H       2.18513318      1.74783595      2.17086247
H       2.77099290      0.45594190      1.60552909
O      -5.48967171      3.76377189      4.24609278
H      -6.27543466      4.29313138      4.04035419
H      -4.91984704      4.32881722      4.79409397
O      -4.52964072     -2.09423340      0.47715559
H      -4.91902902     -2.32421688     -0.38712846
H      -3.56653744     -2.19521674      0.33303660
O       2.99456985     -4.26025560      2.11327217
H       3.18842585     -4.69710040      1.26183156
H       2.24364149     -4.75303750      2.48471928
O      -3.72453894      5.95898746      5.86387959
H      -3.70962121      6.92740405      5.89693349
H      -3.74301429      5.66750874      6.78780194
