110
charge=0
O       0.28196544      4.54715910      0.97487241
O       3.39593037      3.37318101      2.67930540
O      -0.37756848      2.64353331      0.19735452
O       1.48393142      4.06853039      3.45115022
N       3.37807895     -2.26181543      0.10004459
C       2.98421499     -1.11605406      0.59141470
C       3.41772526     -0.46348860      1.77826249
C       2.88659360      0.73440696      2.10082529
C       1.39167898      0.68546099      0.16273696
C       1.88791080      1.37679508      1.29017007
C       1.94468205     -0.51459839     -0.20263402
C       1.45994086      2.66023471      1.61122241
C       0.27404976     -1.80213277     -1.51586022
C      -0.17285468     -3.02600698     -1.16211749
N       1.63019167     -1.42454808     -1.22053473
N       0.39875891      3.31369482      0.89504169
N       2.15164074      3.40847704      2.63700573
C      -0.62067563     -0.79916325     -2.17129509
C      -1.56391715     -3.51761594     -1.46910444
C       0.80709450     -3.97540052     -0.53181655
C      -1.71662055     -1.48182639     -3.00152210
C      -2.49213673     -2.47623229     -2.12575025
C       4.89774962     -3.32549412     -2.13914647
C       4.35800157     -4.77525456     -2.06611106
C       3.77846038     -2.27231962     -2.28158909
C       3.22132456     -4.93259398     -1.03042987
C       2.72538970     -2.45989417     -1.15522864
C       2.12713153     -3.88783398     -1.30864592
H       4.17303603     -0.92166495      2.39000364
H       3.21986607      1.24594816      2.98747947
H       0.60498763      1.11345516     -0.42633656
H      -1.08350965     -0.17884225     -1.39468150
H      -0.01895242     -0.12036691     -2.78771336
H      -2.01458079     -3.88904324     -0.54082976
H      -1.47961709     -4.39257127     -2.12370511
H       0.41985109     -4.99957430     -0.52290840
H       0.97611137     -3.68985947      0.51101344
H      -2.39063822     -0.73640933     -3.44607984
H      -1.26086390     -2.01394840     -3.84468678
H      -3.02097254     -1.91937572     -1.34323341
H      -3.28051672     -2.97175614     -2.70869598
H       5.61492025     -3.22879466     -2.96504588
H       5.47564366     -3.11006606     -1.23391743
H       5.17589689     -5.47034316     -1.83148123
H       3.99398839     -5.07747216     -3.05469702
H       4.18081146     -1.25570241     -2.21646954
H       3.29038643     -2.35005210     -3.25757492
H       2.79962537     -5.94469642     -1.04098145
H       3.61214102     -4.77782328     -0.01995996
H       1.86260081     -3.98186538     -2.37465129
O      -7.03736138      0.69207089      1.82007172
H      -6.51187104      1.48779598      2.02408401
H      -7.92841890      1.03031255      1.61582915
O      -3.12627026      3.20076070      0.71064646
H      -3.41232991      3.43494781     -0.18510888
H      -2.15904508      3.12974678      0.60800626
O       1.36349893      6.64601395     -0.80157162
H       2.11587633      6.99405949     -0.29577702
H       1.00448902      5.94800846     -0.21984776
O      -2.30926561      1.07290390      2.61326504
H      -1.76214424      1.49940959      3.29682232
H      -2.62694788      1.81763788      2.06582606
O      -5.06830363     -1.14282632     -3.66469799
H      -5.28931426     -1.72947598     -2.91424815
H      -4.61928176     -0.38044631     -3.25104937
O       6.66737549     -5.40960629     -0.07457039
H       7.51794462     -5.03741987     -0.36451448
H       6.31392727     -4.74196150      0.54481003
O       5.80859160      2.02048403      1.71107590
H       4.99781402      2.46714199      2.01725062
H       6.46567782      2.72999314      1.64115524
O      -3.51927985      3.85447430     -2.08333043
H      -4.06911282      4.39005788     -2.67350880
H      -2.68789042      4.34915544     -1.99449189
O      -5.46703310      3.06356285      2.38627912
H      -5.29684468      3.69187903      3.10445151
H      -4.68267294      3.12002037      1.80935230
O      -3.08324451     -0.48195093      0.29988664
H      -2.74999841      0.00898704      1.07092267
H      -3.90995239     -0.88114021      0.61896804
O      -5.53571059     -2.86819751     -1.32654841
H      -5.55658723     -2.45615879     -0.44742974
H      -6.31813227     -3.44014711     -1.35734958
O       2.71830380      6.09268011      1.65333512
H       3.23363045      5.48026777      2.20524280
H       1.85988329      5.63503648      1.56495526
O       5.70141455     -3.14578856      1.65225663
H       4.89815741     -2.85641915      1.16206292
H       5.40471884     -3.36060257      2.54832994
O      -3.56537789      0.91504918     -2.25850378
H      -3.55081650      1.88596439     -2.17620899
H      -3.41913857      0.55993879     -1.35993367
O      -1.08527323      5.28027497     -1.60932366
H      -0.73215797      4.89714855     -0.78521896
H      -0.45147968      5.98354670     -1.82384189
O      -9.68662324      1.76452187      1.19311037
H     -10.32776049      2.17770756      1.79138909
H     -10.00854884      1.94101269      0.29586481
O       7.02477054     -0.47953321      0.78066996
H       6.60774262      0.34336070      1.09734019
H       6.51133064     -1.21538473      1.16887887
O       8.03387164     -2.91098637     -0.21656059
H       7.30685500     -2.96326806      0.43489038
H       8.26796724     -1.96848437     -0.22404881
O      -5.58864334     -1.66877802      1.29941815
H      -6.10968632     -0.86071807      1.45397897
H      -5.56010950     -2.10696536      2.16326786
O      -0.70466980      2.52362455      4.53956443
H       0.00820986      3.06031221      4.15784880
H      -0.80854570      2.85213076      5.44524764
