72
charge=0
O       0.86971244      1.53332338      2.18953691
O       0.08505480     -0.13711520      4.17550726
Br      0.38827694      1.40747471     -0.71076648
Br     -1.36720623     -2.77379652      3.97453916
Br     -0.81143843     -1.48190917     -1.50927825
Br     -1.86814061     -3.54140425      0.88217002
C       0.27699121      0.51433270      1.93110192
C      -0.14093904     -0.41279169      3.01694636
C      -0.04201055      0.13980222      0.57427126
C      -0.80976819     -1.63428856      2.61295079
C      -0.61788099     -1.03179722      0.28606659
C      -1.02241712     -1.93143329      1.32386216
O      -0.40533093     -4.43116608     -2.32921269
H      -0.44694857     -3.83803701     -3.10226443
H      -1.34852537     -4.52266491     -2.10433372
O       3.41253317      0.82757237      0.37612945
H       3.27896840      1.59162675      0.96464324
H       3.17980667      0.04510950      0.91284067
O       1.22194795      3.54268010     -2.61968705
H       1.84923018      2.86827940     -2.94131594
H       0.90824610      3.99875318     -3.41587582
O       1.02751796      2.71336662      4.48899005
H       0.75533057      1.77870701      4.33909813
H       1.48785208      2.71419051      5.34368787
O      -3.29337352     -4.17454880     -2.01085201
H      -3.41344102     -3.24446964     -2.28412062
H      -4.10235298     -4.62889398     -2.28901770
O      -2.64090172      0.74415220      4.70383431
H      -1.71459399      0.44568884      4.60481987
H      -2.66358021      1.25277622      5.52834190
O       2.47363712     -0.76607321     -1.85501445
H       2.30833046     -1.65957998     -1.50131650
H       2.82128893     -0.26221521     -1.09605726
O       2.94268296      3.21882269      2.09087603
H       2.33970575      2.98348350      2.82799633
H       2.36134224      3.66570670      1.44313896
O       1.12565529      4.54869343      0.12317961
H       1.15746247      4.19595190     -0.78646475
H       1.25554938      5.50533210      0.03004191
O       3.06575267      1.49916139     -3.62496571
H       2.98293683      0.75473144     -3.00069456
H       4.01782552      1.62746673     -3.73991188
O      -2.70715357      1.46883841      1.84545715
H      -2.11099481      2.23863619      1.87771219
H      -2.78938134      1.21004611      2.78251150
O       1.83138131     -3.49844444     -0.71915630
H       1.07041794     -3.82375309     -1.23553389
H       2.46321398     -4.23339567     -0.72997515
O      -3.53391573     -1.34761227     -2.83129082
H      -3.70901906     -0.96723988     -1.94828622
H      -3.17855976     -0.59034057     -3.33515976
O      -0.81221150      3.65682442      2.18860679
H      -0.22100346      3.32084970      2.89545634
H      -0.19836782      3.95081067      1.48871405
O      -1.01021213     -2.40404851     -4.32992617
H      -0.43405596     -1.61550749     -4.33299578
H      -1.86175711     -2.09827601     -3.96161621
O      -3.93418759     -0.15268255     -0.19350047
H      -4.87419318     -0.09081681      0.03838607
H      -3.48494573      0.40358552      0.46881060
O       2.03095477     -2.32537716      4.32079478
H       2.52063461     -2.29249150      5.15599331
H       1.39666945     -1.58182934      4.36048137
O      -2.13450284      0.78525304     -4.19782456
H      -1.17960453      0.58148077     -4.16757555
H      -2.21956057      1.56590601     -4.76460125
O       2.57897625     -1.67426021      1.51480897
H       2.30855092     -2.37120469      0.88607892
H       2.41950922     -2.00770392      2.41617016
O       0.69155648      0.01216497     -4.08032851
H       1.30617005      0.58230437     -4.57079274
H       1.22542232     -0.29900506     -3.32482251
