99
charge=0
O       5.50604267     -1.63524216      1.23000522
F      -5.41755960     -3.69440093     -0.59663847
F      -5.39703663     -1.62502948      0.10805583
F      -6.11298475     -3.22425948      1.42058734
F      -4.40825580     -3.13423111      3.27649399
F      -2.37355637     -2.50491302      2.80403325
F      -4.04952534     -1.17497041      2.35306702
F       1.51373639     -3.23593001      1.01439600
F       1.30142875     -3.08278024     -1.16975579
F      -0.51586820     -1.03863999     -0.77196252
F      -0.39972257     -1.42336415      1.39324449
F      -1.19213845     -3.91438459      1.08436027
F      -1.11239957     -3.73891946     -1.10523563
F      -2.69591184     -1.16612998      0.25735106
F      -3.23059996     -2.63929778     -1.25264225
F      -3.56857209     -4.41174644      1.10204868
S       4.44379456     -0.01921698     -0.48464728
C       5.68535562     -0.58174514      0.66360534
C       7.08850407      1.41617077      0.45192032
C       6.89902057      0.20285128      0.94774044
C       7.88936926     -0.40216598      1.86830827
C      -5.23109299     -2.90075659      0.46590714
C      -3.64808729     -2.45273043      2.40792366
C       3.48032100     -1.51462164     -0.43734377
C       2.07393230     -1.19835916     -0.00659130
C       1.17411937     -2.43848643     -0.00381032
C      -0.28887261     -1.95347912      0.17404363
C      -1.33082173     -3.09001974      0.04195263
C      -2.77365257     -2.47270123     -0.00702729
C      -3.78411827     -3.10317176      0.99854804
H       7.96459334      1.98412241      0.69052228
H       6.36837059      1.87228518     -0.19633891
H       8.89300424     -0.38465671      1.44235022
H       7.90413194      0.13210594      2.82028484
H       7.62649870     -1.44180055      2.07695204
H       3.47799189     -1.96160221     -1.43896426
H       3.93040733     -2.24594198      0.24262349
H       1.64143162     -0.45122800     -0.68662992
H       2.06781178     -0.74947843      0.99454360
O      -6.02959921      3.02681356      0.33979549
H      -5.27978344      2.40977959      0.44270573
H      -6.50774896      2.98952292      1.18098000
O       0.52440787      1.13157547      0.81086547
H       0.06436304      1.28847133     -0.03706328
H       0.06901293      0.36228313      1.17900161
O      -3.75187297      1.26295881      0.54660897
H      -3.79532187      0.50452944      1.14818578
H      -3.52292871      0.86468639     -0.31486241
O       0.38574788     -2.85764504      3.64414409
H      -0.55595159     -2.73176714      3.45624307
H       0.76344289     -3.05923715      2.77174928
O      -7.22771957      2.17031262     -2.21593456
H      -7.36652905      1.21603899     -2.05555374
H      -6.85429842      2.50900521     -1.37963658
O       2.04035062      1.27224890     -2.10558714
H       1.07290488      1.39356957     -2.08392439
H       2.37657859      2.16014058     -1.90643751
O      -0.76255653      1.76358326     -1.75035900
H      -1.21387598      2.52148232     -1.33367671
H      -1.49156924      1.15603563     -1.96278321
O       0.60168699      4.00585501      0.51761703
H       0.68581654      3.07626042      0.79859484
H      -0.34902010      4.08330195      0.31917800
O      -3.08280679      0.16528452     -2.15019504
H      -3.84286356      0.28724086     -2.73908460
H      -3.09978957     -0.77302970     -1.90307520
O      -7.33211054     -0.77125713     -1.84401226
H      -8.03310427     -1.43333023     -1.92660212
H      -6.71642742     -1.13049325     -1.18544689
O       2.67126655     -1.33723836     -3.17894823
H       1.80785138     -1.74193575     -3.38137197
H       2.46198753     -0.41362585     -2.93905454
O       5.42573020      2.93107532     -1.40053850
H       5.71380836      3.14398588     -2.30102742
H       4.53742336      3.31291157     -1.33261578
O      -5.46023019      0.52449553     -3.72647440
H      -5.87419394      1.40113285     -3.79458669
H      -6.08891752      0.00950115     -3.18529361
O       0.00597003     -2.44262403     -3.59669623
H      -0.73469224     -2.40767920     -4.22033685
H      -0.34985538     -2.86600826     -2.79855855
O       5.41184134     -1.55190551      4.17672085
H       4.51775953     -1.76485641      4.49581704
H       5.36935426     -1.63585011      3.20178470
O      -2.22529736      3.74627472     -0.15218291
H      -2.70889208      2.96128303      0.17520975
H      -2.92870438      4.35943474     -0.40964342
O      -4.58126924      5.26541074     -0.85994165
H      -5.17071297      5.79281313     -1.41855839
H      -5.14241375      4.56156366     -0.47948911
O       7.93848785     -0.37094429      4.75818279
H       7.06325371     -0.78964325      4.65394553
H       8.12548192     -0.40627716      5.70720728
O       2.75262521     -2.14650205      5.10083140
H       2.50095339     -2.24637771      6.03136938
H       1.95378056     -2.38129959      4.60428294
O       2.78241893      4.05817752     -1.34811034
H       2.07778258      4.07723860     -0.67601470
H       2.62420184      4.85113522     -1.88152416
