83
charge=0
N       0.61377519     -3.13751257      1.67969673
N      -0.70763615     -1.19204587     -0.92076883
N       1.51774053      0.34138607     -3.30787736
C      -0.06020379     -3.70155000      2.65264039
C       0.07939478     -2.15197036     -0.47578292
C       1.35585908     -2.39615150     -1.00816854
C      -1.42922836     -3.75782195      2.36122188
C       1.85269938     -1.61112169     -1.99317860
C      -1.58164999     -3.18754185      1.12274638
C       1.06756431     -0.53986462     -2.43605929
N       0.86619859      1.44037357     -3.62080515
N      -2.75853570     -2.95988734      0.43202402
N      -0.28945333     -2.84041961      0.72758639
N      -0.18571125     -0.42018236     -1.85296532
H       0.40103164     -4.04804244      3.56632947
H       1.94765409     -3.18809545     -0.58253467
H      -2.21706825     -4.13041492      2.99271568
H       2.84480681     -1.74743431     -2.38602110
H       0.93091598      1.75898861     -4.58099378
H      -0.09522256      1.54017811     -3.29468470
H      -3.64528245     -3.03608413      0.92367684
H      -2.80903104     -2.17469699     -0.21216094
H      -0.74893776      0.40200364     -2.10942076
O       5.10736642      3.04968320     -4.95134286
H       5.60297324      3.00814068     -5.78247622
H       4.82392604      2.13254236     -4.78116824
O       2.77152233      0.46236727      0.62909566
H       1.86846006      0.34351343      0.97684728
H       2.69667154      1.17993684     -0.02665489
O      -5.48273428     -3.03744656      1.69249421
H      -6.22263370     -3.13390166      1.07471808
H      -5.61037705     -2.16809626      2.11929407
O       1.25642420      5.28339615     -2.08735871
H       1.25591192      4.99220040     -1.16230470
H       2.16678280      5.12035789     -2.39471117
O      -4.13482119     -2.84220763      4.21085387
H      -4.48113882     -3.49764675      3.58207135
H      -4.60931399     -2.02533196      3.97077377
O       4.73962974     -1.52877416      0.04570714
H       4.07252877     -0.84488021      0.23908947
H       5.09024491     -1.78479931      0.91204953
O      -3.48262932     -0.42558762     -1.24904581
H      -3.58586378      0.29759573     -0.60574779
H      -2.51030525     -0.59205436     -1.27047368
O      -5.68616039     -0.54486325      3.18310061
H      -6.44333535     -0.07389127      3.56063804
H      -5.03993861      0.15392962      2.97730465
O      -1.60767712     -2.49891086      5.53010723
H      -1.69953580     -2.99381069      6.35810573
H      -2.46544561     -2.60438487      5.07916174
O      -1.83327532      2.05717195     -2.60475849
H      -1.69139695      2.99566068     -2.82972172
H      -2.69770359      1.83245823     -2.98131145
O       4.00658075      4.63357718     -2.83367015
H       4.36824019      4.11750528     -3.57696582
H       4.71766174      5.24433861     -2.58923823
O      -2.09072912      1.54456024      0.30791707
H      -1.31074012      1.08171710      0.66816192
H      -1.88883467      1.75930085     -0.62150064
O       0.04855514      0.04721484      1.68152994
H       0.02821595     -0.03357034      2.65326248
H      -0.07744278     -0.87913220      1.36171763
O      -1.71298448      2.02927285      4.58132095
H      -1.17268744      2.75792105      4.92266814
H      -1.13098215      1.24527548      4.58971906
O      -1.30251445      4.77354332     -3.30235157
H      -1.60014977      5.61186092     -3.68529924
H      -0.43120924      4.96849198     -2.90928915
O       2.53788656      2.52895814     -1.38461986
H       3.08778550      3.19693446     -1.83451120
H       1.98494319      2.13823438     -2.10333680
O       0.00850923     -0.33326481      4.56494406
H      -0.54538906     -1.07135458      4.87980625
H       0.88291952     -0.49515136      4.94981091
O       5.15654468     -1.82808954     -2.78522465
H       5.04911241     -1.71934299     -1.82139575
H       5.78432848     -2.55882574     -2.89082257
O       4.23935247      0.37913510     -4.41652523
H       4.61912805     -0.36676842     -3.91834345
H       3.31230582      0.42390745     -4.09061658
O      -3.79071414      1.47701082      2.63505949
H      -3.27077720      1.54008285      1.81337852
H      -3.14649533      1.70148415      3.33160975
