95
charge=0
S       5.65294809     -0.98130093      0.12377913
Br     -4.34282507     -3.98478040     -0.41388656
N      -3.98046611     -1.38292201      0.71398394
N      -1.83828160      1.43292606      1.61135196
N      -0.57365183     -0.56604995      1.14476704
O       1.14355587     -2.59994595     -2.90276983
O      -1.71351793     -3.17717081     -2.58477316
O       0.16035768     -3.34069027      0.60556334
O       3.20352347      0.48200076      0.94280949
O       3.93235124      0.90002505     -1.57549943
O       2.88952839     -1.41862435     -0.92121493
C      -3.41952546     -2.48725034      0.28902006
C       0.53983051     -2.91212316     -1.70162747
C      -0.77614083     -3.15722540     -1.56417186
C      -0.69336123      0.71310686      1.46753432
C      -2.96028705      0.79079849      1.47813175
C      -1.73656978     -1.18546004      0.95731691
C      -2.97114363     -0.55578618      1.11559388
N       0.49703386      1.41728618      1.61327217
N      -2.03697740     -2.41878251      0.40542294
C       1.92307329     -1.74765781      0.03000966
C       1.18704470     -3.03546414     -0.35039219
C      -1.07208665     -3.40067081     -0.11360423
P       3.79740187     -0.18507730     -0.39987955
H       2.07229500     -2.28614234     -2.77696903
H      -1.42812967     -2.55738646     -3.29379387
H       3.49072000      1.41939257      0.98798907
H       3.01716413      1.23812128     -1.67216032
H      -3.88743941      1.32890447      1.59060441
H       1.36541207      0.93628864      1.40902378
H       0.56573067      2.36669107      1.26310440
H       1.21159371     -0.91124394      0.06946931
H       2.40273584     -1.83953057      1.01838568
H       1.87856789     -3.89585738     -0.35973018
H      -1.48214842     -4.41076801      0.02446743
O      -1.00570298     -1.14171852     -4.46268878
H      -0.10080923     -0.77877261     -4.46870923
H      -1.33993179     -0.99467732     -5.35868337
O       1.05362284     -6.01949017     -0.59488235
H       0.67921829     -6.09776879      0.30401025
H       0.28514248     -6.11076774     -1.19190548
O      -6.51186898      2.01870707      1.91285143
H      -7.39596767      2.40946649      1.98397327
H      -5.91511855      2.66974230      2.32633684
O      -2.12872702      4.36900504      1.75295996
H      -1.99005922      3.39668172      1.71583486
H      -2.36728626      4.61756774      0.84608030
O       1.20164135      3.91487795      0.21566896
H       2.13979790      3.75674819      0.43674438
H       0.92822555      4.63292971      0.81545299
O       3.88955741      3.26831381      1.09891618
H       4.84295704      3.13488582      0.96303043
H       3.79966812      3.96465449      1.77385460
O      -1.36045547     -6.10316398     -2.33081818
H      -1.52212201     -5.15096231     -2.47888448
H      -1.69715947     -6.55238664     -3.12057754
O       1.58865086      0.13094502     -4.28708140
H       1.48084245      0.68672254     -3.49027010
H       2.37585841     -0.41458117     -4.10462272
O       6.54242236      2.38695436      0.47261815
H       6.44479302      1.41931746      0.51532946
H       6.56079053      2.57577308     -0.48280764
O       1.21023936      1.63569974     -1.69682710
H       1.10706909      2.41836459     -1.12517472
H       0.36601560      1.15191582     -1.63930689
O      -6.48305904     -0.89994448      2.40823958
H      -6.56577927      0.06906885      2.31156900
H      -5.68105780     -1.12604183      1.88870746
O      -0.95498518     -3.55198358      3.12860816
H      -0.37469467     -2.88389212      3.52301401
H      -1.25099256     -3.15893801      2.27619625
O       3.13808524      5.32529309      2.95750453
H       3.35404750      5.81642126      3.76376958
H       2.20295472      5.53268165      2.76377921
O      -0.17663069     -6.16089711      2.06138116
H      -0.31868892     -6.78767531      2.78714942
H      -0.42001018     -5.28797186      2.42273047
O       3.94609190     -1.46497747     -3.37916271
H       4.76838230     -1.97274832     -3.32650264
H       4.02597270     -0.75452778     -2.70715777
O      -6.17180539      0.38347617     -0.52558420
H      -5.46531588     -0.21663102     -0.20391498
H      -6.34876238      0.97547298      0.23171301
O       0.31114469      5.89017307      2.25637111
H      -0.52637664      5.39368587      2.18313080
H       0.04618016      6.81799991      2.34273993
O       6.16473738      2.56749240     -2.38581048
H       5.39029067      2.00192334     -2.19065371
H       6.06361649      2.84505836     -3.30779183
O      -1.16233696      0.00460811     -1.73344154
H      -1.42157366     -0.70704062     -1.11189472
H      -1.20047744     -0.39016450     -2.62401185
O      -4.72674316      3.95070707      3.11835799
H      -3.86286621      4.12576592      2.70111144
H      -4.67829672      4.36271698      3.99349774
