110
charge=0
O      -4.50589518     -3.43182909      0.08936167
N      -6.32525978     -0.95279866     -3.34272610
N      -5.15897718      0.12245774     -1.50225574
N      -1.42484717     -0.69187517      1.54945962
N      -0.35831866     -2.58517790      2.28915815
N       7.80946727      4.39244498      0.45385598
O      -1.75824515     -2.76948376      2.24253766
C      -4.75004999     -2.34531979     -0.39846181
C      -6.49346487     -2.18523800     -3.66989237
C      -4.46558978     -0.03547191     -0.36808310
C      -2.30996716     -1.62497041      1.77715057
C      -0.24231850     -1.38667221      1.78241483
C      -5.68739033     -0.99522705     -2.09779610
C      -5.51788623     -2.25011694     -1.69020892
C       3.68569008      0.77776908      1.48293133
C       2.82988305      1.11747503      2.46032939
C       5.85000123      5.31799287      1.09465834
C       5.95003447      1.28177163      0.44678806
C       4.78349550      1.71942347      1.08963127
C       7.05038995      2.07206840      0.22709130
C       4.66816392      3.09793945      1.42063488
C       6.94706631      3.42889776      0.60087559
C       5.72976332      3.96929009      1.06718892
N       7.18700871      5.52457201      0.81216336
N      -6.01875288     -3.07639716     -2.71261912
N      -4.30840602     -1.24437688      0.24403691
C      -5.74209627     -4.45248824     -2.86649810
C      -3.82699287     -1.33609946      1.66138170
C       3.63266820     -0.64820406      1.11245982
C       1.07221120     -0.61415371      1.62098762
C       1.89782136     -0.06132364      2.73793325
C       2.43851055     -1.16345523      1.93403835
H      -6.95574500     -2.49800196     -4.63717006
H      -3.96871200      0.79316255      0.09608388
H       2.68159144      2.08511342      3.01421161
H       5.18189643      6.06771677      1.51336665
H       6.11049652      0.24208902      0.37243247
H       8.01409690      1.69573535     -0.28153360
H       3.74997377      3.53590947      1.94787494
H       7.68749231      6.44817088      0.84915040
H      -6.65439272     -5.07431748     -2.79588216
H      -5.31820079     -4.62757794     -3.91840697
H      -4.99664182     -4.72731392     -2.12755783
H      -4.43472714     -2.06426972      2.14308504
H      -3.98774434     -0.37337780      2.11444846
H       4.57966930     -1.17615582      1.32326008
H       3.31830017     -0.85008617      0.06744742
H       1.08539223     -0.00644922      0.66943402
H       1.44376269     -0.22710204      3.71586664
H       2.44216684     -2.16825837      2.32233871
O      -3.00451502      1.05627174     -3.33377943
H      -3.93788089      1.23196243     -2.98489197
H      -2.37350697      1.02416037     -2.54348873
O       7.95586689      7.71642916     -0.65140841
H       8.46278646      8.56692714     -0.44297338
H       8.05096604      7.52729369     -1.64082641
O       1.80259579     -2.63519275      5.20370846
H       1.18430373     -3.41312402      5.01318819
H       2.67328243     -2.79748673      4.71449953
O       2.98647383      5.48489088      3.53985896
H       3.69473212      5.35102254      4.24993630
H       2.22776997      4.84196169      3.72633082
O      -1.75756209      1.44955634     -0.94468470
H      -1.61464691      1.82434549     -0.01577496
H      -0.92607734      0.93729132     -1.20921249
O      10.22075430      6.37311189      0.47329304
H      11.20545622      6.48498754      0.26931761
H       9.72203853      7.14693041      0.05347371
O      -5.92591008      2.49109136     -2.53265488
H      -6.93417773      2.48560189     -2.61706704
H      -5.63647491      1.59850830     -2.15412731
O       4.36657395     -3.43708742      3.83007989
H       5.24694191     -3.48941313      4.32604196
H       4.41107360     -4.06939019      3.04142580
O       8.98849210     -0.61598658      1.25409959
H       9.19574698     -1.54382885      1.60038703
H       9.43965955      0.05534530      1.86198349
O      -8.29528083     -7.48061138     -2.91856869
H      -8.24650972     -7.33865228     -3.91918288
H      -9.01783924     -6.87617029     -2.54934887
O      -8.30344425     -2.61023996     -7.12366697
H      -9.06758082     -2.59457826     -6.46063404
H      -8.56535361     -3.21399446     -7.89219965
O      -5.67831750     -7.43138305     -3.90772931
H      -5.11895894     -7.54534699     -3.07232958
H      -6.64201940     -7.62902259     -3.67113939
O      -4.65628113     -3.44779006     -5.97256766
H      -4.44113484     -2.52869126     -6.33689023
H      -5.31606405     -3.88902878     -6.60006629
O      -3.43633876     -5.94754194     -0.40406344
H      -3.78938414     -5.03271814     -0.15462041
H      -2.42547739     -5.91354584     -0.37641167
O      -7.64682255      0.47414421     -5.59133636
H      -7.03834971      0.39537548     -4.78677833
H      -7.12968104      0.17528056     -6.40804414
O      -0.80729721      2.09676861      1.71252006
H      -1.20160811      1.16622797      1.76125168
H      -0.52387712      2.36819489      2.64513007
O      -3.41296909      1.38595332      3.98018121
H      -4.02695891      1.09474893      4.72983118
H      -3.97518632      1.83474533      3.26866508
O       6.92339158      7.80116052      3.28753214
H       6.14896645      8.44741797      3.20766801
H       7.59124152      8.18882930      3.94132950
O       4.58945874     -0.71176885     -2.49667747
H       5.51823950     -0.58021362     -2.87591561
H       4.12527906      0.18714546     -2.48081315
O       0.64255713     -0.50080416      5.95356458
H      -0.32956898     -0.76065237      5.84768382
H       1.21198776     -1.27611752      5.63987835
