72
charge=0
O       0.40021059      2.23062030      1.36446655
O       0.01458764      0.41053173      3.58855285
Br      0.29549954      1.74901007     -1.59348955
Br     -0.93943595     -2.38618712      3.58506362
Br     -0.93611716     -1.13726437     -2.06502734
Br     -1.60496823     -3.34196860      0.47328411
C       0.13941645      1.04303236      1.21185124
C      -0.18294930      0.12508273      2.42017212
C      -0.05482435      0.51187513     -0.09441971
C      -0.70567013     -1.17913901      2.14955734
C      -0.61867593     -0.70291997     -0.25571941
C      -0.92062231     -1.60399550      0.88031945
O      -0.76485035     -5.71933245      2.42649479
H      -1.56908154     -5.62607532      3.03335347
H      -1.00547908     -6.35909085      1.68045934
O       3.45996959      1.10150094     -1.86781941
H       3.05884953      2.02839842     -1.92884083
H       2.72909030      0.45949218     -1.58960870
O       1.06853952      4.83016974     -2.05468289
H       1.58006426      4.08778414     -2.51399624
H       1.54323928      5.70355417     -2.24341325
O       0.83188053      2.47946620      5.13311574
H       0.16494989      1.93151945      4.60517697
H       0.35358427      2.87245741      5.93346034
O      -3.34586737     -5.62857391     -1.57648620
H      -3.17280162     -4.75007522     -2.04770379
H      -4.15948964     -6.05746707     -1.99818603
O      -3.26913239     -1.47763603      6.16910956
H      -2.76234253     -0.60284377      6.12831515
H      -2.82447458     -2.06751583      6.86054492
O       2.55939469     -1.81776040     -2.37365408
H       2.16927173     -2.47760400     -1.71322167
H       3.53408688     -1.67783850     -2.14093492
O       2.83066982      3.61166338      3.38263079
H       2.03846682      3.08031082      3.72003238
H       2.63587228      3.89866935      2.43213465
O       2.62889128      4.69418736      0.78885374
H       1.92903033      4.45395226      0.09874999
H       3.49982836      4.25447221      0.52075086
O       2.34642147      3.58234399     -3.96156471
H       2.36405237      3.01749217     -4.80084581
H       3.29763272      3.68942004     -3.63370099
O      -3.36163631      1.31777288      1.87161977
H      -3.45577584      2.19858532      1.38267453
H      -3.50380535      1.48850192      2.85873714
O       1.82144280     -3.55473995     -0.42856156
H       1.15569225     -4.29580661     -0.60566124
H       2.74226906     -3.96828152     -0.35910427
O      -3.88201094     -0.74564099     -4.21684254
H      -3.93051256     -0.19576310     -3.36887898
H      -3.12758788     -0.38272617     -4.78508519
O      -0.21027087      5.59036135      1.88912804
H      -1.02246521      5.24625304      2.38480132
H       0.58072087      5.01142743      2.13998262
O      -1.20080582     -2.50573339     -4.91813598
H      -0.31427145     -2.95254687     -4.72274572
H      -1.02570173     -1.52727541     -5.10713318
O      -4.32694077     -0.88150263      0.17754137
H      -4.35146435     -0.39802669     -0.71094688
H      -3.62949967     -0.43596386      0.75963554
O       2.26363306     -2.39538006      4.16503008
H       1.97071421     -3.36129062      4.09449262
H       1.71960943     -1.95355883      4.89481854
O      -1.52559640      1.04932903     -4.87799814
H      -0.62296745      0.63421960     -4.68640142
H      -1.45517942      2.04555026     -4.71568448
O       2.32744565     -1.45390628      1.26254373
H       2.06910363     -2.09808704      0.52630126
H       2.30129125     -1.95354104      2.14199951
O       0.74060793     -0.21268367     -4.95139174
H       1.12343901      0.00680804     -5.86189967
H       1.49367206     -0.55003763     -4.36585935
