83
charge=0
N      -1.94949983     -1.08216516      1.80430887
N       0.27836678      0.12553811     -0.86972355
N       3.19867012      2.28341332     -0.27483821
C      -2.89218417     -1.96387817      1.44455072
C      -0.16500353     -0.02115011      0.39835570
C       0.43305991      0.77891826      1.43792740
C      -2.80350786     -2.39343988      0.05203485
C       1.47434588      1.58949010      1.19592422
C      -1.70129409     -1.73358796     -0.39813517
C       2.09921231      1.58453103     -0.09970188
N       3.95813578      2.23669038     -1.36736445
N      -1.23942248     -2.00070732     -1.66702623
N      -1.18107616     -0.97308692      0.64914582
N       1.49897922      0.77344299     -1.04951500
H      -3.68156421     -2.35004596      2.09993234
H      -0.05922675      0.80200191      2.36803415
H      -3.39115605     -3.10521113     -0.48565267
H       1.80383802      2.26895675      2.00387118
H       4.88417268      2.67110102     -1.31037352
H       3.76602053      1.65023446     -2.16926694
H      -1.80371879     -2.43396935     -2.35477666
H      -0.45388696     -1.45263251     -1.93958396
H       2.12894086      0.50608990     -1.82238450
O       5.54913848      0.13941049     -0.46568749
H       5.69812753     -0.73771596      0.01619816
H       4.71181876      0.56648850     -0.09117364
O      -0.70801971      3.57690549      2.16552007
H      -1.11733309      2.81053882      1.64695970
H      -0.08690715      4.08067798      1.54568550
O      -2.94567816     -4.00166370     -2.93520439
H      -2.78895238     -4.64403600     -3.70107649
H      -3.92557620     -3.74958972     -2.93078885
O       4.95689155      0.79080578     -5.01652704
H       5.94074464      0.55504919     -5.03111129
H       4.87485611      1.79832458     -4.97250077
O      -5.62820752     -3.49962699      3.55891931
H      -5.88842020     -4.43829308      3.28513853
H      -6.05957504     -2.85176396      2.91242240
O       0.98930596      2.42396693      4.63178127
H       0.00076055      2.24020486      4.74479039
H       1.50142671      1.72824018      5.15852197
O      -1.93968288     -2.90603262     -5.56262004
H      -2.59452224     -2.17860446     -5.81913001
H      -1.70237659     -2.78650754     -4.58631974
O      -6.32667031     -2.62010208      0.74428793
H      -7.32352451     -2.62867453      0.57117341
H      -5.89337094     -2.01239455      0.06113052
O      -3.03223968     -4.32143894      3.52768422
H      -2.95170535     -4.91634342      4.34215534
H      -3.85754086     -3.74651657      3.63770473
O       0.92705128     -0.30435562     -4.32953574
H       1.80776228     -0.10483742     -3.87313342
H       1.06959225     -1.07901809     -4.96462803
O       7.09298601      2.27279168     -1.87794686
H       6.69377559      1.60077095     -1.23546593
H       7.95940710      2.61235475     -1.48073667
O      -1.41999837      2.62011747     -1.85488213
H      -0.93687769      1.75346726     -1.65670386
H      -1.04252694      3.00243001     -2.71226863
O      -2.64671673      1.67770502      1.26663200
H      -3.06843156      2.32800355      1.91703790
H      -2.35465529      0.85892080      1.78437103
O      -3.82147059     -0.30665754      4.42254054
H      -3.35443957      0.54899450      4.69365595
H      -3.11469425     -1.00747817      4.24066767
O       3.20658677     -0.11383533     -3.05359120
H       3.31330401     -1.00622055     -2.58881072
H       4.05161118      0.07120490     -3.57842907
O       1.88309303      4.40169696     -1.82152266
H       1.95955031      4.52344028     -2.82306657
H       2.30499497      3.51466872     -1.57874583
O      -0.52713036     -2.64226434      4.00646430
H      -1.25546811     -2.94306754      3.37179770
H      -0.79529400     -2.91144361      4.94422402
O       4.38087306      2.53589633      3.47324827
H       3.67954707      1.83247914      3.66587753
H       5.28845748      2.08894129      3.49005203
O       3.39270335      4.37220447      1.66262267
H       3.76739144      3.83375383      2.43297440
H       3.33074212      3.76585222      0.85499762
O      -5.32857060     -1.44056552     -1.61265374
H      -5.39518557     -2.09376448     -2.38249299
H      -4.70269648     -0.69403052     -1.88601490
