96
charge=-3
O       4.81481992     -1.93019623      0.32505748
O       2.87648663      2.56110650      0.09320736
O       2.56381856     -1.76408347      0.37787554
O       3.56259931     -1.03787540     -1.66203259
O       2.03295111      0.87071653      1.55769345
N       0.06249904      0.23929237     -0.78931690
N       0.20639538      0.42980789     -2.95381661
N      -5.04240867      0.87333441      3.64234662
O       4.01410212      0.39963603      0.24450421
C      -0.60342906      0.13611197     -1.89427610
C       1.40711421      0.69506521     -2.47642385
C      -5.30196074      1.39750000      2.37986799
C      -3.89774305      0.12270450      3.76303898
C      -3.82747103     -0.81772266     -3.65517136
C      -4.67736392     -1.02735633     -2.59725196
C      -2.47281551     -0.49188018     -3.38787776
C      -4.49693035      1.09297037      1.26663440
C      -3.08543441     -0.20089388      2.72369621
C      -4.30601241     -0.68747457     -1.30884527
C      -2.05298899     -0.22877932     -2.08852166
C      -3.37737069      0.26925683      1.44001481
C      -2.99952441     -0.30843853     -1.03343247
N      -2.56482536     -0.10767698      0.35318852
N       1.30815149      0.62736388     -1.11814610
P       3.70115143     -1.09738112     -0.17786383
P       2.56419050      1.06578949      0.14806031
H       2.24893199      1.02185961     -3.08007716
H      -6.18363779      1.92828292      2.19413748
H      -3.72156857     -0.31778573      4.73893883
H      -4.18094916     -1.08180395     -4.61319808
H      -5.68813319     -1.10854502     -2.85112607
H      -1.81851500     -0.31742452     -4.23884836
H      -4.68092583      1.38527266      0.22857188
H      -2.21053523     -0.88662262      2.83564075
H      -5.03001012     -0.74189242     -0.52319645
H      -1.65775419     -0.49515007      0.65533160
O       5.66056700     -0.22389172     -3.15583688
H       4.75802517     -0.57576654     -2.86366921
H       6.36967262     -0.87090969     -2.83599376
O       5.81055629      2.43794205      0.42431830
H       6.30979893      1.84989089      1.07908004
H       4.83647903      2.16438281      0.43432948
O       3.58191604      3.95615195     -2.06867328
H       3.43790170      3.47399694     -1.19086497
H       4.47070959      3.65841130     -2.44966739
O       4.56802723     -3.86013028      2.14887503
H       3.70046711     -3.61920102      2.61045444
H       4.67514644     -3.25622792      1.34414668
O      -1.38170709      1.07990857      5.63357360
H      -1.76296703      1.22346997      4.70740296
H      -0.39987206      0.85457679      5.53877221
O      -7.27589243      0.39842844      5.46930892
H      -7.26381888     -0.55131437      5.81802732
H      -6.44957385      0.53635951      4.90191814
O      -3.39815724      0.51971911      7.38493439
H      -2.60522714      0.70640920      6.78479151
H      -3.62398068      1.37114525      7.88276902
O       0.72377799     -1.67942226      2.33318568
H       0.29887675     -0.76482593      2.41523980
H       1.57551284     -1.58413285      1.79538479
O       0.89629051     -2.34594103     -1.66788214
H       1.54357904     -2.06989999     -0.94084617
H       0.87733626     -1.61491387     -2.36716866
O      -7.73885335     -2.11331839     -4.54750866
H      -8.66915566     -2.49351248     -4.66478571
H      -7.78115367     -1.11745598     -4.72136950
O       0.60218216     -0.31255484     -5.67844871
H       0.34295200     -1.27075901     -5.87442741
H       0.66025849     -0.20081042     -4.67450501
O      -4.42439164      3.26976297      5.20690651
H      -4.60752466      2.30528338      4.96195181
H      -3.61455005      3.57912777      4.68516803
O      -1.35525696     -2.65817863      1.12142792
H      -0.60842629     -2.44837747      1.77103280
H      -1.03458045     -3.38715307      0.49730776
O       1.03630659      4.47792172      0.34667849
H       1.74411169      3.77145044      0.19282699
H       0.94913361      4.62476949      1.34397497
O       3.83195622     -2.88586857     -3.42992778
H       2.92449949     -3.27371826     -3.65321630
H       3.72063040     -2.25332255     -2.64810203
O      -0.41967152      1.45128241      2.18995559
H      -0.77544807      1.62071106      1.25803230
H       0.57223081      1.26440278      2.11947919
O       5.82738023     -1.10221150      2.54901049
H       5.86301447     -1.92612171      3.13524008
H       5.21909563     -1.29941464      1.76487793
O      -0.58275220      2.68009890     -4.37342021
H       0.35075901      3.04388755     -4.51475352
H      -0.50884006      1.81701413     -3.85056011
O       6.59820055     -3.51807343     -0.64584848
H       5.85440139     -3.02698362     -0.16693949
H       7.25966903     -3.84206992      0.04787206
O       3.64316342      1.40653132     -5.51657411
H       4.06953679      1.74111236     -6.37098777
H       3.63268712      0.39516327     -5.54463033
