98
charge=0
O       0.99271774     -0.16132592      0.46946167
Cl      6.00963312     -0.70617555     -3.73335219
Cl     -1.33461348      5.01274308      2.63899312
Cl     -0.85146422     -5.44103014      4.10620205
Cl      5.59792524     -2.51534091     -1.23486992
Cl      3.39316108      0.50658463     -5.20964582
Cl      1.60546533      4.48915703      1.63231490
Cl     -3.63361116      3.32006195      1.42045736
Cl     -1.10447706     -6.07552642      1.04505176
Cl     -0.64496217     -2.50302008      5.15807635
Cl      2.77795300     -3.20848581     -0.19078015
Cl      0.49314499     -0.06871700     -3.98273683
Cl      2.08308455      2.38928550     -0.65026939
Cl     -3.11104276      1.16626733     -0.83603737
Cl     -1.46783649     -3.86565306     -0.89429614
Cl     -0.87529957     -0.15731095      3.15210818
O       0.56407211     -1.72669402     -1.52588834
O      -0.44960796      0.76123475     -1.35200554
O      -1.38380522     -1.03936668      0.22866845
C       4.32026156     -0.87322711     -3.15678943
C      -1.06569878      3.83018006      1.38433928
C      -0.91783519     -4.15495273      2.99019572
C       4.20852898     -1.64477338     -1.98941587
C       3.26070528     -0.29953240     -3.70950688
C       0.23729563      3.64116899      0.93561048
C      -2.02901840      2.93796288      0.91942305
C      -1.07487203     -4.41462036      1.62935972
C      -0.87431787     -2.79615695      3.43071934
C       2.96878339     -2.02546948     -1.41170374
C       1.96494339     -0.57631492     -3.12062378
C       0.46868203      2.60512571     -0.03076911
C      -1.81928751      1.98191394     -0.01165867
C      -1.19925499     -3.34806442      0.71177598
C      -1.00382681     -1.79422848      2.47554775
C       1.85311783     -1.40367140     -2.00525522
C      -0.55251300      1.78345431     -0.44117567
C      -1.14908811     -2.04395944      1.09270694
P      -0.06455600     -0.59022424     -0.55349350
O      -4.26080321     -4.90989787     -1.84150932
H      -5.06619797     -5.09689054     -2.42472039
H      -4.09221760     -3.91224730     -1.84742561
O       5.18085330      2.31077891      0.04851699
H       5.39910074      2.79121630      0.91182945
H       5.99693277      1.78337685     -0.23365735
O       0.71696277     -5.09208666     -3.04269175
H       0.01223206     -5.81601220     -3.09788444
H       0.33205390     -4.24636329     -3.44313959
O      -0.17015814     -3.25762507     -4.56398943
H      -1.00282310     -2.74087670     -4.81578584
H       0.61904187     -2.83104049     -5.03191471
O      -5.87995650      1.89284551     -0.05955696
H      -6.68451655      2.41681082      0.25966882
H      -5.50013775      1.38653507      0.72984095
O       1.31858577     -6.43055513     -0.66730138
H       1.20096554     -5.79952437     -1.44943118
H       1.12791057     -7.37060046     -0.98935719
O       2.49759672      6.85345845     -0.42327999
H       2.26136915      5.98828084     -0.89170691
H       3.39966290      6.73590181      0.01968265
O      -3.43494993     -1.30701890      5.62231508
H      -3.69187472     -0.55306908      4.99836776
H      -3.40504765     -2.16410500      5.08540846
O      -2.45009055     -0.80179090     -3.06745883
H      -2.71220428     -1.29843471     -3.90912521
H      -2.39420521      0.18415928     -3.28777539
O       2.72044164      0.77473044     -8.32845685
H       1.79060450      0.39532899     -8.45181358
H       2.63155464      1.71529999     -7.96625689
O       0.10094285      3.47480768     -3.07129124
H       0.84840054      2.87281748     -2.75086044
H       0.45440553      4.42202074     -3.11144346
O       1.54487842     -2.08753820     -6.40231117
H       2.49513371     -2.40647557     -6.54035207
H       1.32286304     -1.43037790     -7.13893151
O       1.83884143      4.76866851      4.64937331
H       0.94759464      4.99695975      5.07047296
H       2.02340958      5.44246439      3.91746274
O       2.20130671      0.10379076      2.71395193
H       1.67206516     -0.10033369      1.87609903
H       2.10145705     -0.67825313      3.34814415
O      -1.70547598      2.43494511      4.87167118
H      -1.88582174      3.36442457      5.22846570
H      -0.80898285      2.12923280      5.22748211
O       3.19912180      2.40553842      3.56834036
H       2.37479209      2.97706844      3.70098691
H       2.91777612      1.54794450      3.11102510
O      -5.58428269      5.23807498      3.18356380
H      -5.21988391      5.61045147      2.31620656
H      -4.87550460      5.34979065      3.89694795
O      -4.36416621     -4.76955975      1.15131014
H      -4.33072069     -4.92370695      0.15186905
H      -4.26248777     -3.77722858      1.32072201
O       4.59393510     -2.64460799      2.32982160
H       4.82929919     -2.15820549      1.47438284
H       5.25178667     -2.36151341      3.04455976
O      -3.68243198      5.65175054      4.98340451
H      -3.65326046      6.66247086      5.02016869
H      -2.99812423      5.29274308      5.63654859
