89
charge=0
O      -1.67364236     -1.02485176      2.36557241
O       0.37886500     -2.83026861      1.20798578
O       2.32535710     -1.48712684      3.09845925
O       1.70870178      0.56820631      2.24716668
O       2.22822542     -0.55313942     -0.76866269
O       4.05762297     -0.30377267      1.81181182
C      -1.19566558     -0.27652621      1.53598298
C       0.53705569     -1.75178105      0.65302131
C       1.31444804      0.46096561     -0.99185104
C      -1.43639562      1.18076200      1.66634796
C      -1.25256062      2.06278197      0.59969184
C      -2.11281537      0.97739334     -1.29483937
C      -2.27093452     -0.48272607     -1.47857596
C      -0.97460564      1.37596958     -0.65586982
C      -0.00252724      0.31861663     -0.56846558
C      -1.54939768     -1.39938113     -0.74725742
N      -1.71448824     -2.73257121     -0.94641266
C      -0.56972143     -0.81317659      0.24897098
C       1.98201525     -1.42733327      0.38544416
S       2.45516417     -0.65006967      1.92570914
H       4.18605913      0.18263102      2.67468917
H       1.63165682      1.33298745     -1.55203391
H      -1.58311306      1.63478724      2.63654929
H      -1.20164028      3.12298157      0.67894697
H      -2.94386264      1.57837869     -1.46072617
H      -2.96688434     -0.84646219     -2.27662964
H      -2.43078038     -3.08235748     -1.59350747
H      -1.32945772     -3.43524086     -0.28637647
H       2.49299394     -2.39580625      0.24156331
O       4.70357661      0.85457319      4.01478644
H       5.55122829      1.13996141      4.48786106
H       4.15938972      0.29145480      4.65550395
O      -3.22857139      0.67577958      5.14848473
H      -3.20882066      0.15174746      6.01379507
H      -3.23535784      1.66141867      5.37702528
O      -2.48215303      3.66317153     -3.67030721
H      -2.84743421      4.35432781     -3.02794197
H      -1.47838823      3.62071022     -3.55024795
O      -2.68786768     -4.84738227     -3.18113789
H      -3.47810843     -4.71153110     -2.56402850
H      -3.03521037     -5.19185898     -4.06682953
O      -6.01843242     -1.52773251     -2.42962723
H      -5.67677576     -1.66507356     -3.37205406
H      -6.15421141     -0.53554650     -2.28508224
O       1.61192173      4.01946643      0.57798863
H       1.08596086      3.68534186      1.37516250
H       2.30632072      3.32183356      0.34372328
O       6.88078644     -0.30386565      0.42595624
H       7.31565329      0.59651373      0.58077336
H       5.89480519     -0.15266656      0.25642155
O       3.92596580      2.53600231     -0.49610852
H       4.23900481      2.72926214      0.44645069
H       4.67745527      2.07074391     -0.98860978
O      -0.53471443     -5.66181301     -1.44930363
H      -0.50523399     -6.66598886     -1.32879724
H      -1.25546811     -5.44662836     -2.12603930
O      -0.45056817      5.50406655     -0.72271227
H      -0.46801326      6.08641149      0.10453224
H       0.20679592      4.75134950     -0.56444405
O       0.81042170     -1.00546116     -3.63479005
H       0.29412270     -0.18752216     -3.93172375
H       0.47158955     -1.27747885     -2.72102831
O       0.70712683      3.37561244      2.91033032
H       0.02885938      3.75175825      3.56012091
H       0.66927309      2.36596327      2.96453236
O       4.73689545      3.18872095      2.02058309
H       4.86623849      2.29163629      2.47032752
H       5.58786024      3.72407548      2.13466878
O       2.62049899      3.49653341     -2.92973259
H       3.38117710      3.11289891     -2.38388056
H       2.70874608      4.50448868     -2.92849061
O       0.45662403      2.33083849     -4.30140231
H       0.80815432      1.79126851     -5.08182030
H       1.24727604      2.73318412     -3.81483302
O       2.18628038     -4.94922270      1.47149680
H       1.72134989     -5.84687333      1.42880915
H       1.60430069     -4.27005620      0.99842781
O      -1.54736162     -4.33425939      2.38094570
H      -0.72440264     -3.87828628      2.00867166
H      -1.74766174     -3.93196523      3.28747739
O      -4.62102741     -3.82167852     -1.64776552
H      -5.11900890     -3.40611148     -2.42434745
H      -4.77157335     -3.24347837     -0.83119867
O      -2.61677383     -2.60164429      4.46629177
H      -2.85228124     -2.24782097      5.38449984
H      -2.35520361     -1.81684785      3.88367986
O      -4.50115538      1.98617569     -3.84560205
H      -3.75102044      2.66515130     -3.83855797
H      -4.20269003      1.19250538     -4.39765663
