98
charge=0
N      -5.15875109     -2.43466376     -0.81001103
N       1.37183538      1.35024667     -4.79656778
N       3.07481984      1.18903633      2.59409428
N      -2.75400928     -1.09353358      2.30129958
N       0.08660078     -0.20970105      4.23789505
S      -4.47466513     -1.82315222     -2.21272345
C      -4.49065335     -2.08687419      0.28678298
C       1.33864636      0.07324219     -5.06317958
C       3.10819142      1.53362861      1.31637093
C      -3.28479283     -0.99350091     -1.28040311
C      -3.34197516     -1.20659998      0.06847858
C       1.35767808      0.24918198      4.09558748
C      -2.35084711     -0.76484561      1.07129814
C       1.45274871      2.63555990     -2.58847991
C       1.53208611      2.44336718     -1.18931768
C       1.53636211      0.07975578     -1.37144566
C       1.31967899      1.47288198     -3.38000654
C       1.84823156      0.68025828      2.85330773
C       1.31269093      0.17608165     -2.77031292
C       1.68401709      1.20337720     -0.60601709
C      -1.88658706     -0.83117003      3.32399831
C      -1.11884771     -0.19738436      0.81255908
C       1.13024110      0.60798408      1.69633616
C      -0.63971039     -0.29636144      3.11338894
C      -0.20488022      0.06713509      1.82267657
N       1.23086328     -0.70089217     -3.85062925
N       1.93482512      1.17227913      0.73750854
H      -4.76513083     -2.37423293      1.26632921
H       1.30906821     -0.31571031     -6.07026935
H       3.93657911      1.87478779      0.73210120
H      -2.38162144     -0.48948763     -1.68396763
H       1.94102995      0.30797124      4.97998442
H       1.47116183      3.62955922     -3.06493501
H       1.67334309      3.32245808     -0.56398746
H       1.51721357     -0.89905915     -0.83368123
H      -2.08832560     -1.10396495      4.32459358
H      -0.99429720      0.02787232     -0.24560332
H       1.13081806     -1.68590844     -3.80342234
O       3.22257625      5.72068192     -0.96739767
H       2.54203202      5.82410699     -0.22582888
H       4.01601530      6.31025514     -0.75148820
O       6.92223994      2.31379629      0.81771850
H       7.28352293      2.81659831      1.61798475
H       6.99038252      2.91791793      0.00891924
O       5.36028612      0.16864776      4.04634578
H       6.07244243      0.61653136      3.48421081
H       4.49575196      0.68038936      3.92608389
O      -2.49445191      1.23184800     -3.80138275
H      -3.47116705      1.22486233     -4.06546568
H      -2.40038631      1.78023330     -2.95628668
O       2.75765522      3.72865303      3.78405313
H       3.61147867      4.17245140      3.47133863
H       2.84621595      2.73232216      3.63160008
O      -0.99255322      3.23055724     -5.06786083
H      -0.07673979      2.84277895     -4.88163675
H      -1.68616052      2.58659828     -4.71011401
O      -3.30939994     -0.30475376      6.12218350
H      -2.37174746     -0.14671564      6.46800514
H      -3.64283791      0.55716631      5.71026568
O      -3.08411345     -3.78446570      2.95596697
H      -3.10003279     -2.80409554      2.70620813
H      -2.16684582     -4.00107375      3.32402456
O       1.96401708     -3.51585619     -3.71294363
H       2.89962870     -3.39218607     -4.07776810
H       2.00607416     -3.43892086     -2.70493866
O       1.13191128      2.48032085      6.83721285
H       0.54134488      2.89399263      6.12737648
H       0.56357622      1.85709470      7.39608996
O       3.12283875     -0.87019263     -8.14751609
H       2.34657388     -1.49157632     -7.96028370
H       2.85294765     -0.24546146     -8.89626902
O      -4.75072371     -5.03504968      1.48275369
H      -4.75866054     -6.04528400      1.53868432
H      -4.02834648     -4.69079502      2.10196247
O       2.23035813     -3.34109301     -0.91729640
H       2.71088005     -2.75507917     -0.24688482
H       1.45994659     -3.79509667     -0.44389842
O      -0.62209010      0.07259130      7.08009339
H      -0.37618754      0.08751034      6.09873132
H      -0.17585993     -0.73015327      7.50464039
O      -0.30133486     -3.49580998      3.72179744
H       0.07428288     -3.02200537      4.53308186
H       0.33760904     -4.23751100      3.46608030
O      -1.39205217      0.43050884     -6.78649172
H      -0.81948040      0.79036470     -7.53910532
H      -1.42832518      1.12973442     -6.05606057
O       2.95046565      6.04513866     -3.70389200
H       3.11149822      7.02367664     -3.90462513
H       2.77265430      5.95195774     -2.71219596
O       1.07345582     -2.31363050     -7.35804647
H       0.30636430     -1.68467403     -7.55741095
H       0.68668005     -3.22144151     -7.13433857
O      -7.95765138     -3.43104358     -0.14707684
H      -7.68904919     -3.64951359      0.80365178
H      -7.32258533     -2.72689804     -0.50009965
O      -6.26830808     -2.04590189      3.57322675
H      -7.15415214     -1.84803474      4.02031174
H      -5.78629716     -2.74440151      4.12415972
