102
charge=0
O      -5.17400603      1.19171735     -1.68213722
O      -6.51003446      0.08713484     -0.47120213
O      -0.48011598     -2.30168337      2.21440196
S      -2.76266854     -0.18275141     -0.67348596
C      -3.20371372     -1.60354256      1.43944378
C      -4.48956883     -1.07801078      0.98925947
C      -2.15929909     -1.18345135      0.71476339
C      -4.40192961     -0.25766848     -0.09892940
C      -0.71827168     -1.49566763      1.07346894
C       2.09059822      3.58951802     -3.77834313
C       1.97042453     -2.45011982      4.85184298
C       0.76670403      3.27470286     -3.30418702
C       3.16231725      2.92726504     -3.19056373
C       3.05619829     -1.89011087      4.26839434
C       0.69342732     -2.63778798      4.18777574
C       0.66570399      2.35540144     -2.26149910
C       3.04246768      1.95782411     -2.18757156
C       2.98331263     -1.39133328      3.00624728
C       0.68937419     -2.17517200      2.89398531
C       1.71941993      1.65351981     -1.73383285
C       1.80811037     -1.60303765      2.28358617
C       1.47869102      0.62572121     -0.72081209
N       0.30698179      0.04799962     -0.56726991
N      -5.41891733      0.35491585     -0.82390900
N       0.30753373     -0.96926984      0.42226792
C       2.50890015      0.03398299      0.26357531
C       1.74769757     -1.17737408      0.83886740
H      -3.03591842     -2.24583033      2.34114749
H      -5.39859406     -1.32438182      1.47540920
H       2.23275780      4.31345669     -4.61130862
H       2.13021639     -2.66159822      5.87344988
H      -0.12789249      3.79272450     -3.64768974
H       4.17493459      3.23781959     -3.52607132
H       3.98753037     -1.83637615      4.84180070
H      -0.22742867     -3.15881716      4.57512985
H      -0.38835821      2.22199915     -1.89681645
H       3.91338582      1.50454035     -1.81534521
H       3.89101135     -1.00118036      2.58548121
H      -0.37929355      0.06356954     -1.28145458
H       3.47993001     -0.31228422     -0.21063565
H       2.74242879      0.74961180      1.09148616
H       2.04891914     -2.03626926      0.26338457
O      -0.80870030      5.29438020     -1.06824278
H      -1.49729302      6.03243832     -0.99843140
H      -1.20349403      4.45563784     -0.66277026
O       5.47605878      3.09044823     -0.03556729
H       5.53724964      2.80555351      0.93337653
H       6.15307290      2.55604499     -0.56455255
O       5.23079724      3.23460690     -5.56587461
H       4.97144350      4.02603134     -4.99129290
H       4.44472400      3.00571435     -6.16039757
O       2.79084310     -5.08543218      6.86095672
H       1.99246757     -5.58531977      7.23037437
H       3.53053683     -5.75453974      6.69094443
O       0.29991865     -3.32529530      7.57585032
H       0.95404619     -3.10342790      8.31520996
H       0.56826592     -4.21421527      7.17389101
O       2.06509938      7.12938783     -5.78129645
H       1.61246411      6.88132996     -6.65155400
H       1.36042710      7.49019694     -5.15120739
O       5.58246944     -2.62747520     -0.34301994
H       4.78174886     -2.98134318      0.16431212
H       6.31024101     -3.32975147     -0.31277298
O      -7.14893190     -2.79674286      2.67936941
H      -6.89610345     -3.05698152      1.73485151
H      -8.15783140     -2.74037102      2.73138979
O      -7.60319093      2.67735707     -2.56098261
H      -6.68763486      2.26048220     -2.45267745
H      -8.25917120      1.94197884     -2.79047848
O       3.14111107      2.60059585     -6.92046403
H       3.62244474      2.50850677     -7.80567523
H       2.33201612      3.19151981     -7.06165301
O      -0.46616373     -2.36691229     -2.22313161
H       0.05620837     -3.23059786     -2.29336603
H      -0.34953056     -2.00335731     -1.28612271
O      -4.37128901      3.84681577     -1.93741076
H      -4.68943949      4.45430502     -1.19343635
H      -4.69459412      2.90891878     -1.73845165
O      -2.52791282     -4.51400965      4.46630943
H      -2.75785784     -4.46018687      5.45017362
H      -2.15815427     -3.61690279      4.17953964
O       5.05130638      5.39121387     -3.97997127
H       4.53512524      6.26017292     -4.02715320
H       5.97929481      5.55549622     -4.34822542
O      -2.63850082     -1.21540306      4.76491937
H      -2.24346977     -1.07493158      5.68577743
H      -3.49038006     -1.75193068      4.86591449
O      -6.13237466     -3.75141382      0.29107094
H      -6.38118599     -3.37034931     -0.61261411
H      -5.12740699     -3.86548980      0.31913877
O       0.08428335      1.65818567      1.96131348
H      -0.43915390      2.30322840      1.38365143
H       0.20798325      0.79885717      1.44168486
O      -1.89161653      0.73613642     -3.33211531
H      -1.78914426     -0.12326717     -3.85622142
H      -2.35605598      1.41273615     -3.92395018
O      -3.48116038     -3.91125918     -0.61283704
H      -3.43284473     -3.56866359     -1.56365503
H      -2.53657687     -4.06921860     -0.28637884
O       3.63477693     -3.87865292      1.02081414
H       2.79076917     -4.19831259      1.47823216
H       4.39695465     -3.94615156      1.68285005
