109
charge=0
O      -1.17840170      0.36708235      3.01465496
O      -0.36114929     -1.80535365      3.42525939
O       0.76383824      3.48533268      0.64806458
O       2.07648987      3.20739852      2.61250968
O      -2.87432188      1.22398258     -0.25935172
O      -3.10834887     -0.80729961     -1.46521867
O       1.97285171     -1.65130308     -3.25823420
O      -0.11351704     -0.94377517     -3.68553742
O       1.81032647     -1.17272373     -0.96560177
O       1.34815206     -0.06156802      2.98259500
O       2.44519935      1.50255085      0.74798584
O      -1.15732723     -0.66762329     -0.10176658
C       0.63023567     -2.63952831     -5.12029730
C       1.55591010     -0.29845952     -5.21322135
C       1.24458783     -1.86866043     -2.04382772
C       1.03833912     -1.37659422     -4.33413272
C       1.43484113     -0.56323053      1.60241123
C      -0.15916466     -1.33595462     -2.31778438
C       1.13332749      0.07225871     -0.81298470
C      -0.02408624     -0.00648141      5.42439898
C       3.41007687      4.16483276      0.54139610
C      -3.70859723     -1.10586993      1.10012523
C       1.26277449      0.63821792      0.61899184
C      -0.32870887     -0.19726753     -1.27215743
S      -0.12108445     -0.38629770      3.64079705
S       2.08222625      3.13741315      1.16843461
S      -2.74541134     -0.25880574     -0.16127585
H      -0.07217049     -3.29310539     -4.54066846
H       1.52176134     -3.26531159     -5.27743211
H       0.22064209     -2.30186455     -6.06496181
H       1.78396693      0.63068147     -4.67580653
H       2.46555089     -0.57269812     -5.77953821
H       0.72898624     -0.04860878     -5.88574397
H       1.19046919     -2.88053024     -1.79052704
H       0.86218830     -1.41581295      1.36364458
H       2.45880607     -0.94621414      1.60963296
H      -0.91747637     -2.11476084     -2.15384596
H       1.55994652      0.81531996     -1.50056954
H      -0.95708426     -0.02871394      5.94242769
H       0.36170599      0.99057790      5.47712210
H       0.80765722     -0.60673472      5.87870342
H       3.11768286      4.66732820     -0.33496855
H       4.26048527      3.50026237      0.41524885
H       3.52831581      4.97566803      1.30867243
H      -3.19420335     -0.89105602      2.04981315
H      -4.75127935     -0.75053212      1.09579800
H      -3.64153613     -2.18613983      0.92821358
H       0.35235999      1.09817736      0.89929338
H      -0.72359202      0.65066694     -1.77988521
O       1.41337152      6.70250525      1.11837270
H       2.08004711      7.36649503      0.74632285
H       0.72402711      6.51316993      0.40232778
O      -1.84865346     -3.47858887      2.18398795
H      -1.19420647     -2.80048367      2.55227087
H      -1.42742865     -3.91575093      1.37453192
O      -4.24033156     -3.15009810     -2.43089898
H      -3.69383332     -3.25718274     -3.27566727
H      -3.95747518     -2.28988032     -1.97947970
O      -0.83600993     -4.08667792     -0.34420252
H      -1.72318686     -4.26057459     -0.79855677
H      -0.10832190     -4.52095128     -0.89704630
O      -3.59225380      1.58768530      3.18989025
H      -2.59901626      1.41903396      3.09610348
H      -3.72871384      2.57359388      3.37188954
O       2.19591742      4.58925335      5.10599264
H       3.16485267      4.45608699      5.36520356
H       2.05347296      4.17344685      4.19463385
O      -5.75740673      0.41658280     -1.09219193
H      -5.98789679      1.40164846     -1.10900515
H      -5.60730692      0.11172175     -2.04523435
O      -6.23512500      0.46418189      3.11522465
H      -5.30692208      0.83409543      2.95596344
H      -6.14194710     -0.47790168      3.47237571
O       0.83107704     -5.47935221     -1.79834123
H       0.49341558     -6.37267082     -2.13259815
H       1.72749037     -5.29910536     -2.23160263
O      -0.63276289      1.15317575      8.43915411
H      -1.19980091      1.98978655      8.48722071
H       0.23351908      1.33091922      8.93080915
O       2.54816998      3.48037840     -2.71666878
H       1.61172857      3.15531606     -2.91958205
H       2.67665509      4.37507247     -3.17139134
O       5.86538891      2.18569144      2.40257857
H       5.50302240      2.03570593      3.33529216
H       5.96778396      3.18226455      2.26072772
O      -2.48522996      1.96002722     -3.23019615
H      -3.15129870      1.91601155     -2.46981857
H      -2.51585365      1.07932442     -3.72737396
O       4.54702014     -1.01273058     -3.15240492
H       4.65124359     -0.01153469     -3.04991347
H       3.57136833     -1.24361396     -3.01617500
O       0.04603147      2.38751767     -3.71591433
H      -0.00931501      2.90600183     -4.58301874
H      -0.86832998      2.00047366     -3.52123009
O       5.12209138      0.86030124     -0.12828350
H       5.42443734      1.40944234      0.66593885
H       4.55513714      0.09566545      0.21472692
O      -1.62133571      3.34433900      1.78031203
H      -0.68154693      3.28545192      1.41005513
H      -2.22731930      2.78710128      1.19206784
O      -2.88262838     -3.95556326     -4.64366658
H      -3.25458751     -4.02970780     -5.58170184
H      -2.65450468     -4.88686657     -4.32056537
O      -4.02868384     -4.93400813      1.37383094
H      -4.80014432     -4.29195654      1.24585264
H      -3.29520579     -4.44948650      1.87484015
O       4.54063162     -2.51375198      1.16493464
H       5.49720869     -2.53507020      1.49397372
H       3.95699247     -2.95472853      1.86398145
