96
charge=0
N       2.26613998     -5.83685628     -3.41984865
C       2.23475223     -5.12682108     -2.48173340
O       2.49896032     -4.46777901     -0.12087226
O      -1.55654547      2.89976698     -1.03601691
C       2.08421702     -3.36125958      0.65384984
C       2.04614400     -4.20658578     -1.40445463
C       1.43214459     -2.96901099     -1.50645012
C       1.45851612     -2.45042917     -0.14491439
C       1.05675931     -0.58989343      1.58176775
C       0.27476071      0.59330104      1.83947440
C       0.23972034     -0.42954919     -0.70701713
C       0.96156118     -1.11515938      0.32019733
C      -0.47160863      1.27348419      0.89102864
C      -0.45903919      0.79081531     -0.47640917
N      -1.14337621      2.48133775      1.17308255
C      -2.62012605      4.30366875      0.75947398
C      -0.39180755      1.76847214     -2.77971731
C      -2.55212174      0.78014131     -1.90325973
C      -2.20375534      2.87109255      0.26804804
C      -1.28538123      1.53361788     -1.56046619
H       2.39347218     -3.13752771      1.69904582
H       1.00666523     -2.55187849     -2.45239736
H       1.62119390     -1.19076543      2.27281919
H       0.24550914      0.96617696      2.88396952
H       0.17028809     -0.87587293     -1.75645587
H      -1.26241681      2.69784335      2.18961822
H      -1.72334369      4.88416764      1.04383105
H      -3.27435136      4.22706827      1.67943828
H      -3.11566825      4.81353757     -0.08750557
H      -0.26064396      0.79627033     -3.36380106
H      -0.78769920      2.53410806     -3.54124653
H       0.59308763      2.07000483     -2.40356569
H      -3.30057263      1.56981469     -2.16971382
H      -3.00379739      0.31540155     -1.02784037
H      -2.24086268      0.04660368     -2.66904351
H      -3.07810544      2.23293645      0.16956210
O       4.25689560     -6.65723902      0.68332076
H       3.35267300     -6.20321366      0.68522573
H       4.49009419     -6.89915515      1.63770785
O      -1.76870693     -2.96531787     -0.59874888
H      -0.93681095     -2.40005122     -0.48836110
H      -1.96963309     -3.04064610     -1.58754223
O       4.82280469     -1.78497423      0.38149237
H       5.17019734     -2.04853169     -0.53153392
H       4.13473594     -1.05352038      0.25780558
O       2.90774822     -0.45834660     -3.15012687
H       3.23040003     -0.13825535     -2.24613767
H       2.60107856      0.34793734     -3.67891650
O      -5.14175304      0.82213638      0.92450614
H      -4.27751309      0.34779071      1.15220667
H      -5.45292706      1.32233491      1.74714446
O       4.73650434     -6.44144878     -4.90285126
H       3.95329935     -5.82459550     -4.73010168
H       5.24294145     -6.55849571     -4.03476099
O       1.17130992     -6.80531362      1.01816529
H       0.30547379     -6.35907521      0.74437971
H       1.56900395     -6.27798651      1.78466677
O       1.12923026      3.69033929      0.22835851
H       1.11578933      4.40279006      0.94668625
H       0.25916813      3.17625149      0.27803897
O      -3.00568559     -1.28327250      1.28051628
H      -2.63408653     -1.96219323      0.62879441
H      -2.35074517     -0.51451802      1.34240269
O      -0.06729483      4.75514506     -2.76817542
H       0.03348827      4.05978898     -2.04010722
H      -0.98506926      5.17207974     -2.68091318
O      -0.26419877      4.40480316     -5.61621270
H      -0.05231857      4.48310713     -4.62993824
H      -1.24256363      4.16457034     -5.71027880
O       1.53048506      0.62169551      5.38959391
H       2.14618670      0.47178744      6.17838980
H       1.11038918     -0.26558399      5.14461397
O      -2.68789292      2.42687934      3.57960090
H      -3.61265176      2.74842140      3.83492944
H      -2.53542523      1.52694574      4.01621817
O      -1.24692909      4.78119979      4.00835149
H      -1.79642907      5.18818857      4.75412009
H      -1.80069208      4.05834893      3.56722228
O       1.39852523      3.29145766      4.33572493
H       0.48392294      3.69996901      4.47848644
H       1.41635647      2.39019389      4.79525414
O      -1.79228301     -3.30415346     -3.22532161
H      -1.40578985     -2.66957391     -3.91212215
H      -1.47253035     -4.23873077     -3.44459882
O      -4.47341054      3.88695336     -2.80713538
H      -3.68066288      4.47651624     -2.58867017
H      -4.98040177      3.71002063     -1.94957250
O       3.46556176     -3.30976607      4.29918634
H       3.21274264     -2.39676814      4.65454207
H       4.46592438     -3.32317950      4.14800503
O       2.37516983     -5.40162658      2.99634554
H       2.84903879     -6.27107717      3.20434808
H       2.85640585     -4.65622764      3.48271247
O      -2.66852850      5.91977439     -2.53682011
H      -2.78565996      6.55876368     -1.76110621
H      -2.55756478      6.46611417     -3.38119023
