96
charge=0
O      -0.54850100      1.14027380     -2.21130257
O      -0.07619142      0.43403980      2.17981691
S       1.05734346      2.20655319     -0.38816212
S      -2.33428938     -0.89050764      1.97347522
C       2.39551783     -0.90596672      0.70733185
C       1.42733327     -2.85604830     -0.75371862
C       0.34352063      2.05384364     -2.91131240
C      -1.01828811      1.04868288      3.09868811
C       0.76797484      3.15124142     -1.93888652
C      -1.90665245     -0.10373473      3.53750824
C      -1.13253770      0.61797615     -0.10931968
C       0.93052859     -0.48244951     -1.31904299
C       0.01627684     -1.57211305      0.73271866
C       0.06028652      0.74478742     -0.96186752
C      -0.78447699     -0.24984239      1.12803093
C       1.22942209     -1.45941139     -0.16500592
H       3.23368539     -1.00151060      0.13025879
H       2.48881811     -1.42323843      1.64339300
H       2.13858824      0.13554692      0.94660639
H       2.27988245     -2.89197902     -1.40193574
H       1.58757680     -3.59984393      0.02729773
H       0.53516150     -3.22533953     -1.30410308
H       1.25297066      1.50631904     -3.14251529
H      -0.09531498      2.41204857     -3.86191124
H      -1.52455679      1.88060163      2.55943657
H      -0.48560618      1.51656861      3.90702581
H       1.72250506      3.67929197     -2.23446179
H      -0.03034115      3.81686908     -1.70906186
H      -2.85237410      0.25580763      4.00372979
H      -1.50349608     -0.83937225      4.25978177
H      -1.58502459      1.58920282      0.21144508
H      -1.87309730      0.15739321     -0.66775437
H       1.84345001     -0.13576269     -1.62852639
H       0.41764495     -1.02676746     -2.15976995
H      -0.78929305     -2.25013965      0.35107373
H       0.36302326     -1.96426626      1.68923492
O       4.22798852     -5.01164544      0.86965321
H       4.88974214     -5.40438759      1.52661443
H       3.32729326     -4.95257972      1.32683991
O       4.48929783      1.62731281      2.46755465
H       5.37825212      1.75978298      2.93228265
H       4.45549603      0.67901012      2.11635470
O      -0.57264564     -0.92291172     -5.13078722
H      -1.01227878     -0.20919919     -5.69744271
H      -0.72558639     -1.81809890     -5.57689291
O       2.14056955      0.38512588     -5.89452409
H       1.25605465     -0.04883170     -5.66414405
H       2.18057517      0.50549147     -6.89835324
O       2.52488610      3.91602975     -4.60097767
H       3.24564564      3.20804221     -4.54601536
H       1.92927711      3.69886279     -5.38955202
O      -3.48547802      1.91257833      6.54500203
H      -3.76562462      1.94819326      7.51660443
H      -2.53242374      1.57528990      6.50396185
O       2.19066615      1.99927925      3.65180349
H       3.03273299      1.93378085      3.09467302
H       1.61414981      1.19325632      3.44755867
O      -2.84216629      2.08423253     -3.47852579
H      -1.95968506      1.60950654     -3.33844403
H      -3.55146393      1.59351706     -2.94951309
O      -5.30980219      0.99315282      4.67496627
H      -5.83574148      1.84502947      4.82144008
H      -4.50087076      1.01380942      5.28239093
O      -0.92682241      1.14868047      6.90076805
H      -0.94891901      1.21477715      7.91017524
H      -0.40336129      1.93793409      6.54463767
O       1.13058919     -4.33244462      2.82642586
H       1.49055829     -3.58980770      3.41180912
H       0.25718091     -4.65236646      3.22463502
O      -3.89500853      1.91982150      0.95689772
H      -4.22071911      1.90123666     -0.00087499
H      -4.33779606      1.15863444      1.45518775
O      -3.05407517     -3.88108236      0.82921383
H      -2.56414280     -3.95469348      1.71143163
H      -4.04790518     -3.90301929      1.01784344
O      -1.90182800     -3.96240397     -1.70396678
H      -2.29214651     -3.11960563     -2.10534333
H      -2.30446558     -4.08931427     -0.78443523
O      -4.22187554     -1.48133155     -1.12051966
H      -3.66593582     -1.38528527     -1.96043965
H      -3.62535816     -1.84236044     -0.38731573
O       5.47134523     -0.97534832      1.79353949
H       5.21651377     -1.67270053      1.10613702
H       6.46206829     -0.79086899      1.70300603
O       0.57660579      5.64780459     -4.39448230
H       0.68225617      6.39221035     -5.07157767
H       1.31286024      4.97183411     -4.55181595
O      -2.46573913     -1.35260104     -3.01477305
H      -1.57142280     -1.09965917     -3.41474651
H      -3.19305525     -0.92543894     -3.57361660
O      -1.29473919      6.62531103     -2.31025810
H      -0.97618574      6.59682131     -1.35032413
H      -0.51262617      6.39353156     -2.90887235
O       3.46210709     -5.90213895     -1.65381063
H       4.31886768     -6.04168980     -2.17366205
H       3.70297074     -5.53684338     -0.74150200
