70
charge=0
Cl      1.42824166      3.25715170      1.77960992
Cl     -1.80411092      0.28550265     -1.44691582
C       0.88639136     -0.59738395      1.31097785
C       1.22574448      0.45339703      1.79192659
C      -0.02548218     -0.90799565      0.30168412
C       0.84342122      1.73728461      1.29425875
C      -0.03742099      1.65011397      0.21560311
C      -0.59167502      0.29906987     -0.22466778
H      -0.23640990     -1.95063166     -0.00859499
H      -0.34215687      2.62955189     -0.27366638
O      -1.83200476      3.63239265      2.67313582
H      -1.50659799      4.36365599      3.29210641
H      -1.65861009      2.74117218      3.11970353
O       2.91738854      4.48095525     -0.92435474
H       3.35319028      5.01202797     -0.18152117
H       3.07485920      3.49801283     -0.74328302
O       2.84910086     -2.94338447     -0.71216343
H       2.45218035     -2.32192741     -1.40498756
H       2.09660043     -3.48411543     -0.30582188
O      -1.03348489     -2.48654107     -3.33931912
H      -0.89292403     -3.33839407     -3.86690614
H      -1.59226650     -1.85681814     -3.90054216
O      -4.51684838      1.42225977     -3.01152226
H      -5.08315413      1.74949644     -3.78351668
H      -4.70465305      0.43699262     -2.87833193
O       2.51931891     -3.37444289      2.68382432
H       3.37717412     -3.72490641      2.27759708
H       1.74381369     -3.73999103      2.14649076
O       4.08422803      3.71035673      3.38134642
H       4.70738378      3.53365893      2.60403387
H       3.84368055      2.82155258      3.80078296
O      -1.44830705     -4.09304121      2.28432525
H      -2.40280870     -4.42383046      2.22716437
H      -1.43323176     -3.27552773      2.88031450
O       0.62591310     -4.76276850      0.89903707
H       0.39520143     -4.87649424     -0.07953286
H      -0.23837209     -4.70310677      1.42173643
O       1.54751528     -1.22107446      4.36109281
H       1.71558614     -1.71394346      3.49357129
H       0.87743517     -0.48476576      4.18052777
O       0.32396791      4.65030441     -1.36631122
H       1.30080221      4.46916582     -1.17462038
H       0.18119096      5.65193525     -1.35575771
O       1.54093612     -1.51674915     -2.53765457
H       1.65393111     -0.57079555     -2.87848459
H       0.55092931     -1.69842294     -2.43449445
O       4.30797908     -0.47429678      1.03922127
H       3.61608019     -1.19251963      0.86835736
H       5.01500447     -0.85749860      1.65325045
O      -3.08544753      3.50232341     -2.01000447
H      -3.65644084      2.67567629     -2.12992772
H      -3.58431444      4.28974864     -2.40352153
O       3.62687820      1.90364945     -0.16098976
H       3.86903632      1.15089657      0.47026512
H       2.93041943      1.55955313     -0.80929870
O      -2.59291514     -0.55625319     -4.48754312
H      -3.19633959     -0.22636533     -3.74537452
H      -3.14213503     -1.14159942     -5.10356874
O      -2.46474494     -3.08650959     -1.23781324
H      -3.01575891     -3.92283437     -1.38170595
H      -1.85805078     -2.96714298     -2.03870880
O      -0.64536331      3.12776905     -3.20349672
H      -1.50748720      2.83975123     -2.75903219
H      -0.15868067      3.75150794     -2.57274251
O      -1.77625177     -1.53394099      3.46589080
H      -2.58180373     -0.95062016      3.65185850
H      -1.48987410     -1.96267594      4.33648596
O      -3.48508463     -1.31475677      1.03105778
H      -2.74645928     -1.23856178      1.71836254
H      -3.11370006     -1.79419089      0.22113322
