100
charge=0
O      -0.93576011     -3.80681216     -1.76344027
O      -2.39523472      0.00388742      0.21309137
N       2.31326816     -3.53081086     -4.33451878
N       2.30485921     -1.21706782     -4.26704084
N       0.46426771     -1.32780482     -2.21132149
O      -0.52736042     -4.35369597     -3.92775281
O      -0.37188766     -1.23447237     -1.13826625
O      -1.03107034      0.73971625      1.85744998
S       3.40156548     -3.16281308     -5.51243891
C      -0.39924381     -3.55632888     -2.81562204
C      -1.26693303      0.24494885      0.64074514
C       1.70870771     -2.45602134     -3.93409542
C       3.23106518     -1.46140986     -5.11877827
C       0.59826610     -2.40518869     -2.96235424
N       3.98447741     -0.36266684     -5.43669256
C      -0.22850036      1.32775902     -1.22670233
C       1.28467079     -0.05305171      0.10113239
C      -1.09667056      1.60945532      4.06184902
C      -3.19713469      0.37691116      3.25904848
C      -2.59650329      2.57459387      2.14108708
C      -0.12735843      0.03981948     -0.43065784
C      -1.97882288      1.28070225      2.79238686
H      -0.85560554     -5.19470982     -3.54682684
H       3.61732241      0.45953987     -4.98350343
H       4.95941840     -0.55907009     -5.32726453
H      -1.10433512      1.20551104     -1.91884094
H       0.69721936      1.51824106     -1.71208731
H      -0.38087128      2.13170641     -0.53455591
H       2.01880213     -0.14556288     -0.71509123
H       1.59107209      0.88913439      0.50757884
H       1.40224446     -0.84343194      0.80694912
H      -1.52777427      2.06755747      4.93367656
H      -0.35925863      2.28108758      3.76719235
H      -0.55617332      0.73452113      4.43933370
H      -2.84739485     -0.59646843      3.47109791
H      -3.71641016      0.84492442      4.07754529
H      -3.97728798      0.26109337      2.45839477
H      -2.95429452      2.41041901      1.10801689
H      -3.46797581      2.86634544      2.76556253
H      -1.85435526      3.43066912      2.13530541
O       4.44847819     -0.20630240     -2.40848110
H       4.63993763     -1.03779131     -1.86466931
H       3.84211761     -0.46452878     -3.17620986
O      -1.70276392      4.54259274      5.02560592
H      -1.52506827      5.37886225      4.48446013
H      -2.70160435      4.38158868      5.03808018
O      -5.19522760      0.82825775     -0.04546165
H      -4.20140617      0.64583183     -0.09838819
H      -5.55800541      0.87362882     -0.98891018
O       0.98487137      4.37416408      4.95143060
H      -0.01270175      4.20708035      4.97774825
H       1.44356726      3.62252826      5.44982893
O       1.15076182      3.24768170      2.27271800
H       0.72572946      3.67367129      3.08613286
H       1.03667973      3.87911897      1.49039264
O       2.89815887     -0.80398738     -8.05309975
H       3.24341049     -0.53381563     -7.14119643
H       1.90334312     -0.97196159     -7.97637891
O      -3.44298239     -2.40582809      0.69352031
H      -3.20514192     -1.43443463      0.53993700
H      -2.59169209     -2.95041922      0.64364550
O       0.70849176     -0.18289089      6.92900141
H      -0.23206948     -0.03618836      7.27190458
H       1.08535766     -1.00420947      7.38416176
O       6.54573531     -0.26799082     -6.61281558
H       7.25730873     -0.89966948     -6.26871080
H       6.06183038     -0.72380304     -7.37559511
O      -0.35032985     -3.37524530      0.81870909
H      -0.63016413     -3.50016219     -0.14557838
H       0.64748762     -3.20870029      0.83826060
O       3.24402088      2.47776272     -6.02125146
H       3.85585528      2.73537158     -5.25767053
H       3.81595009      2.12832315     -6.77924376
O      -1.21463055     -6.70106292     -2.73020863
H      -0.90462684     -6.69812276     -1.76706186
H      -1.97613353     -7.36198990     -2.81417366
O      -4.45682177      4.00238864      5.30758823
H      -5.14671185      3.87894259      4.57781062
H      -4.87507563      3.72645497      6.18661379
O      -5.94759341     -1.21544419      1.42106889
H      -5.24429798     -1.92560783      1.26357438
H      -5.73705772     -0.42565821      0.82468505
O       2.23144770      0.69656967      3.09878576
H       2.94049730      1.20911711      2.59055130
H       1.34618994      1.16853478      2.96714046
O       6.30121310     -2.38241300     -4.22685429
H       5.98021027     -3.18318959     -3.69819739
H       7.19763236     -2.61325481     -4.63539718
O      -2.65213479     -3.10657372      3.42508554
H      -2.97828190     -2.96117888      2.47838017
H      -1.64111016     -3.06703668      3.41968287
O      -5.68159074      3.47533329      0.96674439
H      -5.44416864      2.54473550      0.64833880
H      -4.97894279      4.11574598      0.62045335
O       4.83494031      2.15207813     -3.59923404
H       5.44396980      2.87711141     -3.24262322
H       4.85712529      1.37505652     -2.95154209
O      -1.09211913     -2.05805354      5.38386094
H      -1.96417567     -2.05220639      4.87078903
H      -1.21030332     -1.48991939      6.21272554
