64
charge=-3
O      -1.17294011      0.25016904     -0.15983939
O       1.08254543     -0.71665878      0.51153300
O       1.02689860      1.34702919     -0.74546928
P       0.27955889      0.29440045     -0.14974235
O      -1.78230394      2.44674186      1.29719135
H      -1.53365245      1.56067487      0.87669250
H      -1.11781719      3.14214210      0.98312372
O      -0.39833545      3.79880543     -0.73005915
H      -1.32554053      3.40674281     -0.83173632
H       0.23652911      3.04845096     -0.48990247
O       1.22975113     -2.53608457      2.21636635
H       2.04961885     -3.10057151      2.03489179
H       1.25109192     -1.73966523      1.59265043
O       4.38186271     -0.11461615      2.42234469
H       4.59547281     -1.03899001      2.07068676
H       4.04563067     -0.20862578      3.37201344
O       1.05705378      1.72944544      2.26900217
H       0.29174924      1.80061815      2.92703264
H       0.72665570      1.22855899      1.45431758
O       1.11337780     -1.07735636      4.51735960
H       1.08858940     -1.56373022      3.63046156
H       2.05747242     -0.74657556      4.66911874
O      -1.43193957     -0.64327716     -2.76731244
H      -0.50535795     -0.82413194     -3.13131809
H      -1.33739404     -0.30681610     -1.81777832
O      -3.91012772      0.18656135     -3.18283784
H      -2.99147706     -0.21247863     -3.03927064
H      -3.87091745      0.78194971     -3.99998897
O       4.55402234      1.86631917     -0.60184359
H       5.45009842      2.25310075     -0.33499240
H       4.20935385      2.38883736     -1.39678956
O       1.77398079     -0.55243970     -2.63841376
H       1.37408365     -0.18555760     -1.78445809
H       2.78107989     -0.48279760     -2.57013795
O      -0.64142644     -2.44270683     -0.63474893
H      -0.06366014     -1.68642281     -0.29126523
H      -1.07645566     -2.14047543     -1.49682040
O       3.11120627     -2.00388544     -0.45769451
H       2.25636718     -1.46989702     -0.36899566
H       2.88081033     -2.90295821     -0.86061716
O       2.50494360      2.41504197     -2.60083557
H       1.87544461      2.84652935     -3.26514581
H       1.96330904      2.12160811     -1.79815766
O       0.02287149      1.90231323     -3.65841256
H      -0.95169421      1.89852233     -3.93038312
H       0.06975889      1.80319066     -2.65256047
O      -2.37855536      2.09457863     -1.69469234
H      -2.05834737      1.46795029     -0.96766823
H      -3.15769555      1.65589324     -2.16825005
O      -1.50584579      0.27602196      3.92735464
H      -2.13340637      1.06965533      3.93592709
H      -0.80322143      0.42211412      4.64061388
O      -3.39768513     -1.09308594      0.35423875
H      -2.62075057     -0.62442063     -0.09351611
H      -3.05746903     -1.96039676      0.74893827
O      -2.18280199     -2.89111125      2.04599967
H      -2.79861793     -3.19468960      2.78921834
H      -1.74820060     -3.71078242      1.64224149
O      -5.03056878      0.96375104      1.15236640
H      -4.27164639      0.29938459      1.07225182
H      -4.70135054      1.86013453      0.81789374
O       1.71084634     -4.30121508     -1.21036047
H       1.66676872     -4.74603136     -0.30263901
H       1.23828056     -3.40876802     -1.14727372
