68
charge=0
Cl     -2.65324000     -2.30385468     -1.31801954
Cl      1.01740836      1.04188797      2.44408001
N      -1.97864650      0.04442453     -0.43627619
N       0.95913168     -0.78474402      0.59911848
S       0.26918886     -1.40700810     -0.81159353
S      -0.83503839      1.19636769      0.05875111
C      -1.47673722     -1.06602302     -0.86506961
C       0.42167185      0.31217931      0.96974492
O       1.85815096      3.04821604     -1.84809681
H       2.40451218      2.34215379     -1.37193909
H       1.67294971      3.79764067     -1.19401457
O       2.87661179     -1.68946379      2.04036700
H       2.45919466     -2.09812401      2.86651374
H       2.15696326     -1.18243218      1.54157995
O       4.13047885      0.69269777      3.79349462
H       3.38716139      0.39551496      4.41230295
H       3.90020126      1.61387200      3.44396219
O      -1.54011605     -5.21301141     -2.19941019
H      -1.04642148     -4.52943366     -2.75864839
H      -2.48679996     -4.88336422     -2.06199520
O      -0.50836801      3.16405178     -2.88051233
H       0.38267372      3.02661774     -2.42125260
H      -1.23809572      2.85442581     -2.25171091
O       3.57773768      3.25269931      3.12249179
H       4.41280005      3.73419978      3.43004460
H       3.04783577      3.88417822      2.53580675
O      -0.48960207     -3.16197383     -3.96244863
H       0.42236566     -2.86346255     -3.64156843
H      -1.11717337     -2.37008208     -3.90929806
O      -3.44521880      1.76945913     -3.07524199
H      -3.73895168      0.85554360     -3.39499351
H      -3.60891448      2.43226056     -3.82200705
O      -0.61580534     -2.39269854      3.10162525
H      -0.51301479     -2.82663227      2.19338654
H      -1.60280702     -2.25073086      3.27318887
O      -0.16186714      4.15627469      2.32703208
H       0.46194551      3.91865602      3.08739881
H       0.32101630      4.79861368      1.71222685
O       2.30415571     -2.81645297     -3.62141725
H       2.55131226     -2.41813883     -2.72474641
H       2.75906323     -3.71658200     -3.70258442
O       3.29066156     -1.81026452     -1.28327124
H       3.95743607     -1.05665680     -1.38933292
H       3.03780308     -1.87207220     -0.30551789
O      -0.59210537     -4.18054341      0.73675508
H       0.38889407     -4.42020950      0.79968090
H      -1.04238506     -4.85265246      0.12907266
O      -2.06472631     -1.15085594     -4.09723496
H      -1.63664579     -0.26983738     -4.35083857
H      -3.04099078     -0.97985262     -3.89369590
O      -4.95379192      0.13666391      1.16647841
H      -4.89692652      0.74537629      1.97270271
H      -4.05627602      0.14751433      0.69945691
O       4.15804505      1.07177971     -1.14203684
H       4.63724828      0.85284466     -0.27821302
H       4.85552298      1.24024988     -1.85541152
O       0.61589240      2.50792969      5.66501005
H      -0.29206752      2.15671068      5.94071991
H       0.77648402      3.38134390      6.14989958
O      -4.78116749     -0.72538257     -3.44513049
H      -5.28253880     -0.68077082     -2.56740797
H      -5.06303423     -1.56951416     -3.92653935
O      -4.13216947      2.79015777     -0.76114177
H      -3.45219248      3.51307853     -0.56422231
H      -3.85727641      2.32326023     -1.61566014
O       1.93063137     -0.01677990      5.29568425
H       1.34716860     -0.43692707      4.58377826
H       1.45072337      0.79775328      5.65621832
