104
charge=0
O       0.73068733     -3.10585786      0.10005712
F      -2.56640193      3.31990701      5.59206812
F      -1.63570522      1.43201704      5.23443081
F      -0.47803520      3.45523585      5.25833971
N       2.99645304     -0.81948576     -1.49752075
N       3.68665449     -1.08583331     -2.59367567
N       0.00976085      3.36514700      2.08831185
O       2.37691041     -2.82152155     -2.14823714
O       1.03079675      2.67349716      1.36568417
O      -3.19513319      1.90739746      3.12250491
C       1.32011174     -2.01746162     -0.07521093
C       2.15084423     -1.84033510     -1.23449445
C       3.33596336     -2.30701438     -2.91325207
C      -0.81620451      2.47746825      2.53429756
C       0.72283263      1.34807586      1.43730275
C      -0.41758953      1.10538722      2.13224287
N       0.91488834     -0.96589744      0.81755637
C       1.45959736      0.39229988      0.58250423
C       4.01509403     -4.58111465     -3.91028391
C       2.85620929     -4.03135881     -4.70088221
C       3.79638532     -3.08098354     -4.07358268
C      -1.97514464     -0.61237332      1.10233906
C       0.19760846     -1.23873349      2.10049024
C      -2.42191422      4.27704931      3.02919732
C      -1.64406534      2.73494716      4.84885790
C      -0.99802490     -0.29647111      2.23933583
C      -2.00159957      2.80744423      3.36974977
H      -3.43967130      1.81640387      2.18583704
H       2.50409475      0.39520859      0.88128209
H       1.38851284      0.77094074     -0.48458335
H       4.85331660     -5.03240827     -4.48717926
H       3.81399629     -5.04882899     -2.96639785
H       2.79438608     -4.15406326     -5.74861853
H       1.88542242     -4.18985722     -4.24646725
H       4.49604366     -2.58838832     -4.84210703
H      -1.36225221     -0.88279362      0.22624373
H      -2.61619801     -1.44747259      1.37322535
H      -2.70962420      0.20989656      0.80332753
H      -0.24586915     -2.23156553      2.11765887
H       0.90780376     -1.17579574      2.95756221
H      -1.71906465      4.96122106      3.50422725
H      -3.37296523      4.56152566      3.53671188
H      -2.42364092      4.43925144      1.91516270
H      -1.51197189     -0.40799139      3.20115912
O      -2.85176624      6.15705822     -0.37721633
H      -3.58292460      5.95272180      0.29167414
H      -3.28746654      6.36876927     -1.26553171
O      -0.92382547     -1.74968834     -2.66751388
H      -0.12745976     -1.31905132     -3.11930409
H      -1.45513652     -1.02299983     -2.20556960
O      -0.09381890     -6.33103564     -5.38476328
H      -0.80840942     -6.79713960     -5.92870086
H      -0.51758167     -5.53731878     -4.92194517
O       2.74874086     -5.79086990     -0.62638755
H       2.14685916     -5.00380752     -0.83141208
H       3.70428438     -5.51294559     -0.80929517
O       4.68436208     -1.94915224     -7.83058135
H       4.54678497     -0.95582361     -7.96523293
H       5.67971441     -2.12773497     -7.79677853
O       2.14521749     -5.35302857     -7.68413630
H       1.65109037     -6.00541565     -8.27910740
H       1.68904302     -5.34232366     -6.78105802
O      -0.90892909     -3.99636979      3.66273878
H      -0.28455852     -4.72784281      3.34830161
H      -0.40520309     -3.41177203      4.31716091
O      -2.63641480      0.33658742     -2.02945707
H      -2.61792067      0.51874637     -3.02456376
H      -2.24551542      1.14003888     -1.55466673
O       4.38437542      1.69885152     -2.18976609
H       4.19397098      1.85627222     -1.20858065
H       3.99165977      0.80259558     -2.44717587
O       2.40245922     -1.05717894     -6.05794397
H       2.22565291     -0.54537890     -6.91267254
H       3.32468869     -1.46847362     -6.12191199
O      -3.66609680     -1.19647379      4.36797742
H      -2.93341032     -1.65047405      4.89789598
H      -3.49615921     -0.19919275      4.38566686
O      -4.76859685      6.21530992      5.54017416
H      -5.47660684      5.72567202      5.00844588
H      -4.58696218      7.09977826      5.08357249
O       4.47853539      2.25593923      0.52712440
H       5.33469316      2.01894394      1.01146816
H       4.30625565      3.24448088      0.65698500
O       0.90206738     -2.64884994      5.29883738
H       1.68236015     -3.20856076      4.98004548
H       1.25532857     -1.95417641      5.94412436
O       5.34843664     -5.02607577     -0.80292702
H       6.16318331     -4.50767008     -1.10492583
H       5.60369706     -5.56692835      0.01321077
O      -2.84019810      5.87520813      7.32698549
H      -2.33866329      6.75324757      7.36264092
H      -3.40751747      5.87010851      6.48920047
O       0.96526143     -0.11505126     -3.68422606
H       1.06189968      0.88256835     -3.82270550
H       1.44376269     -0.58611036     -4.44112777
O      -4.42750087      2.59787194      0.55870534
H      -4.64567767      3.56674411      0.75221775
H      -4.32515981      2.49172194     -0.44230340
O      -6.27206681      4.67051262      3.26894516
H      -6.45208202      3.75976675      3.67131098
H      -7.01747736      5.29322150      3.55241875
O      -4.90165117      5.47023649      1.16239064
H      -5.03656266      6.47301190      1.16327405
H      -5.41853783      5.08201006      1.94076412
