96
charge=0
F       0.76329706     -0.96435960      3.58760939
F      -0.28511999      0.28939486      5.23807145
F      -0.90089082     -1.69646611      4.65280401
F       4.28718546      1.20375633     -3.32360619
F       2.99737909      1.58866637     -5.23913225
F       4.33171488     -0.19200563     -5.02156358
F      -5.78746646      1.78106776      2.00646628
F      -5.96341610     -0.45173167      1.82972431
F      -5.43433175      0.31150817      3.75741123
N      -1.06633655      0.49624920     -0.33897636
N      -0.89249368      0.06571054      1.80182934
O      -1.17001294      0.47533033     -2.70840392
C      -1.74541057      0.57404513     -1.45973438
C      -1.43657919     -0.13701916      3.02182319
C       1.64029828     -2.04144117     -2.29026613
C       0.38012741     -1.47221027     -2.18022468
C       2.64060249     -1.40688951     -2.99436197
C       1.02111101      0.43532609     -3.51424077
C      -3.11009753      0.79513068     -1.44104243
C      -2.83578508      0.06862878      3.23324785
C       0.02121926     -0.22113322     -2.81309545
C       2.39457588     -0.11291265     -3.59173652
C      -3.86049389      0.91812133     -0.25019048
C      -3.75412941      0.52030802      2.21121425
C      -1.69316877      0.52590129      0.81751341
C      -3.14930856      0.74039698      0.91534853
C      -0.42590379     -0.52450179      4.16095115
C       3.50955724      0.68063255     -4.30149517
C      -5.23563847      0.58849571      2.42908825
H       1.83686731     -2.96527245     -1.71285743
H      -0.38057325     -2.09183919     -1.60033997
H       3.67129559     -1.84915295     -3.07379487
H       0.85674760      1.36513232     -4.03291443
H      -3.67275583      0.83500862     -2.39367001
H      -3.11915622     -0.09116173      4.29834961
H      -4.92753633      1.08714101     -0.31762121
O       2.80292018     -2.17928273     -6.29169314
H       3.10689090     -1.73289884     -5.43606123
H       2.08483573     -1.60230753     -6.71028109
O       0.85139868     -2.72988918      1.28412475
H       1.72210449     -3.17639229      1.02670191
H       1.03970524     -1.75214163      1.46388170
O      -5.46517119     -2.50752444      4.82109388
H      -5.21503814     -2.84081808      3.89907939
H      -6.44162894     -2.72048227      4.97902253
O      -7.89943904     -3.00620791      1.93449608
H      -8.07470790     -2.22559916      2.55392414
H      -7.48245794     -3.75157708      2.47700093
O       4.49685919      0.62298177     -0.09214878
H       5.14916401      1.39414778     -0.03246426
H       3.67633919      0.94212290     -0.59080599
O       0.26119232      3.69490497     -5.47973020
H       1.02487087      4.11153659     -4.96303279
H       0.42409896      3.85363325     -6.46564584
O       2.18954782     -1.23899932      6.30125146
H       3.06487420     -1.74443114      6.25537711
H       1.44005531     -1.88765404      6.09809999
O      -1.06554511      0.74479101      8.01436033
H      -0.06464958      0.89292882      8.00937376
H      -1.23646970     -0.25227427      8.03453422
O      -1.84667467      3.33250037      2.35126850
H      -1.30802633      4.11491253      2.69976612
H      -2.76177629      3.67308134      2.08602308
O       6.99327676      2.53347395     -2.82903194
H       6.63738963      1.59200660     -2.72536993
H       7.87026045      2.48535638     -3.33137270
O       3.54125258     -3.52017636      0.62108039
H       4.17968498     -2.90500512      1.10865466
H       4.08263204     -4.25714491      0.18801211
O      -6.57693003      3.87442334     -0.33982038
H      -7.42310961      3.73974905     -0.87797043
H      -5.86163270      4.22983988     -0.96093887
O       6.37941816     -2.36292344     -5.34166458
H       6.83776697     -2.02003830     -4.50733397
H       6.29780057     -1.59449686     -5.99482631
O       1.92321056      1.45946741     -0.54383873
H       1.63481348      1.54852385      0.42190311
H       1.20636455      0.94672675     -1.04081865
O       7.08472367      0.81657884     -5.72543937
H       6.99109763      0.47821044     -6.67438746
H       7.56977771      1.70409434     -5.75372421
O       7.01153849     -0.41399000     -3.25475077
H       8.01876503     -0.39145706     -3.16121809
H       6.77049139     -0.03223658     -4.16024563
O      -8.66033012     -0.79802750      3.63375777
H      -9.14822592     -0.94389200      4.50808138
H      -7.87919601     -0.17902850      3.80820150
O       2.96846747      1.09037401      4.71345286
H       2.38520606      0.39043783      5.15351622
H       3.36451289      0.68802352      3.87379503
O      -1.07470511      0.79397796     -6.12240757
H      -0.53101778      1.62858001     -5.94463458
H      -2.04497217      1.00182292     -5.92455859
O      -4.48634505     -0.82448956      6.67981006
H      -5.37711713     -0.64110036      7.12326880
H      -4.66345037     -1.27473827      5.79117623
