96
charge=0
O      -4.11138393      0.21213888      3.29322196
O       2.07909810     -1.57080522      0.69051624
O       0.31748174     -1.29997784     -1.06270310
N      -3.86101117     -4.28235634     -1.52907731
N      -3.71795039     -4.27717648     -0.11397481
N       0.62503575      0.53902861      0.81474420
S      -3.36354596     -2.51343833      1.95598235
S       3.47882732     -0.37117599     -2.37122892
C      -3.07914000      0.27051208      2.66522649
C      -3.69196758     -3.05757501     -1.94168563
C      -3.47929338     -3.02753546      0.26188968
C       4.00512316      1.27853157     -2.79726746
C       3.33465326      2.25704066     -2.15694131
C       2.44579536      1.75118555     -1.10259593
C      -2.54617202     -0.95930635      1.98917982
C      -1.40827417     -0.71542141      1.23991365
C       2.44336364      0.37691233     -1.16888048
C      -0.60355182      0.52769183      1.20406026
C      -1.98242062      3.80002849      3.52109055
C      -0.83586453      3.93371692      2.80466909
C      -2.70271461      2.66370166      3.44938151
C      -0.31655309      2.85753352      2.07536813
C      -2.31176729      1.58721319      2.67718902
C      -1.08488441      1.68588875      2.00192798
N      -3.33715184     -2.29179728     -0.84021926
S       1.35206699     -0.67747651     -0.15316725
H      -3.70892627     -2.67964345     -2.94777150
H       4.78756308      1.47587766     -3.57223862
H       3.39700080      3.33686696     -2.43252854
H       1.82083481      2.34475255     -0.38307366
H      -1.16973512     -1.60959952      0.70877431
H      -2.35751496      4.56366190      4.16702855
H      -0.27668237      4.88052246      2.90104024
H      -3.62076396      2.69914260      4.02251232
H       0.57738423      2.90524105      1.54595487
H      -3.12092355     -1.29229486     -0.81854223
O      -3.13074706      1.81720136      6.60623175
H      -2.65195715      1.34333493      5.85126642
H      -4.11364053      1.58320301      6.55214402
O       4.59001185      0.04613399      1.29432323
H       4.84867420     -0.36055684      0.40468335
H       3.58606083     -0.02908587      1.39524807
O       4.46633214      4.75168913     -4.97075161
H       4.63823187      5.71653611     -5.22230982
H       5.30954229      4.37987888     -4.55299939
O      -0.74040291     -2.63013603     -3.48664631
H      -0.22640466     -2.08423014     -4.16602351
H      -0.18073200     -2.69534704     -2.64624234
O       7.55692597      1.61876912     -2.89423461
H       7.28935077      1.57782911     -1.91930409
H       7.43858660      0.69621085     -3.29253486
O       2.43568899     -1.25198480      3.54069821
H       2.62348635     -2.17679979      3.90567887
H       1.98604813     -1.35393373      2.64003625
O       6.13386594     -1.47646660     -0.86763853
H       6.54538608     -2.39303111     -0.74796200
H       6.05148530     -1.29507177     -1.85964223
O      -6.06418211     -6.20030630     -1.69026847
H      -6.07129079     -5.66713771     -2.55017626
H      -5.52134519     -5.68864795     -1.00667948
O       1.46586300      5.49299476      0.17758846
H       1.46222224      6.48818963     -0.00498891
H       0.75375672      5.06414046     -0.39925813
O      -2.05671063     -4.24151752     -5.16145103
H      -2.16551175     -3.69222874     -6.00418680
H      -1.64562222     -3.65021229     -4.45072747
O      -6.71663934     -0.88184592      2.56091700
H      -5.77100234     -0.56528091      2.73214452
H      -7.13823760     -0.26213765      1.88122868
O      -0.57174684     -4.22968722      2.59595271
H      -0.25883554     -3.86640173      3.48694659
H      -1.38844370     -4.80425934      2.75914902
O       2.63636710     -4.22710057      0.15268444
H       2.33297221     -3.34962837      0.55487274
H       1.97513934     -4.48932155     -0.56688485
O       6.79018131     -1.24687307     -3.50204584
H       6.15794996     -1.21913189     -4.29152304
H       7.22112744     -2.16193419     -3.47539713
O      -1.48370018     -5.72430338     -1.72836773
H      -1.16366744     -5.92370268     -2.66729233
H      -2.35053043     -5.20657898     -1.79415279
O      -3.55638363      0.61067816     -1.02997301
H      -4.45251549      0.29628275     -1.37906190
H      -2.85696022      0.41291711     -1.73386035
O      -2.07725519      0.07435798     -3.19599970
H      -2.27134229      0.29523015     -4.16414617
H      -1.13377096     -0.28653859     -3.13810404
O       2.28450415      3.36490274      4.03051602
H       1.68055649      3.79573103      4.71855248
H       2.71441218      4.10001136      3.48411442
O       4.05617812      5.49420342     -0.91684580
H       3.06465744      5.31625481     -0.82207140
H       4.17490103      6.43069744     -1.28105161
O      -6.70523547      3.43689792      4.67343664
H      -6.40335078      2.54573094      5.04552446
H      -7.37837075      3.26005452      3.93901462
