100
charge=0
C       2.49595278     -1.43753704      1.99990743
C      -0.93078729     -0.67954834     -1.06104251
C       1.77776449     -0.55125355      1.29710669
C      -0.15488386     -0.13103485     -0.12368083
C       0.17441391     -3.98797371     -2.43512149
C       1.25150083     -4.20867659     -1.61133884
C      -0.59544857     -2.85478235     -2.30960052
C       1.62590139     -3.28002983     -0.59227765
C      -0.28240919     -1.98870051     -1.34142516
C       0.75217959     -2.16064629     -0.45623657
N       0.81874366     -1.01637481      0.35088060
N      -1.35227554      2.00278754     -0.40394068
C      -2.13094412      0.02913475     -1.61486328
C      -2.58776657      1.16106148     -0.67058743
C      -1.60281837      3.33886139      0.18569468
C      -0.24867295      4.05353646      0.59450984
C       1.66240087      0.87779159      1.84601773
C       0.60015556      3.16681379      1.52628778
C       0.94060059      1.81709160      0.86650607
C      -0.40546536      1.21730324      0.50476787
H       3.14363363     -1.10406513      2.77809381
H       2.47697216     -2.50479396      1.85758107
H      -0.02443790     -4.67579543     -3.29418107
H       1.95762036     -5.02881507     -1.78478057
H      -1.50815008     -2.70785157     -2.85266151
H       2.59469862     -3.23590515     -0.12175560
H      -1.84504032      0.46187041     -2.60209142
H      -2.94201355     -0.74041723     -1.82239888
H      -2.93203107      0.68445322      0.22178411
H      -3.38529566      1.74627770     -1.05816479
H      -2.12008579      3.92443642     -0.61328884
H      -2.25501999      3.35983971      1.10584142
H       0.38747905      4.10682178     -0.30806779
H      -0.41423318      5.02508865      1.09719276
H       1.17585769      0.94483016      2.80627947
H       2.63430934      1.27767201      2.03820704
H       0.04778623      2.95974967      2.48143439
H       1.56376719      3.66620177      1.71977042
H       1.50380493      1.97401521     -0.06461143
H      -0.90066789      1.04302763      1.41636720
O       2.87960293     -7.80812941     -1.83488121
H       2.83155197     -7.88344123     -2.84274034
H       1.97115175     -8.04487426     -1.45748308
O      -1.00225447      3.14254860     -3.00156224
H      -0.97744343      2.67706033     -2.10352831
H      -0.33777356      3.90527236     -2.97965635
O      -4.23083533      4.89583695     -2.65732524
H      -4.48198325      3.99574148     -3.04528698
H      -3.54368683      5.32088862     -3.26635599
O       5.37313433      1.39499662      0.42027712
H       5.68097808      0.95511671      1.27788901
H       4.65689985      0.81219433      0.00662089
O      -3.34229108     -5.22382482     -2.22673415
H      -4.25347651     -4.85077612     -1.99363460
H      -3.14575775     -4.99508140     -3.19255588
O      -1.33051032     -6.60206071     -5.49536919
H      -1.04639884     -7.55554875     -5.67948782
H      -0.55280085     -5.99338752     -5.71547733
O       2.27400767      5.88257418     -1.36599303
H       3.00700175      5.21313405     -1.56177163
H       2.60004981      6.50232775     -0.63567637
O      -1.38658882      0.97856996      4.20302488
H      -1.67448754      0.05550862      4.50107212
H      -0.63487528      1.28464935      4.80717882
O      -5.85118013      2.18833562      0.96756453
H      -5.63020952      2.92125223      0.30592559
H      -5.53013541      2.48130318      1.88127157
O      -1.57196758      1.82037821     -5.38574182
H      -1.66981209      2.24192853     -4.47114713
H      -2.02356097      2.42377163     -6.06082661
O       3.55071047     -0.24124502     -0.87326760
H       4.23311211     -0.89443202     -0.51072595
H       2.72833936     -0.76370299     -1.14622112
O       0.57430030      1.56211846      5.91662882
H       0.75414891      0.86783289      6.63033949
H       1.45492191      1.99388504      5.66794265
O       0.62515018     -4.71347103     -5.94986440
H       1.54535886     -5.10509484     -5.79620823
H       0.69491740     -3.70670070     -5.87701532
O      -1.68087834      3.54522807      4.60712194
H      -2.04552642      3.64644044      5.54549684
H      -1.58351780      2.55725492      4.41169483
O       5.98189433      0.31131744      2.91276684
H       6.49085273      0.65122125      3.71848811
H       5.39052703     -0.45284925      3.21292382
O      -3.42081887      4.92408494      3.24310997
H      -4.11733012      4.20150635      3.37162359
H      -2.50837202      4.48685526      3.24868321
O      -5.65507879     -0.49154221      0.40371535
H      -5.91427407     -0.52895248     -0.57361718
H      -5.65872044      0.47777056      0.69385528
O      -3.52837435     -1.80288067      1.88237666
H      -4.17766204     -1.17620225      1.42470826
H      -3.50842099     -2.67070284      1.36252398
O       5.27837634     -2.37693060     -0.35289524
H       5.30914310     -2.55696776     -1.34808356
H       5.20876518     -3.26544987      0.12611508
O       5.11675810     -2.05961938      4.26993104
H       6.08137597     -2.09423773      4.57336909
H       4.75701433     -3.00519707      4.25477501
