69
charge=0
N      -0.58928311      0.57072041      0.90006709
N      -0.72310206     -0.50140139      1.54029482
N       1.27033825     -0.52270529      0.17298340
S       0.90989230      1.89444302     -0.90125260
C       0.59197542      0.55145857      0.14838696
C       0.46241043     -1.33377006      1.15334860
H      -0.34184811      1.88346862     -1.27657171
H       0.99945063     -1.68807319      2.04707977
H       0.09514331     -2.20701924      0.62534448
O      -3.20843560      2.40508674      1.55604711
H      -2.92483206      2.71318308      2.47713668
H      -3.48907349      1.43512602      1.62069907
O      -3.51467478     -2.05152686     -0.24874210
H      -4.38690984     -2.11965607     -0.75699565
H      -2.89120537     -1.45038487     -0.77188131
O      -0.36878348     -3.70342595      3.20653201
H       0.37976144     -4.08836122      2.64504554
H      -1.22578851     -3.76159766      2.67181865
O       3.25885872     -3.76978632     -0.46391366
H       2.66543265     -4.26018045      0.19268273
H       3.16657408     -4.21686576     -1.36688880
O      -4.17968625     -0.41544913      1.88125013
H      -4.71484775     -1.14124767      2.34013791
H      -3.96247739     -0.72881339      0.94402788
O       1.58134220      4.16121584      1.73467160
H       2.36468673      3.92105316      1.14099256
H       0.88165876      4.61775064      1.16390110
O      -2.12452279     -0.90971346     -2.39138944
H      -1.39468071     -1.48143525     -2.79664092
H      -3.00642366     -1.18558405     -2.80358785
O       1.30869148     -4.90878710      1.44646755
H       0.90588806     -5.74821329      1.05039475
H       1.97484374     -5.18367991      2.15670462
O       2.81434171      0.28823972      2.90905353
H       2.23099098      0.72497726      3.61099596
H       2.95393823     -0.67867994      3.17238325
O      -0.71432471      5.04003978     -2.25153378
H      -1.26646395      5.55132720     -2.92791227
H      -1.20095129      4.18035265     -2.03268994
O       1.02648730      0.60780404     -4.30428848
H       1.00406167      0.35477161     -5.28369296
H       1.28578181     -0.21304964     -3.77256752
O      -2.28069647      2.71002162     -1.13821023
H      -2.66966702      2.66343343     -0.20531534
H      -2.88859475      2.19196188     -1.75936512
O       3.14786194     -2.28895124      3.89195557
H       2.99288633     -2.14172245      4.88092770
H       3.02053680     -3.27343086      3.69612676
O       2.21383926      4.77743753     -2.37999542
H       2.41938232      5.19290313     -3.27938487
H       1.22978443      4.91310449     -2.18766316
O       3.11970832      2.12734814     -3.27537886
H       2.46525162      1.57148475     -3.81060041
H       2.60442852      2.87014353     -2.82095431
O       3.88962378      2.54642485      1.07033612
H       3.49384406      1.66649217      1.37503027
H       4.54734918      2.35512009      0.32564879
O      -1.26835227      1.88741912     -4.74940402
H      -1.69082044      0.97167728     -4.66755025
H      -0.32964108      1.83601494     -4.37532278
O      -2.54199366     -3.55730641      1.78405638
H      -3.38375189     -4.03106863      2.08530419
H      -2.76881079     -2.99729279      0.97245332
O      -2.35838753     -0.00566959      3.90604601
H      -1.78833831      0.81584449      4.06070823
H      -2.34278563     -0.21845698      2.91698683
O       1.27583377     -1.55860058     -2.45635972
H       1.15784994     -1.19034883     -1.52135609
H       0.82937835     -2.46569926     -2.49648318
