84
charge=0
O       2.53061175     -0.97935376     -0.73510824
O       3.53440154      1.21100959     -0.39256691
F      -1.42364254      3.05130054      0.29861448
F      -0.97045183      2.15437939      2.20423704
Cl      3.96312690     -0.80212770      1.78204176
C      -1.64628018      1.06661613     -2.03086193
C      -0.28249382      1.52577934     -2.09703078
C      -0.45300840     -0.56875229      2.24159116
C      -2.33025662      0.68430838     -0.92401201
C       0.66141127      1.75715268     -1.12370130
C       0.84493994     -0.08976161      2.23886245
C      -1.48383619     -0.46360970      1.18478656
C      -1.72775557      0.68700492      0.41065452
C       0.38684129      1.51497299      0.33496735
C       1.24860646      0.60581983      1.01900335
C      -0.89724539      1.88567450      0.86335773
S       2.81344518      0.08130073      0.22337078
H      -2.22119926      1.01787624     -2.95273183
H      -0.10820031      1.81298667     -3.15880530
H      -0.65351481     -1.22977257      3.07702420
H      -3.33815814      0.29560505     -1.10282416
H       1.61629312      2.28747182     -1.40519434
H       1.56459332     -0.48744974      2.98845867
H      -2.01436274     -1.41809756      0.97811097
O      -3.70747435     -1.00690538      3.95652641
H      -4.18633341     -0.36159456      3.34168775
H      -3.35357533     -0.48470674      4.74761701
O       0.24352908      5.17768654     -2.21060513
H       0.56135413      5.33291372     -1.26263142
H       0.62223790      5.91232809     -2.79425134
O       3.47681397      3.14918921     -3.51173865
H       3.44321353      3.97756858     -4.09175634
H       3.47681750      2.33944577     -4.11843180
O      -5.53173872      0.98179160     -0.05681514
H      -6.51185629      1.19364920      0.07827401
H      -5.23686278      1.39799886     -0.93064662
O       2.35130307      0.08440256     -3.57315181
H       2.30736714      0.34671246     -4.54938146
H       3.30241667     -0.18931091     -3.36285709
O      -5.23786151      1.81330019     -2.58849505
H      -5.01298078      1.09129123     -3.26072572
H      -5.18592213      2.70814831     -3.05786595
O       0.45414566     -3.67361224      4.18178312
H       0.38897633     -4.02558496      5.12815944
H      -0.48177478     -3.61667569      3.80155913
O      -1.87181583     -0.60097873     -5.07714612
H      -2.54615410     -1.11151635     -4.52182637
H      -0.95434306     -0.75581726     -4.67961674
O      -0.38710475      4.03915105     -4.90538467
H      -0.72455107      3.13953930     -5.22254197
H      -0.35154817      4.02382672     -3.89431462
O       5.86111037      0.79407871     -2.09543819
H       5.17521268      1.21383608     -1.48134580
H       5.59957851     -0.17156124     -2.24676850
O       4.61318849     -0.61618504      4.86196500
H       5.08856411      0.14513313      4.39487190
H       4.04935458     -0.22636115      5.60620271
O       4.05360686     -3.23624781      3.78429991
H       3.30085625     -3.41592717      3.13249925
H       3.88480879     -2.33939101      4.22124017
O      -0.92170116      1.75919354     -6.03302322
H      -0.34112096      1.42081201     -6.78945258
H      -1.49221296      0.99044379     -5.70545170
O      -5.05252211     -1.58077420     -1.35703085
H      -5.87867819     -2.16483297     -1.34681458
H      -5.26554226     -0.72481331     -0.86133359
O       0.45717834      2.54826233      4.96781801
H       0.09564161      1.94825583      4.23771842
H       1.46765582      2.52999480      4.91921899
O       0.16789198     -1.37017428      6.03358239
H       0.85603829     -1.23680290      6.76326008
H       0.57419300     -1.96356945      5.32185202
O       2.75274737     -3.73246348     -1.85438264
H       2.26819496     -2.88353854     -1.59304734
H       2.81514993     -3.76171752     -2.86384332
O      -2.10736148     -3.38135399      3.30694551
H      -2.13063602     -4.04178060      2.54075169
H      -2.73363706     -2.61841701      3.08453914
O       2.02468385     -3.59589267      2.05803865
H       1.43846751     -3.66415436      2.87989714
H       1.42831673     -3.42399774      1.25893943
O      -0.01836061     -3.07950916     -0.02793193
H      -0.69456811     -3.71427468      0.37651418
H      -0.29633044     -2.88889578     -0.98195549
