89
charge=0
N      -1.82910080      5.57175494     -5.55603722
O       3.00224530     -2.70473477      2.21711755
O      -1.90249794     -2.46840955      3.68874178
C      -2.27476643      4.72350826     -4.92726432
C      -1.09977953      0.37226079     -1.06017701
C      -1.76800482      1.02869748     -1.79891049
S      -4.24436180      2.78811212     -4.37959324
S      -1.09442708     -0.50916194      1.51550049
C       2.33069643     -2.54176202      1.17665884
C      -0.73882577     -2.36561051      4.11294334
C      -3.74305888      1.66423078     -3.14100257
C      -2.65771434      3.58251078     -4.23353426
C      -0.43865561     -0.43549178     -0.11233091
C      -1.82011062      3.04836264     -3.29823957
C       0.70546744     -1.14570977     -0.30449629
C      -2.42109717      1.89676522     -2.65444210
C       1.08785864     -1.81513843      0.98511455
C       0.21305560     -1.57054961      1.98074930
N       2.88147093     -3.17991358      0.16494273
N      -0.48718927     -2.74250373      5.43944247
N       0.29440282     -2.15237361      3.27107888
H      -4.34079679      0.98141903     -2.60012147
H      -0.78380106      3.44323624     -3.13881687
H       1.21040576     -1.26911999     -1.27584576
H       2.42590660     -3.20970760     -0.67393063
H       3.90053383     -3.19433810      0.17555833
H      -1.29370918     -2.78550982      5.98164402
H       0.39593695     -2.44595509      5.86860260
H       1.22143744     -2.36343365      3.68021601
O      -3.36049905     -4.61556545      2.01745859
H      -2.66549270     -4.74085201      1.29286879
H      -3.21425915     -3.70835524      2.44094959
O      -1.37569895     -0.44740794      8.02853429
H      -1.94926794     -1.09528778      8.55296817
H      -1.25185964      0.38719294      8.58698446
O      -1.86252234      7.11361258     -3.01040999
H      -2.15173597      6.91078510     -2.06226217
H      -1.78682496      8.11777581     -3.10882906
O      -6.21055802      0.90478657     -0.52892683
H      -6.73241106      1.70334567     -0.86617047
H      -5.60429307      1.21727940      0.21843551
O       1.63530578      2.23820690     -2.48717190
H       2.06677663      2.74719709     -3.24777709
H       1.34825224      1.33303515     -2.83649312
O      -6.01765120     -0.62593575     -4.43704959
H      -5.76598145     -1.18915669     -3.63504768
H      -5.19145475     -0.50396082     -5.00825966
O       0.73236704      6.01201866     -3.32743759
H       1.24581807      6.34695169     -2.52248643
H      -0.24876475      6.21089917     -3.18050958
O      -4.26267853     -1.27296678      3.21835752
H      -4.18375887     -0.57312248      3.94482000
H      -3.41585854     -1.82672738      3.22088235
O       2.95913928     -4.39037536     -2.87051319
H       3.38728882     -3.61084936     -3.35299371
H       2.57076019     -5.01575693     -3.56464723
O       0.49586534      0.51817654      6.16046519
H       0.11747718     -0.04393935      6.91187013
H      -0.27308224      0.82685232      5.57977757
O      -1.36074416      8.60793705     -6.04183060
H      -0.53401232      8.93707100     -5.56022491
H      -1.38771888      7.59916624     -5.96824018
O       2.23447315     -1.67806737      5.64185865
H       3.22386263     -1.55830497      5.81657843
H       1.76921362     -0.80466148      5.85270976
O       1.70596121     -5.96711629      0.58420059
H       1.81308975     -5.35562758     -0.21477699
H       2.60040509     -6.40188928      0.77049374
O       6.80385565     -3.52449879      0.85079907
H       6.32060527     -2.73730141      0.43782231
H       7.49552921     -3.16620946      1.49653552
O       3.50059746     -4.01275265      4.45780637
H       3.47854849     -3.48065849      3.59748463
H       2.96975133     -3.50684746      5.15495905
O       1.19466773      3.95090220     -4.84419230
H       1.97892179      4.31955200     -5.36650054
H       0.93445178      4.63260034     -4.14323925
O       0.53706881     -4.24942710     -1.63789142
H       0.04700184     -5.06993297     -1.97010395
H       1.41495225     -4.18320879     -2.13658675
O       3.91802292     -0.20150542      2.22947345
H       3.57333652     -1.14862559      2.31843817
H       3.51113078      0.20507215      1.39707079
O       1.69694415     -0.13017296     -3.75304085
H       1.00654360     -0.86982366     -3.74794351
H       2.05857510     -0.04308581     -4.69399559
O       0.46054362      3.94311778     -0.52661419
H       0.83959335      3.56902241     -1.38692492
H       0.42904494      3.19603326      0.15502571
