99
charge=0
O      -5.19701966     -3.88784863      0.42977212
O       8.87384989     -0.74859497      1.03505250
O       8.91806238      1.39084098      0.83812352
N      -1.85065735     -1.27730600      0.10342717
N      -6.39817092     -2.12331765     -0.29281376
O       1.75224900     -0.91521914      0.46194551
C      -5.20245993     -2.66779952      0.15850543
C       1.63669461      1.27631661      0.00794530
C       0.33698440      0.78946111      0.06309509
C       2.48703589      0.27914522      0.36662459
C       0.46803114     -0.51349639      0.36478756
C      -6.19896137      1.18691207     -2.05777584
C      -4.81578836      1.46835326     -1.78265442
C      -6.85332976      0.05598306     -1.53529753
C       4.66888508      1.35925048     -0.02937436
C       4.62131861     -0.80282924      0.88234781
C      -4.04033045      0.54809090     -1.08276899
C       6.11206653      1.37995717      0.12711048
C       6.01227755     -0.72723146      1.07390283
C      -5.99736678     -0.88546152     -0.81213112
C       3.93459200      0.28047321      0.37956834
C      -4.64908111     -0.60490847     -0.62199831
C       6.82491624      0.32514570      0.59990525
C      -0.56551154     -1.55468995      0.55261015
C      -4.12017818     -1.77674520      0.03387332
N       8.25529438      0.33700941      0.83270307
N      -2.83116212     -1.96053554      0.44942855
H       1.81196082      2.27077707     -0.18507480
H      -0.58010575      1.34392728     -0.04592538
H      -6.86074224      1.85208314     -2.63820710
H      -4.30335485      2.37450115     -2.14708373
H      -7.94792401     -0.16316891     -1.73395271
H       4.15066814      2.30689275     -0.40975212
H       4.05160537     -1.61967158      1.34037723
H      -3.05603024      0.85794686     -0.91213818
H       6.71330453      2.17590805     -0.34084557
H       6.49378381     -1.53179403      1.66267389
H      -0.35135388     -2.51769718      1.09022135
H      -2.62733440     -2.83686026      0.87150810
O      -6.67158961      4.65584258     -2.70821316
H      -7.66816120      4.53820671     -2.83769599
H      -6.42340658      4.27095753     -1.80597539
O       7.38959193      3.85041578      1.49573916
H       7.26398541      2.84844278      1.43222332
H       7.79106827      4.06100017      2.40030052
O      -2.75114406      0.68461175      2.07963102
H      -2.35479231      0.22629619      1.26931429
H      -3.68806351      0.98574992      1.84455623
O      -3.91984223     -6.21762985      1.83304664
H      -4.55986128     -5.77701691      2.48111721
H      -4.46397890     -6.65129662      1.09846590
O       3.54852654      2.93751953     -3.00705196
H       2.82537818      3.60850192     -3.23199729
H       4.37738635      3.44805829     -2.73118490
O       2.44392256      4.65807067      0.12595773
H       3.05072901      5.46772932      0.12446403
H       2.64952063      4.11166049      0.95235109
O       6.36586746     -1.55147184      4.29141050
H       6.71807864     -2.16415647      5.01551368
H       7.06955048     -0.84930060      4.10287608
O      -3.15907580      1.60181636     -4.69018185
H      -2.60354737      2.44650845     -4.64963170
H      -4.02010079      1.81396357     -5.17740948
O      -9.17543531      0.51146267      0.68769694
H      -9.18312234      1.33193965      0.09565234
H      -9.53846343     -0.26674033      0.15255927
O       2.70463687     -4.00959472      1.31969931
H       3.62910856     -4.20146219      0.95596788
H       2.08217263     -3.86106113      0.53596612
O       5.95231151     -4.06188485      2.65744687
H       5.19421424     -4.58096123      3.08125126
H       6.14546662     -3.25585346      3.23776231
O      -1.99075575     -4.51139802      0.81306216
H      -2.75107972     -5.15644276      0.98506566
H      -1.12919203     -4.95496980      1.10411522
O      -0.46493768      3.22315081      1.94302791
H       0.38197158      2.72556902      1.70029397
H      -0.20990490      4.16125394      2.22352979
O       1.31861807     -3.94667136     -1.06733552
H       1.67065261     -4.55087173     -1.79861779
H       1.38458720     -2.98995374     -1.38998028
O      -8.46687070     -2.85381416     -3.02304270
H      -7.84021687     -3.51494654     -2.58262153
H      -9.12624786     -3.37298870     -3.58823290
O       5.90910178      3.99580103     -1.72338482
H       5.52352433      4.70299372     -1.11103768
H       6.82251455      4.30667251     -2.02801223
O      -9.88214479     -2.04249024     -0.85591553
H      -9.16308016     -2.14182363     -1.56078577
H     -10.73766921     -1.75959348     -1.31613967
O      -2.69478787      3.21197732      0.25534033
H      -3.44830381      3.11820367      0.92405673
H      -1.81853998      3.16051106      0.75863120
O       8.80597578     -1.38483045     -1.88265082
H       8.11728579     -1.11201167     -2.57187827
H       8.51689185     -2.26706729     -1.48034569
O       3.40470070      3.14818367      2.33052611
H       4.33608627      3.05385943      2.71443590
H       2.83459534      2.39768864      2.69862633
