110
charge=0
O       0.46037197      6.07333770     -0.10928273
O       3.25333216      5.39714417      1.52868380
O      -0.97856636      4.77479108      0.95082638
O       1.77207947      5.80776803      3.02912339
N       2.28913771     -0.89114724      0.30740378
C       2.13149193      0.35962341      0.63219666
C       2.89433580      1.11913322      1.60553093
C       2.57872453      2.45763879      1.81911101
C       0.60213567      2.29689236      0.18911004
C       1.39810434      3.10415134      1.12544176
C       1.03570819      1.00101111     -0.10382771
C       1.25563502      4.44922559      1.21690860
C      -0.99514781      0.00885844     -0.76394914
C      -1.65531566     -1.03263612     -0.05896926
N       0.41721463      0.03218770     -0.88373065
N       0.20995259      5.12405755      0.61632748
N       2.15577958      5.27031990      1.96551669
C      -1.78567344      0.92562794     -1.71561238
C      -3.17472438     -1.17668382     -0.01159787
C      -0.83277637     -2.16758591      0.53568004
C      -3.20710228      0.41573405     -1.98732253
C      -3.85198578     -0.01465678     -0.69571376
C       2.70308124     -2.90549868     -1.98537517
C       1.92335716     -4.12582157     -1.40791776
C       2.01714394     -1.53636337     -1.87487889
C       1.16436602     -3.73438120     -0.12803435
C       1.21751545     -1.22553227     -0.67329046
C       0.30551789     -2.50329966     -0.47978041
H       3.62450831      0.64204093      2.22935082
H       3.13668846      2.92553051      2.63265960
H      -0.18568396      2.76478408     -0.37915824
H      -1.83161011      1.98317635     -1.29217021
H      -1.29335881      1.00466846     -2.69315125
H      -3.49843372     -1.25157892      0.95136523
H      -3.42477794     -2.15426963     -0.36890387
H      -1.42392932     -3.08033454      0.73626871
H      -0.48839567     -1.84603085      1.52360310
H      -3.74309521      1.33151649     -2.23805070
H      -3.20578688     -0.35813806     -2.79285065
H      -3.96991133      0.77965021      0.03835559
H      -4.86514337     -0.28682947     -1.00559887
H       2.66020535     -3.05648443     -3.07800047
H       3.72706284     -2.99960844     -1.59193986
H       2.57333397     -4.93522134     -1.20273287
H       1.18901374     -4.47526821     -2.18320724
H       2.81356932     -0.80315109     -2.04245441
H       1.40794627     -1.44188105     -2.80808086
H       0.51345703     -4.44024764      0.11039853
H       1.74179188     -3.65761620      0.80055593
H      -0.13879179     -2.62811663     -1.43028138
O      -0.89203059     -6.43057330      0.73544384
H      -1.51761528     -5.92534738      1.34957067
H      -0.70813711     -5.85099441     -0.07327914
O      -0.28370021     -0.68139907      4.23750495
H      -0.58205243      0.01608491      3.56798053
H      -0.19833207     -0.23453473      5.14126755
O       0.51297542      4.68795023     -2.79988514
H       1.10767486      3.91584378     -3.07181230
H       1.02188465      5.25995615     -2.13838335
O      -3.39731748      2.89726360      2.17005472
H      -4.24434666      2.34608410      2.12002145
H      -3.49601386      3.55854258      2.92948227
O      -5.26227810      0.88189481     -4.88357668
H      -5.98038186      0.59183954     -4.23245655
H      -4.75487204      1.65342923     -4.47001669
O       4.38454953     -6.45436764     -0.52034139
H       3.55507000     -6.89414486     -0.14308929
H       4.82157079     -5.91936914      0.21894931
O       4.31713921      0.02415180      5.03339994
H       3.74893290      0.77538013      5.40294173
H       4.16033142     -0.79835295      5.60142961
O      -1.48412460      2.42008078     -5.40599797
H      -0.98906455      1.54945962     -5.54985258
H      -0.95397945      3.16063521     -5.84677694
O      -1.80568218     -5.04591305      2.82667163
H      -2.61337871     -4.45331942      2.68447635
H      -1.19575137     -4.59243171      3.49457860
O      -3.60414012      4.65956094     -0.39239526
H      -3.16872344      3.98210751      0.22016644
H      -4.60348837      4.50200524     -0.37686228
O      -7.06497773     -0.44478534     -2.87597516
H      -7.22386473      0.37649510     -2.30675220
H      -7.91950796     -0.65118195     -3.37691296
O       4.51763515      7.28592007     -0.47748205
H       5.13756636      6.48627847     -0.48154235
H       3.60197663      6.97634533     -0.77664255
O       4.15402036     -2.62188656      1.77346578
H       3.65569217     -2.17236633      1.01625918
H       3.58255494     -2.56191371      2.60628694
O      -3.84275247      3.00621372     -4.08093082
H      -3.17438474      2.31782905     -4.40213551
H      -3.33329975      3.83666372     -3.80785328
O      -0.22776722      8.93054672      0.68195104
H      -0.85648296      8.18603952      0.40957928
H      -0.20138145      9.61052018     -0.06685019
O      -1.85858598     -4.74408134     -1.22750878
H      -2.39502074     -5.48625953     -1.65782206
H      -1.91779250     -3.92718431     -1.82159294
O       6.19408229      0.87151642      3.46584184
H       5.35723544      0.52460550      3.91651145
H       6.66767444      0.08819341      3.03470596
O       6.16470184     -1.85340397     -0.91626165
H       6.33574566     -2.25911961     -0.00527263
H       5.71456793     -0.95714330     -0.78262923
O       1.83214543     -4.75562096      3.59788886
H       1.07722162     -5.26910064      3.16178306
H       2.38898144     -5.40855863      4.13395522
O      -3.95134428     -3.46560591      2.09759588
H      -4.53706365     -4.23672777      2.39096401
H      -4.39480075     -2.60423170      2.38938694
