98
charge=0
O       0.78984856      1.11983180     -1.67650581
Cl      4.78095402      1.84003584      3.84349937
N       2.12008705      0.36149381      3.10639961
N       4.97704274      1.41386029      1.15943193
N       3.48011951      0.09960174     -0.12709498
O      -4.22175165      0.31510947      0.17743944
C       1.22887970     -0.35980105      2.46281133
C       4.66761333      0.77007171      0.01322985
C       4.22472462      1.31690146      2.21307141
C       2.67742394      0.16468762      0.90504047
C       3.00673958      0.70729848      2.12161189
C      -2.91275977      0.48333406     -0.25902509
C      -2.67373662      1.51250115     -1.15707149
C      -1.84744176     -0.41969297      0.16573190
C      -1.36050103      1.60697818     -1.63191735
C      -0.52045342     -0.15743136     -0.35336493
N       5.40508150      0.94656583     -1.11176363
N       1.49862886     -0.45938611      1.09412428
N      -0.33378360      0.87306498     -1.19784711
C      -4.84629876     -0.91170606     -0.39255738
C      -3.81399805      2.38120080     -1.61669609
C      -2.15005216     -1.53130047      1.16928332
C       0.68057060     -1.01134534      0.05844116
H       0.39699315     -0.87157244      2.93679358
H      -1.08983629      2.24690678     -2.44956595
H       4.84163012      0.82675814     -1.92874305
H       6.20867209      1.63089869     -1.02303920
H      -5.98165361     -0.83451569     -0.37807703
H      -4.59162930     -1.64678862      0.32870291
H      -4.40801483     -1.28295835     -1.31794510
H      -4.35353902      2.55569223     -0.69540144
H      -4.32401877      1.86919323     -2.42251502
H      -3.42323771      3.38595374     -1.99582030
H      -3.08103425     -1.26394568      1.65019989
H      -1.37520426     -1.59930945      1.93534366
H      -2.22933467     -2.55639674      0.69156165
H       0.27539015     -1.93236640      0.45261619
H       1.33599991     -1.26767754     -0.73457777
O       3.73117558      0.34947751     -3.45045796
H       2.99777727      0.93950982     -3.07931184
H       3.32186939     -0.26395797     -4.14322613
O       3.52528808     -2.38839250     -0.94670890
H       3.30993160     -1.42974013     -0.70510150
H       4.42759878     -2.40300299     -1.40429377
O      -4.00385848      0.66495059     -5.06372209
H      -3.45839958     -0.18362284     -5.14221430
H      -3.39740277      1.39887811     -4.72119792
O      -2.20653881     -4.98414637     -1.08416792
H      -1.85808119     -5.80840189     -1.55633212
H      -3.21615214     -4.98592480     -1.15079879
O      -1.86299320      2.73969402     -4.65493419
H      -1.72746173      3.09267506     -5.59344282
H      -1.82919492      3.52319121     -4.01560046
O      -3.77730125     -3.62974040      2.53213886
H      -4.43523129     -3.60241518      1.76393270
H      -3.90047050     -2.78975126      3.08260300
O       0.34420845     -1.52667158      5.94099394
H      -0.38619876     -1.03100416      5.44643861
H      -0.08977532     -2.09642052      6.65569778
O      -1.57537633      5.04404176     -2.76945348
H      -2.14769236      5.86667024     -2.90908557
H      -0.79488276      5.29971247     -2.17850202
O       5.01241455      3.71443390     -2.37971785
H       5.49520972      4.53820217     -2.04493760
H       4.19718719      3.56886016     -1.79836268
O       7.98731041      2.30069045     -1.11746304
H       8.84401523      2.14715363     -0.60147519
H       7.99437014      3.25114722     -1.46436920
O       5.57566507      2.03787207     -4.49300508
H       5.64198229      2.68066766     -3.71443012
H       4.83774422      1.37523529     -4.29264541
O      -3.91607744     -1.17105595      4.44621326
H      -2.90458196     -1.14664668      4.43988782
H      -4.21876884     -1.45249007      5.36975713
O       3.84702318     -2.48957258      1.79048527
H       3.78472080     -2.48993039      0.78059431
H       2.95949103     -2.80371301      2.16110932
O      -8.60889691     -0.17920851     -1.21929641
H      -8.61771539      0.14036298     -0.25931835
H      -8.15259905      0.52687046     -1.78232904
O      -0.04839777     -4.71005042      0.41693805
H      -0.89028060     -5.00091883     -0.06305218
H       0.64942597     -4.48364107     -0.27986885
O      -1.93152059      4.55768467      0.23579477
H      -1.06386181      4.11095976      0.50293920
H      -2.07909519      4.39430365     -0.75177252
O      -1.39006556     -0.00688195      4.60833313
H      -1.93418975      0.25475978      5.42026478
H      -1.16032657      0.83601353      4.09793240
O       6.18025756     -1.79590813     -1.44134750
H       6.10580164     -0.80074902     -1.27440204
H       6.63628442     -2.21632598     -0.64194201
O       2.65750995      0.17842530      5.90991732
H       2.42017136      0.35896659      4.94304765
H       1.86927675     -0.28095245      6.34743415
O      -6.26309391     -4.10080065      0.91942071
H      -6.41282078     -3.96796333      1.91123718
H      -7.15246202     -3.99280182      0.44918416
