85
charge=0
F       2.75950304     -0.25061011     -2.89041558
F       1.16634013     -0.88928219     -4.10416826
F       1.13381739      0.99526881     -3.12141636
F       2.29652042     -2.88634522     -1.99945563
F       0.20381569     -3.10310467     -2.63160814
F       0.73224421     -2.92421814     -0.44086215
F       0.66063996      2.43662816     -0.54833055
F      -0.16013145      2.50669957      1.50560141
F       1.99751722      2.25624077      1.15291951
F       0.21122336     -1.61179304      1.87216279
F       1.46520732     -0.10787725      2.62939923
F      -0.62934040      0.15780925      2.65678399
N      -0.61543460     -0.49024223     -1.45040859
C      -0.72629809      0.16894340     -0.35782693
N      -1.92209601      0.79672333     -0.15509963
N       1.52292837     -0.30912995     -0.41039585
C       1.44399042     -0.29253244     -2.95905172
C       1.01537104     -2.46028953     -1.69697632
C       0.78090310      1.89745182      0.66159364
C       0.37084698     -0.28052806      1.91472289
C       0.83152891     -0.87758897     -1.65506421
C       0.55238362      0.34566403      0.50336239
H      -2.61285764      0.25985479     -0.57538627
H      -2.11564350      1.19249579      0.78428743
H       2.02704302     -1.01675028      0.12590408
O       3.57587800     -2.05687401      0.76122756
H       3.93308155     -1.82237504      1.67838328
H       3.45532165     -3.06050760      0.71710465
O       0.66066380     -4.91845947      1.92935458
H       0.44395564     -5.82467070      2.32379063
H       0.32007813     -4.20854664      2.56479609
O      -1.98223578      3.44109647     -1.78660152
H      -2.04500195      4.35725182     -1.36177114
H      -1.36298536      2.87378189     -1.22229335
O       3.46508485      3.75963074      3.82111884
H       3.99947144      3.45618588      4.62493149
H       2.48334883      3.62724181      4.02710299
O      -3.92836194     -0.74058768      2.92730087
H      -3.40951669     -1.20570534      3.66094092
H      -3.92470339     -1.33844727      2.11102243
O       3.29851133      2.81902422     -3.73742558
H       3.55902529      2.25517391     -2.93869969
H       3.40784903      2.25513454     -4.57039360
O      -0.44327974     -3.71544600      4.06271451
H      -0.76591846     -2.78456207      4.29319599
H      -1.02071876     -4.38121321      4.55978357
O      -4.11037082     -0.89926240     -0.59952852
H      -3.77384885     -1.64047113      0.00140548
H      -4.42300685     -1.31471387     -1.46752587
O      -1.39014353     -4.73541477      0.09803533
H      -0.48111556     -4.68382108      0.53936124
H      -1.80286881     -5.62959080      0.33013344
O       0.39611935      3.95832755     -4.12540422
H      -0.16479253      4.15196285     -3.30586654
H       1.32835743      3.71250735     -3.81837827
O       4.80541704      3.49546176      1.03752731
H       4.39668263      4.41308720      0.91644402
H       4.24670798      2.98801053      1.71139592
O      -0.15630483      5.48831350      2.76982289
H       0.82373496      5.71887825      2.87044506
H      -0.30402778      4.56474541      3.15577733
O      -1.43190980     -5.61594573     -2.70210245
H      -1.26592876     -5.00246411     -1.91479682
H      -1.35124439     -6.57155486     -2.37951271
O      -1.68962477     -1.58815741      5.09082399
H      -2.01768872     -0.65096374      5.28524884
H      -1.65333145     -2.09697956      5.96463436
O       0.94657062      5.38263764     -0.62525149
H       0.10537862      5.69196661     -1.09479548
H       0.71461792      5.18578537      0.33974052
O      -2.23633283     -0.71866746     -3.56977688
H      -3.23788393     -0.83164567     -3.48093732
H      -1.85924052     -0.51786778     -2.65258293
O      -3.04116489      1.82870742      2.35073078
H      -3.74018533      2.55098095      2.46670480
H      -3.37339621      0.99162577      2.81190141
O      -0.78116414     -3.89852982     -5.11206121
H      -0.93510866     -3.72600910     -4.12702318
H      -1.27931948     -4.74182449     -5.36594390
O      -1.28820179      3.35270504      4.43453637
H      -1.83706274      2.64979593      3.95659076
H      -1.87009090      4.16951048      4.56868733
O       2.81598212     -1.03102321     -7.01633884
H       2.42470021     -0.82346553     -7.92605394
H       2.38140090     -1.87738416     -6.67199334
