84
charge=0
O      -4.45476982      1.33379100     -2.91480895
O       0.00528455      1.86711301     -0.76411486
O       2.25883725     -2.38284651      0.75011968
O      -4.05739360     -0.84501501     -2.46410427
O       2.42083903      2.31026996      0.56833267
C      -3.78309781      0.51657793     -2.35776477
C      -0.31416178      0.69979427     -0.60584544
C       2.65387890     -1.24788643      0.92334983
C       1.89913386     -0.04056572      0.53935172
C       2.77952780      1.01743340      0.69611068
C      -2.52742884      1.00855822     -1.83409154
C      -1.63969155      0.23458958     -1.01699586
N       0.59059977     -0.17370224     -0.03361225
C       3.96326164     -0.91917217      1.60126918
C       4.09903155      0.64301486      1.39442434
H      -5.01370547     -0.88183577     -2.80612353
H       1.55023693      2.39344720      0.13555288
H      -2.32751428      2.03237768     -2.15694308
H      -1.92586294     -0.80043966     -0.67878605
H       0.24941444     -1.14964955     -0.08159876
H       3.81307578     -1.04665274      2.69089692
H       4.85487550     -1.41234933      1.14906313
H       4.18770534      1.20773067      2.33999837
H       5.03035430      0.89532136      0.92751020
O       7.46239407      0.91512200     -0.45856594
H       7.29643321      0.59687494      0.48744438
H       8.36529218      1.37107965     -0.48385976
O      -3.32646839      4.56246736     -1.23294110
H      -2.37084866      4.57154978     -0.90056891
H      -3.89676324      4.09531572     -0.53990602
O       5.29307565     -1.41133899     -2.18552515
H       5.82403180     -2.19944703     -1.83806172
H       4.85003932     -0.95760103     -1.39710775
O      -4.87276277      0.63806892     -5.62928599
H      -5.85963474      0.45524359     -5.75741430
H      -4.76921052      1.28000847     -4.85407511
O      -7.29602090      2.04120625     -2.77520411
H      -7.05291982      1.46895646     -1.97696029
H      -6.43971677      2.31285559     -3.24072468
O      -3.21970447      0.33791421      1.87361710
H      -4.11632281      0.01844287      2.21680163
H      -2.55567078     -0.41876076      1.97492234
O      -3.02662127      4.63956469     -3.84538757
H      -2.02189205      4.72488852     -3.76170970
H      -3.40730652      4.47918742     -2.92174277
O       1.51584139     -5.48267995      1.48487327
H       0.94415663     -6.25302488      1.80659890
H       1.75380702     -5.65005740      0.51579236
O       7.81117050      0.86952919      2.43342860
H       7.90544705      1.86884400      2.56087764
H       8.72661454      0.45097468      2.53606791
O       4.16302910     -3.30873302      4.92396332
H       4.23330767     -2.42115243      5.40461267
H       4.80116828     -3.95780977      5.36581975
O      -1.33068380     -1.35254137      2.09452627
H      -1.37915842     -2.31586086      1.78886884
H      -0.36555171     -1.13847253      2.31006128
O       4.05664443      3.19433431      4.09742345
H       3.07777388      3.43540185      4.01104210
H       4.19113376      2.73755072      4.99018415
O      -1.29332008     -3.02129026     -0.72967289
H      -1.12601102     -3.46880295      0.16223430
H      -2.25567983     -3.19116352     -0.99190889
O      -1.02053399      4.30925234      0.11456012
H      -0.40425240      3.58626598     -0.23364781
H      -1.38446684      4.00900225      1.00963826
O      -4.05327782     -3.23745648     -1.20289020
H      -4.10442589     -2.42050873     -1.79765224
H      -4.25577626     -4.05192003     -1.76804898
O      -6.96757530      0.42488336     -0.51606175
H      -6.67616337     -0.46781060     -0.13931512
H      -7.80930477      0.71116445     -0.03305196
O       5.61694345     -3.73471731      2.70873549
H       5.13276802     -3.63435857      3.59149453
H       5.00658721     -4.22609074      2.06859707
O       0.97223878     -1.29463195      3.72202378
H       0.94314573     -0.65044400      4.50172666
H       1.10803241     -2.22771042      4.08901905
O      -6.30447827     -1.75518980     -3.48402964
H      -6.97848561     -2.48875124     -3.30694071
H      -6.77380551     -1.00926159     -3.98110626
O       1.05265735      3.17962996     -2.89355382
H       1.32229920      2.75353061     -3.77076133
H       0.97618694      2.44844434     -2.19837059
