69
charge=-1
O       0.96420044      1.26590251     -2.35494371
O      -0.68194265      1.14272948      1.69476741
N       0.31009912      1.57734741     -0.28809548
C       0.73245283      0.74270606     -1.28600954
C      -0.13893246      0.70791600      0.64231868
N       0.94549891     -0.51897167     -0.89296579
N       0.20246505     -0.59026777      0.36584852
H       0.92719075     -1.23009076     -1.61867374
H      -0.61808225     -1.18121620      0.32334327
O       0.16119719      3.94715407     -2.76046518
H       0.63049077      3.07933556     -2.53593014
H      -0.19025802      4.34715604     -1.90009474
O      -3.09566493      4.20054673      1.66245815
H      -3.75761032      3.69734628      2.23898155
H      -2.54602415      4.80039716      2.26398709
O       0.38058281      0.94817040      4.38333128
H       0.27607678      1.03048442      3.38030454
H       0.31554699     -0.03154993      4.62762437
O      -2.14493034      2.14480165     -3.59848008
H      -2.51039269      1.93995464     -2.67748349
H      -1.32132293      2.72233236     -3.48944366
O       2.85791984      1.92000507      1.84133282
H       2.24997513      2.09497680      1.05168221
H       3.08443543      0.93393563      1.85227151
O       2.55197513     -4.56984049     -0.57306886
H       2.24070195     -4.65361147      0.38602112
H       2.38131032     -5.45214887     -1.03800648
O      -1.35340926      3.92483586     -0.57822223
H      -0.84361312      3.07376736     -0.37935017
H      -1.89562557      4.16621200      0.24122952
O       0.35296438      0.12419462     -5.08141304
H       0.51842689      0.65940618     -4.23883827
H       0.29165745      0.76989647     -5.85799005
O       1.62460794     -2.72458139      3.36899757
H       1.90050591     -2.55013463      4.32670812
H       2.22995263     -2.18547873      2.76345001
O      -2.92041046     -1.08016367     -0.37436842
H      -3.03747883     -1.93233360     -0.90715526
H      -3.37118504     -1.20498291      0.52284000
O      -1.12977025     -3.09445197      3.88674594
H      -0.78507060     -3.80393129      4.52045167
H      -0.33335089     -2.64180712      3.45710739
O       2.86926012     -1.05088945      1.52917862
H       3.28485238     -1.66676936      0.84234951
H       1.93078517     -0.82672237      1.22458817
O       3.18174601     -2.47395150     -2.36281443
H       2.29563953     -2.19540948     -2.76405081
H       2.99664960     -3.12802315     -1.61335459
O       0.59748173     -2.38458936     -3.55151768
H       0.30438183     -1.54580826     -4.03556214
H      -0.04736900     -3.12720534     -3.78911061
O      -2.82020564     -3.16455417     -2.01678979
H      -2.98407063     -4.03451901     -1.52682008
H      -2.44109619     -3.38321140     -2.92905432
O       4.58654280     -0.35167932     -1.00626944
H       4.72421984     -0.95797297     -0.20801304
H       4.05421473     -0.86034893     -1.70027492
O      -3.77207875     -0.30557034      2.18377826
H      -3.75751242     -1.19977353      2.65701059
H      -2.94256313      0.20723820      2.45339382
O      -3.37110984      1.52491926     -0.88394639
H      -3.11939594      0.54768439     -0.81037641
H      -3.37387918      1.92062252      0.04727363
O       3.60575075      1.95049035     -1.77100946
H       4.05039544      1.15505688     -1.33130604
H       2.62937526      1.72669641     -1.91372870
O      -2.82240496      2.26123693      4.96465327
H      -2.60882488      1.65303938      5.74455146
H      -2.50593047      3.19390888      5.19644586
