82
charge=0
Cl      0.34006000      4.35149917      1.49513722
Cl     -2.16169700      2.99199813      2.14401236
Cl      0.29753564      2.23215347      3.50826480
N      -1.94420213     -1.42979501      1.28501169
N      -1.27699374     -1.60788228      0.16025184
N       1.00960848      1.76826233      0.16748309
C      -0.04373908      1.64022082      0.91302153
C      -1.49600625     -0.27369259      1.82661294
C      -0.61830039      0.32588958      0.98788023
C       2.99766877     -0.14987469     -2.41196151
C       2.22441901     -1.23070355     -2.54654093
C       2.55612599      0.93789099     -1.52160401
C       1.02176902     -1.43299874     -1.81422940
C       1.39609099      0.73176617     -0.70289492
C       0.65634250     -0.43774125     -0.89122767
N      -0.43779730     -0.55602665     -0.03601074
C      -0.41586576      2.71826730      1.91752667
H      -1.85292896      0.24231552      2.82592044
H       3.78593780     -0.04301191     -3.07048075
H       2.43985775     -1.92051288     -3.34941262
H       3.09144141      1.92970986     -1.48125408
H       0.40004967     -2.36549974     -1.93739284
O      -1.29485249     -1.36914969      5.66468101
H      -1.10499018     -1.84777963      6.53567183
H      -0.49644946     -1.49414771      5.05583875
O      -3.05294675      0.40615795     -1.79241296
H      -3.57826707      1.25787964     -1.64285415
H      -3.52481168     -0.34479020     -1.30540007
O      -4.14655842      1.77411906      4.89646173
H      -4.60417572      1.00687144      4.42140455
H      -3.75072698      1.42032981      5.75780390
O      -1.66400847     -3.91499974     -2.74213659
H      -1.93497892     -3.95257692     -1.76800962
H      -1.91533681     -3.00425512     -3.10426590
O      -2.62787742     -1.65307041     -3.39042177
H      -2.14413701     -1.33058778     -4.21852812
H      -2.66719518     -0.88739866     -2.73014782
O      -2.30705248     -4.53636167      2.49777915
H      -1.35941021     -4.30845952      2.76943430
H      -2.92553884     -3.84457103      2.90109500
O      -4.73936779      0.09387493      2.52124420
H      -4.28760584      0.25474428      1.63029309
H      -5.67822313     -0.23863554      2.34306445
O      -3.92094416     -2.60803938      3.54425785
H      -3.68139086     -2.66417024      4.52569814
H      -3.96785432     -1.63068534      3.28669415
O       5.36803926      0.40167329     -1.01865765
H       6.08209208      0.95438835     -0.56215402
H       5.55967079     -0.57466801     -0.83481906
O       2.96879752     -4.81538261     -2.58534545
H       2.83115985     -5.02043717     -3.56655234
H       2.18769546     -5.20055735     -2.07029211
O       2.25176920      6.70514817      2.80111072
H       2.29796275      7.69867412      2.61527876
H       3.05978417      6.26742442      2.37770677
O      -4.20359414     -1.88164944     -0.78081365
H      -4.57872507     -2.78735386     -1.03129144
H      -3.24869507     -2.01046700     -0.47204971
O       0.53363559     -5.24112668     -1.36951204
H       0.85438369     -5.14396649     -0.41481853
H      -0.36852837     -4.78951461     -1.44638655
O       0.62115073      1.13756893     -4.71021999
H       0.26513099      0.24023413     -5.01320939
H      -0.06592750      1.55902387     -4.09861672
O       3.11119063      1.79352284     -5.77091100
H       2.19339486      1.85274122     -5.34912349
H       3.15964683      0.93283294     -6.30065293
O      -2.34688046     -4.57304964     -0.15435338
H      -2.25113686     -4.39042532      0.83622454
H      -2.99214523     -5.34349650     -0.27186035
O       2.89013498      4.24210293     -0.13166546
H       2.27130293      3.49221451      0.14847278
H       2.33842711      5.08390910     -0.23531079
O       6.52485691      1.98527802     -3.19050418
H       6.02992258      1.35035038     -2.57758727
H       7.47397658      1.64967290     -3.29200976
O       1.64156675      3.70986696      6.28927682
H       1.69411413      2.74944890      5.97527265
H       1.68881416      3.71403194      7.29997493
O       1.44379852      6.30881282     -1.12455242
H       1.57406445      7.05636112     -1.79385302
H       0.54445979      5.88036023     -1.30169509
