93
charge=0
N      -2.01137299      3.08476447      0.42158602
N      -1.66961729      2.02141755      1.17830745
O       0.21052480      2.89833071      0.22069334
C      -0.93153476      3.52920275     -0.15118479
C      -0.35799742      1.94871066      1.04409808
N       0.33495187     -0.62711717      0.88837859
C       1.93625798      1.04080080      1.78922652
C       0.07495046     -3.12549933      1.28012769
C      -1.94644624     -1.53467831      1.50538440
C      -0.60986281     -0.79415321     -1.53998723
C       1.81390162     -1.37947913     -1.03000695
C       0.43535947      0.70029736      1.63512700
C      -0.38671969     -1.68591310      1.60099982
C       0.60487271     -0.50313709     -0.61396717
H      -0.89644134      4.39863215     -0.72250246
H       2.51416555      0.21495460      2.22632638
H       2.01663612      1.93752040      2.43699177
H       2.28572240      1.18459227      0.75748801
H       1.15539185     -3.25101248      1.43070340
H      -0.48493740     -3.80290254      1.96435685
H      -0.20137190     -3.45274433      0.29705643
H      -2.23850894     -0.63760160      2.02227585
H      -2.37912412     -2.38545587      1.95432302
H      -2.26828454     -1.41805290      0.48590658
H      -0.35428524     -0.75626490     -2.55361201
H      -1.33316510      0.02404571     -1.26029130
H      -1.00782153     -1.75206063     -1.33675930
H       2.61269439     -1.24291235     -0.32962203
H       1.49132361     -2.43878232     -1.16064312
H       2.17922318     -1.07103167     -1.98523878
H       0.04567146      0.51665542      2.62357592
H      -0.08442521     -1.60104625      2.66173827
H       0.90203880      0.56385990     -0.82906779
O       3.49513651      2.18613025     -1.36365644
H       4.16494833      2.37674716     -2.09767574
H       2.57072083      2.39347698     -1.71893596
O      -4.56829067     -2.99334507     -0.26865004
H      -4.01492825     -3.74062514     -0.66755295
H      -4.44730485     -3.01316721      0.73570727
O       4.74116793      1.89070334      3.57653961
H       4.78773467      2.02180021      2.57433876
H       4.83956201      0.90245004      3.77001998
O      -0.49156782      6.65124615     -1.73562755
H       0.35793900      6.39217603     -1.25087971
H      -0.25955795      7.35634071     -2.42321246
O      -0.81617234      0.12813568      4.97490650
H      -0.41173100     -0.08339763      5.87792372
H      -0.38906931      0.97788210      4.62954259
O      -1.28159752     -2.37682336     -4.78332291
H      -2.15046270     -2.43085962     -5.29899332
H      -0.56923986     -2.01355629     -5.40327784
O      -0.04444599      2.69476163      4.54019660
H      -0.89182254      3.08848610      4.92838719
H       0.44098258      3.42596516      4.03674835
O       3.93295992     -4.75675342      1.88296913
H       3.79176236     -3.76017805      1.98622098
H       4.30938810     -5.11341068      2.75179507
O       3.76759987     -4.20213440     -1.07035871
H       3.00177672     -4.78320128     -1.38601300
H       3.97973156     -4.45282434     -0.11332273
O      -3.63522154      1.36082768     -1.92120781
H      -3.32191683      1.14905240     -2.85969020
H      -2.85687090      1.75814384     -1.41123528
O      -2.57270794      0.48584816     -4.13207763
H      -2.99694660      0.23090361     -5.01456491
H      -1.85620422     -0.19581199     -3.91825431
O       3.30846177     -2.21169520      2.19883185
H       3.07791569     -2.31500268      3.17859641
H       2.45777959     -1.99394522      1.69615385
O      -1.17151254      2.69080280     -3.24298859
H      -1.71722049      3.50792390     -3.48439451
H      -1.66504858      1.87262292     -3.57580179
O      -2.14699491      5.06990168     -3.49158040
H      -2.96292779      5.65510958     -3.61626363
H      -1.51639930      5.53984865     -2.85497892
O      -4.46466070      1.78164119      2.45096664
H      -3.88722159      2.54267925      2.11758241
H      -4.04747244      1.41695261      3.29755903
O       1.98022483      0.76819298     -4.57227447
H       1.56098246      1.39980190     -3.90215153
H       2.81842342      0.38080571     -4.15861355
O       1.10561015     -5.15694137     -1.83512446
H       0.78434824     -4.62377076     -2.63279662
H       0.39338708     -5.11115282     -1.11790412
O       5.29820656     -1.91465905     -1.52975078
H       4.67170464     -2.67838583     -1.31071328
H       5.54857124     -1.45427279     -0.66423177
O      -3.51930960     -4.68516550      2.85888072
H      -2.82028916     -5.12577744      2.27493524
H      -3.19999688     -4.72613100      3.81811005
O      -3.94918786      5.03467320      1.64598217
H      -4.63722810      4.57711066      1.06203076
H      -3.35702647      5.59997770      1.05139134
