110
charge=0
O      -2.43216972      4.86658670      0.03816843
O      -3.18686833      0.68329212      0.93184109
O       0.73057410      2.24420910     -1.19244507
Cl      2.36301402     -1.47785833     -3.34469605
N       4.07695761     -0.17413258      3.13473693
N       5.25906794     -1.69356695      0.04394770
N       1.98930977     -0.39677617      1.00221038
O       4.47089682     -1.70455206     -1.06109083
O      -2.81408660     -1.59613840     -2.80669254
S       6.58465843     -0.99675415      3.04641464
C      -2.09715001      3.73422980     -0.08264780
C      -2.44354129      1.44242874      0.27082324
C      -0.36510944      2.31447581     -0.60605765
C       5.02259965     -0.72888732      2.34493599
C       4.56783041     -1.00912331      0.95271110
C       4.59808091     -0.01258731      4.44478254
C       5.87791312     -0.34564614      4.54730275
C       3.19196215     -0.80858883      0.47147392
C       0.89592097     -0.35009503      0.21379948
C       2.17709300     -1.17769958     -1.65931637
C       3.25101853     -1.22246619     -0.80492851
C       0.92127320     -0.82547068     -1.09932950
N      -2.86594145      2.73682703      0.28493998
N      -0.77414869      3.55377781     -0.30174730
N      -0.28669832     -0.87702627     -1.90815798
C      -0.43268680      0.13673186      0.71473475
C      -2.06814881     -3.73979447     -3.72229932
C      -0.48168539     -2.07153017     -2.73503523
C      -3.90378588      0.29902815     -2.21993785
C      -1.12440758      0.98349685     -0.44456360
C      -1.89309771     -2.70781498     -2.64501198
C      -2.71253686     -0.59122682     -1.80297315
C      -1.29113199      0.16003489     -1.76437428
H       4.00539618      0.52873251      5.17010802
H       6.51931268     -0.22070526      5.40679433
H      -3.62220629      2.94524769      1.01754424
H      -0.25919794      4.34843183     -0.72830557
H      -0.37771818      0.76683159      1.61346663
H      -0.99480508     -0.74256892      1.11005661
H      -2.14150544     -3.17347635     -4.66150187
H      -1.24141805     -4.40656898     -3.77963708
H      -3.02835100     -4.29096185     -3.63814934
H      -0.36353707     -1.71977395     -3.84128315
H       0.21170257     -2.81355141     -2.41406066
H      -3.94550660      1.31147028     -1.79100394
H      -4.88974568     -0.27077555     -2.03923454
H      -3.72964141      0.50744889     -3.22113922
H      -2.06522933     -3.17985403     -1.67386882
H      -2.95010784     -1.10171201     -0.87022537
H      -1.21506090      0.77445622     -2.70006588
O      -1.38042083     -6.88551260     -5.02643307
H      -1.70965067     -6.15800698     -5.64780459
H      -0.48716186     -7.21340761     -5.37043338
O       1.17521992     -5.35211765     -1.93029161
H       0.52707431     -6.08306255     -2.19370826
H       0.79081531     -4.86244897     -1.13265869
O      -4.34984186      0.01384616      3.47946875
H      -5.35124055      0.14936089      3.42850311
H      -3.91953943      0.56564445      2.74863235
O       4.34964857      2.93870549      5.37964347
H       3.41763116      2.60825991      5.59390762
H       4.40626365      3.09708228      4.38190914
O       6.64962518      2.21318597      6.53399786
H       5.71890096      2.43173470      6.20271202
H       7.16689083      1.79839965      5.76970082
O      -4.38568200     -2.95159685      0.13462543
H      -4.82820155     -2.21870168      0.67388773
H      -3.44197256     -3.07069775      0.47957300
O      -2.71359665     -0.84308739     -5.34525626
H      -3.25106623     -1.34868739     -6.03754248
H      -3.05203558     -1.10715859     -4.42902293
O      -2.07746614     -4.93091202     -6.67225829
H      -2.59855727     -4.82802139     -7.53344250
H      -1.09103436     -4.89483318     -6.89454304
O      -0.25488971     -3.99567234     -0.03458500
H      -0.94058273     -4.61430632      0.37878990
H      -0.21592974     -3.15154194      0.52191256
O       1.20417356      3.83324967     -3.44491222
H       0.74938054      4.73195682     -3.34872956
H       0.69288254      3.16016537     -2.88876533
O       0.99371192      5.97821837     -1.32055635
H       1.26673811      6.84160442     -0.86913347
H       0.35937786      6.20431029     -2.07571496
O      -4.50105395      4.73512509      3.12061773
H      -4.74125271      3.76494988      2.96305420
H      -4.86809464      5.27969351      2.35088572
O      -5.85830546      2.15791455      1.72539703
H      -6.24336816      2.16097458      2.66106605
H      -6.14199403      1.29972577      1.27065063
O      -2.50798444      7.51101933     -0.06241798
H      -2.98476555      7.92192328      0.72979326
H      -2.39942064      6.52065357      0.11408210
O       8.33644364     -2.20575683      6.30178186
H       8.42698417     -2.44066117      7.28177276
H       7.42591351     -2.51446608      5.98651654
O       3.39619637      2.09482427     -1.64262831
H       2.39276288      2.19563607     -1.72459601
H       3.80017635      2.20367055     -2.56388543
O       0.13223528      3.39232914      2.76211972
H       0.20293950      4.33914049      2.41239174
H       1.00862382      2.92173621      2.57706873
O      -0.41781783     -2.80634987      2.74030189
H      -1.40217066     -2.72119283      2.95838103
H       0.04116058     -1.94727300      3.01432112
O       8.39763148      1.58124088      4.63781351
H       8.85515920      0.70254204      4.84352816
H       8.83024905      1.97626701      3.81285424
O      -5.77593088     -2.79376384     -2.71140995
H      -6.47984957     -2.24868874     -2.23062636
H      -5.06128306     -3.04689407     -2.04136131
