66
charge=0
F      -0.22084474      1.82349324      1.57535904
F       0.45239924      0.75658914     -1.26781455
F       1.24441738     -1.47665976     -0.00281930
F      -1.07725858     -1.20595691     -0.97124755
S      -0.59018015      0.27225137      1.61567087
S       0.05393028     -0.45492051     -0.21928071
O      -4.08769002      0.54575917     -0.26931165
H      -4.72734925     -0.08601546      0.19486070
H      -3.66173021      0.05119562     -1.04244108
O       0.84932918     -0.56705953      4.70180121
H       1.74594400     -0.98384558      4.91658313
H       0.24097561     -1.29353759      4.34698345
O       3.14804186      0.00102639     -2.72127030
H       3.94719696      0.07339954     -2.10492964
H       2.64554490     -0.84555506     -2.48769624
O      -1.03543516      1.42521974     -3.86509995
H      -1.45255681      2.21615667     -3.39161277
H      -0.35990596      1.77704447     -4.53116515
O       2.57952215     -4.45249126     -1.02205630
H       1.72815552     -4.80613669     -0.60507653
H       2.32610223     -3.77574563     -1.73025958
O       1.63055539     -2.64376521     -3.24297068
H       1.86561933     -2.49511655     -4.21580647
H       0.62860964     -2.54520105     -3.14222208
O       3.46405029      1.94227091      0.20348430
H       3.23315499      1.63603893      1.13979096
H       2.63118371      2.33798603     -0.21305322
O       4.29618006     -3.44609893      1.42843835
H       3.64765996     -3.25598896      2.18145959
H       4.00459629     -4.29925649      0.96924184
O      -3.23013660      2.54017940      1.31819238
H      -3.52313620      1.79049600      0.70509550
H      -2.56936304      3.11843733      0.81544158
O       1.44237398      3.84544838      1.98792687
H       1.16930843      4.18345330      2.90168268
H       0.73514224      3.19662094      1.66760558
O      -1.04748367      4.75495682      0.02170086
H      -1.60876860      4.83697158     -0.81614912
H      -0.82436919      5.68770524      0.34413219
O      -3.32731117     -2.41367333      0.35678146
H      -2.39457134     -2.80181396      0.41250585
H      -3.86998634     -2.98706883     -0.27605533
O       2.83071625      1.24695899      2.63701080
H       2.00257773      0.72966337      2.90225143
H       3.10624594      1.82426323      3.42095235
O       2.18954429      2.72743324     -3.49679331
H       2.45941394      1.78279030     -3.25476036
H       1.70195330      3.12831156     -2.70602570
O      -3.35119358     -0.97154076     -2.81800607
H      -2.64208544     -1.68754872     -2.90888901
H      -4.25778028     -1.41925147     -2.85565491
O      -2.47162450      3.01920752      3.89757499
H      -2.09702965      2.14918969      4.25325497
H      -2.87896276      2.83894175      2.98909177
O      -0.95035193     -3.51181132      1.15790722
H      -1.03113052     -3.23458899      2.12764135
H      -0.23770093     -4.22711949      1.09292508
O      -0.97903488     -2.67078687      4.00962702
H      -1.96358913     -2.58905649      4.22810888
H      -0.58186646     -3.38446952      4.60684892
O       1.32275100      3.60065441     -1.00851412
H       0.33498167      3.70610949     -0.81628204
H       1.82421327      4.29727165     -0.47276854
O      -1.39838455     -3.16023829     -3.83271095
H      -1.39082660     -2.27975780     -4.33116782
H      -1.64288518     -3.89131945     -4.48807352
