88
charge=0
Cl      2.95963284      1.96568966     -0.54995417
Cl     -1.33827746      2.98708675      1.66697980
Cl     -1.37509702      0.03916382      2.96610237
Br     -0.83639026     -3.35439920     -0.56935783
Br      1.85163488     -1.40287996     -3.40043226
C      -1.00912987     -1.79148489      0.54476019
C       0.73574777      0.54829831     -0.76368268
C       0.20311832      1.02915640      0.42605639
C      -2.09523141     -0.98765849      0.50311804
C       2.73509982     -0.77535749     -0.19441008
C       2.58795128      0.25769591     -2.49509384
C      -3.48919612      0.75667500      1.68104172
C       2.22535843      0.41542053     -1.03006719
C      -1.22288822      1.42258161      0.71723700
C      -2.10948699      0.29310703      1.35349026
H      -0.16520500     -1.53278708      1.22813583
H       0.02032399      0.40248990     -1.59268020
H       0.82074161      1.25856283      1.25884291
H      -2.90057116     -1.16168310     -0.24036049
H       3.73676296     -1.07840896     -0.41659592
H       2.11721048     -1.66912071     -0.25034308
H       2.70539638     -0.48589942      0.86761589
H       2.16149312      1.09730593     -2.96892696
H       3.66748311      0.22609710     -2.58092334
H      -3.92110212      1.14604714      0.74424263
H      -3.51183756      1.51582120      2.47578848
H      -4.10915307     -0.00090242      2.04379795
H      -1.66559929      1.57231807     -0.26585458
O       4.32998389      0.97680086     -5.47686069
H       4.85733724      1.66367401     -4.95353706
H       3.67087823      1.46804680     -6.06678920
O      -0.59220315     -3.19069141      3.78391612
H       0.17363071     -2.53125419      3.73496055
H      -0.85319994     -3.29902407      4.75546603
O      -0.50472734      1.09786144     -4.63451352
H       0.10712623      1.90326452     -4.60766798
H      -0.68819523      0.87362522     -5.60395444
O       6.03963128     -2.04065491     -1.64086338
H       5.28878551     -2.60914964     -1.27099267
H       6.15304665     -1.23669857     -1.03708207
O      -5.93406189      2.80726079      2.48434655
H      -5.92193586      2.68534185      1.47998094
H      -5.48312658      3.68685711      2.70051478
O      -5.75826617      2.85381794     -0.32476780
H      -5.11652192      2.65887254     -1.08234457
H      -5.94925880      3.84743448     -0.32131910
O      -5.41364664      1.53605099      5.42553649
H      -4.43041782      1.44842022      5.64766631
H      -5.49499978      1.78450338      4.44808354
O      -3.67753246     -2.89944399      3.15461635
H      -4.18526630     -2.40462523      3.87650230
H      -2.75342463     -2.49339818      3.08451870
O       0.46273947     -5.29705744      2.11115238
H      -0.15333651     -4.69246141      2.63905040
H       0.68377729     -6.10043960      2.68515815
O      -2.25972168      0.01053095     -3.08180311
H      -1.52581454      0.55159805     -3.52042667
H      -2.16293317     -0.95158394     -3.37967397
O       4.16873431     -4.07526245     -0.98842198
H       4.07594677     -4.42643401     -1.93279082
H       3.33295583     -4.32506292     -0.47574756
O      -5.49326172     -2.77692072      1.03405712
H      -4.64624390     -2.60825865      1.56119341
H      -6.28301345     -2.57952442      1.63496248
O       6.72148460      0.00959873      0.53937789
H       6.39838894     -0.49923062      1.35206699
H       6.84297660      0.97907065      0.80229279
O       0.54916381      3.77691493     -1.66953377
H       1.43166542      3.93583751     -2.13825087
H       0.48077223      4.42728639     -0.89745874
O       5.00718119     -1.49418228     -4.40810668
H       4.58693745     -0.57876171     -4.31238882
H       5.30593597     -1.80122185     -3.49146584
O      -3.78918631      2.45818735     -2.29434002
H      -3.31637362      1.56617166     -2.22709649
H      -3.10122959      3.16280349     -2.52671222
O      -2.67985339      1.77548884      5.83863472
H      -2.05518718      1.03803512      5.53910730
H      -2.30906962      2.17591032      6.69065829
O       2.53964774      4.22867057     -3.46452215
H       2.08264222      4.39347247     -4.35207348
H       3.37339874      3.68169643     -3.63610722
O       1.99560872     -5.14654380     -0.01747608
H       1.29399658     -5.16430591      0.71134802
H       2.41370184     -6.06614071     -0.07493019
O       2.81964521      3.16265689      2.56300681
H       3.79423597      3.24126239      2.82330275
H       2.77122257      2.72856696      1.65032858
