93
charge=0
O      -2.13492742      0.74392791      4.19222938
O      -0.29232263      2.11230036      3.58816023
O       1.11737372      1.77455181      1.82693113
O       1.88820476     -0.17740725      0.64502001
O      -1.68126516      0.87266800     -1.65198438
O       0.46388862     -2.40858002     -2.06339173
N       0.15553235     -0.19876240     -2.66818634
C      -1.66375866      1.79609776      3.30255620
C       0.55870294      1.15956301      2.94371477
C       2.26436735      1.02668639      1.39365902
C      -0.98071812      0.76144097     -2.87527065
C      -0.02367377     -1.59723339     -3.15278997
C       1.80426597      0.00453472     -0.80370187
C      -0.71628804      0.72251798     -0.60676097
C      -0.02883196     -1.76258613     -0.85550543
C       0.34042714     -0.32074331     -1.15896524
H      -3.13048237      0.61541795      4.20192345
H      -1.89794651      1.58006426      2.28961462
H      -2.22607253      2.65110729      3.62413990
H      -0.07433295      0.29272078      2.55461553
H       1.26361362      0.66098212      3.64265421
H       2.83403037      0.60906406      2.25427990
H       2.95449008      1.75262321      0.85993643
H      -1.62130707      0.43994306     -3.67914915
H      -0.61905499      1.71257973     -3.15662743
H      -1.11000476     -1.87306752     -3.29741344
H       0.63700912     -1.75088048     -4.06841266
H       2.12515816      0.97660777     -1.00717544
H       2.48442527     -0.62699378     -1.36097189
H      -1.13522174      0.36776302      0.35052298
H      -0.18115758      1.63153519     -0.46805738
H       0.41386128     -2.12731408      0.07554531
H      -1.12219097     -1.90727949     -0.80570519
O      -0.49824593     -5.00979636      0.27331709
H      -0.23015736     -4.46408488      1.08207458
H      -0.26940940     -5.97819768      0.45660734
O      -4.23924906      2.93071012      1.85237875
H      -4.71485582      2.65172222      1.00401278
H      -4.14681428      2.11549273      2.44452361
O       2.26985101      0.72881459     -4.02693367
H       2.35824092      0.29340983     -4.93598338
H       1.50567055      0.28231977     -3.53659606
O       2.26291771     -1.89956358      3.23613401
H       1.84526679     -2.24938215      4.08875107
H       1.70246238     -2.21886872      2.45658757
O      -1.17696517      2.92597764     -5.14249691
H      -1.65929555      2.05302230     -5.31298611
H      -1.63471217      3.64949441     -5.68171136
O      -0.81088896      1.85569274      6.66719652
H      -0.69162246      1.82847023      5.66280821
H      -0.07191181      1.30689614      7.08731057
O      -3.16275580      0.74852703      6.67223558
H      -3.84930729      1.48024791      6.80259097
H      -2.30045073      1.17714168      6.36162274
O      -2.31202946      0.37470219     -5.99437161
H      -1.54912945      0.10846376     -6.60335618
H      -2.86576381     -0.45039592     -5.80371004
O       2.97418000     -3.55598924     -3.60375632
H       3.51794600     -4.39750877     -3.74490014
H       2.24273549     -3.53250022     -4.30246816
O       2.49234066     -0.98320478     -6.08727396
H       2.24017129     -1.96097485     -6.15159625
H       3.36537460     -0.84975297     -6.58099710
O      -4.79478481      0.61182734      3.44291426
H      -5.64265602      0.86155413      3.93536918
H      -4.91496317     -0.31671165      3.05933224
O       4.21438912      4.57963952      0.89840170
H       3.37848902      4.25033095      0.43301341
H       4.82295760      4.98859396      0.20114779
O       4.81768842     -2.09809360     -1.13183735
H       5.17069545     -1.32363012     -0.58470487
H       4.37347875     -1.72250203     -1.95970764
O       4.42135660     -0.43343064     -3.30125317
H       5.00766971     -0.45543668     -4.12557833
H       3.52265349     -0.04985809     -3.56386879
O       3.73167394      1.15217210      4.71374354
H       4.43769304      0.98829979      4.00773883
H       3.84212366      2.09777226      5.05638228
O       0.10955691     -3.45917929      2.45457044
H       0.14265894     -3.47200630      3.46575731
H      -0.75497624     -3.01516517      2.17315082
O      -4.54041966      0.80815791     -1.58110728
H      -4.74450324      1.66842692     -1.08912232
H      -3.54998451      0.62146898     -1.49197097
O      -2.92582852     -3.53113637     -3.57968795
H      -2.22234005     -4.18562158     -3.26264723
H      -3.64042865     -3.46644164     -2.86629901
O      -2.12360127     -2.11473574      2.10495222
H      -2.24378821     -1.80988905      3.06223254
H      -2.94987544     -1.85076408      1.58403873
O      -0.20690321      4.15764207      1.38741255
H      -0.23874163      4.75470046      2.20366475
H       0.24130224      3.28919400      1.64946788
