110
charge=0
O      -1.51970039     -1.99614805      3.87077475
O      -2.22045884     -4.26336216      3.52275175
Cl      2.63170558      4.53878128     -2.13220826
Cl     -0.83776570     -0.58230915     -0.79033356
Cl      1.79701540     -3.77390361      0.90984606
Cl      1.37242928      0.47144145      1.33658963
Cl     -2.71167817     -0.24592112      1.89742861
Cl      1.34985599     -1.37820333      4.01414841
O      -0.03365341     -3.83419939      4.39120694
O      -0.58815271     -3.32813667      2.02703659
C       3.49279369      3.80423959     -0.81730764
C       3.70990721      4.47622116      0.29615578
C       4.42178920      3.95770941      1.50152896
C       4.88096646      2.50535609      1.41888079
C       5.51252967      2.06677136      2.73989162
C       6.02909505      0.62571147      2.73288952
C       4.99322951     -0.41837807      2.30899847
C      -3.57246071     -2.75443973      1.21126962
C       3.74119196     -0.37815553      3.18666872
C      -1.35795830     -1.90917989      0.25167587
C       1.12136626     -2.12586513      0.79586747
C       2.12431594     -1.12900619      1.38921005
C      -0.31908186     -2.11055991      1.37834084
C      -2.77952842     -1.57064772      0.69295549
C       2.67786909     -1.39878291      2.78346899
S      -1.08831403     -3.34651669      3.55100074
H      -0.84150869     -3.77819755      5.97636347
H       3.80807864      2.79715663     -1.02307479
H       3.33823602      5.48784848      0.39242497
H       5.27961404      4.60912288      1.69648040
H       3.74027255      4.07324597      2.34931087
H       5.60641730      2.39000824      0.61226394
H       4.01648650      1.88300914      1.19407226
H       4.78504403      2.18987983      3.54358774
H       6.35420762      2.72570883      2.96724857
H       6.39369405      0.38711241      3.73432030
H       6.87675218      0.55649458      2.04791304
H       5.44808510     -1.40883267      2.37864111
H       4.74198280     -0.24553026      1.26422551
H      -3.05456415     -3.28674242      2.00118410
H      -4.53816439     -2.41832251      1.57967524
H      -3.74137509     -3.44391851      0.38655686
H       4.02441017     -0.57759253      4.22050518
H       3.29042737      0.61191034      3.15089335
H      -1.37851695     -2.80964094     -0.37012470
H       1.06110856     -1.91488323     -0.27625111
H       2.97788059     -1.08003564      0.70355373
H      -0.41763752     -1.30393153      2.11387111
H      -3.31227562     -1.13456067     -0.16275085
H       3.09667452     -2.40902061      2.80262993
O       1.78149530      0.46046001     -2.02442640
H       1.37257466     -0.33867757     -2.41049902
H       2.16576703      0.95948982     -2.78036333
O       4.00834038     -0.66039266     -1.12198194
H       3.91168337     -1.55247474     -1.48274924
H       3.16507973     -0.19764913     -1.34815176
O      -0.67612383     -0.60418699     -4.84683017
H      -0.49880619      0.35665904     -4.75663548
H       0.05504924     -1.04795064     -4.39680048
O      -4.11648070      0.12626722     -1.57130796
H      -3.65848446     -0.33024562     -2.29254317
H      -3.57923920      0.91508059     -1.36573528
O      -4.00729441     -1.44449738      4.72751880
H      -4.69052554     -1.29457007      4.03470377
H      -3.14892556     -1.46659350      4.25924367
O       0.04823244      1.93433371     -4.36105604
H      -0.14101943      2.17203565     -3.43820358
H       1.00625017      1.95934440     -4.46613577
O      -1.47483862     -3.54061380      6.68188365
H      -1.38634130     -2.56512956      6.79482362
H      -2.83154120     -3.73601344      6.14377198
O      -3.67169765     -3.80741750      5.50332872
H      -3.94855232     -2.81754453      5.25701853
H      -3.20696704     -4.13540987      4.64450525
O      -5.58903846      0.66214742      0.71640644
H      -5.03544357      1.42285339      0.90930209
H      -5.26675627      0.33244298     -0.13834843
O       1.07261823     -1.94277087     -3.06103652
H       1.84286685     -2.47286899     -2.81493911
H       0.27990249     -2.44615861     -2.78388064
O      -1.49030100     -0.89714804      6.35168249
H      -2.38104156     -0.53615217      6.37485362
H      -1.31902754     -1.10714346      5.41765379
O       0.66192095      3.66878644      1.02517802
H       0.21069897      3.26147318      0.27584086
H       0.84239522      2.95845208      1.64273435
O       0.07634725      2.51279544     -1.60295602
H       0.63228632      1.70790890     -1.53600811
H       0.68378001      3.25508123     -1.70502426
O      -2.79322724     -1.38780559     -3.55404175
H      -2.01351127     -0.99428836     -4.04337227
H      -3.45469086     -1.57234661     -4.22239351
O       5.24876971      1.03517970     -2.82265982
H       4.90858479      0.42016571     -2.13552807
H       5.99970732      0.60475644     -3.23117456
O      -5.85015068     -1.03406260      2.80147475
H      -5.69518722     -0.41652170      2.05016953
H      -6.73925965     -0.85174018      3.10806486
O       3.25576398     -3.29853655     -1.87298597
H       2.88350259     -3.58146780     -1.02154466
H       3.80293642     -4.01758842     -2.19369738
O       2.94708996      1.93207083     -3.93908079
H       3.84441962      1.61712072     -3.70894129
H       2.92429882      2.85469299     -3.65373399
O      -2.54320030      2.12865768     -0.54448711
H      -2.30020072      1.68549409      0.27482088
H      -1.71469769      2.30896843     -1.01027986
O      -1.21892053     -3.31904699     -2.53373220
H      -1.85397362     -2.62123478     -2.81615137
H      -1.33042884     -4.04539134     -3.14909244
