93
charge=0
N      -3.41022702      4.30638040      0.15524743
N      -2.85115745      3.62457859      1.17932855
O      -1.59098247      3.35053368     -0.57080137
C      -2.63899377      4.12466636     -0.86073219
C      -1.77315851      3.05878165      0.72491941
N      -0.99432874      0.78366105      1.36601327
C       0.61704525      2.66012101      1.14328298
C      -1.64349556     -1.32035704      2.55705637
C      -3.26523593      0.58524603      2.53304847
C      -2.59666702      0.10601587     -0.50007550
C      -0.31069837     -0.88571725     -0.35071673
C      -0.80937686      2.23128688      1.51312696
C      -1.77998167      0.19839842      2.46445106
C      -1.15998245      0.34574309     -0.03019737
H      -2.77109890      4.51735102     -1.84542491
H       1.30721597      2.33437499      1.91474452
H       0.67126441      3.74342771      1.07021972
H       0.90603031      2.23618927      0.18723887
H      -0.60349480     -1.62945118      2.55940022
H      -2.09802740     -1.64730736      3.48965223
H      -2.15637629     -1.82344490      1.74513258
H      -3.40655900      1.62620082      2.26243144
H      -3.61326862      0.45465274      3.55447563
H      -3.87456302     -0.03588117      1.88468539
H      -2.58749520     -0.03933592     -1.57699947
H      -3.24104574      0.95323629     -0.27857917
H      -3.01547170     -0.78802144     -0.04878646
H       0.71804238     -0.73142847     -0.04832878
H      -0.70039098     -1.77367496      0.12826558
H      -0.32547400     -1.03925723     -1.42556733
H      -0.98796529      2.48324386      2.56274255
H      -1.31322795      0.61384153      3.36605261
H      -0.75250804      1.15698785     -0.63912681
O       1.32062685      1.59101991     -1.88456682
H       1.89635443      0.81711396     -1.74204003
H       0.98089566      1.48946118     -2.79384815
O      -2.05340020     -3.81352096      0.32283780
H      -1.30109300     -4.15037797      0.85982726
H      -2.68957065     -4.52816388      0.28273969
O       3.62989124      0.64460132      0.71258181
H       3.44385079      1.56535030      0.52040188
H       2.91975023      0.34415488      1.31015501
O       1.04095702      4.28740743     -1.93972689
H       1.15815992      3.32538176     -1.80489715
H       1.86122023      4.60160573     -2.32300830
O       1.05465219      0.54823212      4.85643590
H       0.55733015     -0.11003694      5.34474073
H       0.50091447      1.35233897      4.84040543
O      -0.20510030     -2.22338118     -3.85359587
H      -0.17871247     -2.87482475     -4.55633007
H       0.67009110     -1.73080470     -3.92393778
O      -0.65454146      2.67033172      4.80623187
H      -1.59714554      2.53538977      5.05211444
H      -0.42464379      3.55980035      5.07700840
O       1.99667108     -2.73450967      2.00052475
H       1.79545588     -1.77253621      2.10215130
H       2.85721900     -2.87185667      2.39826783
O       2.31695903     -3.05787514     -0.75570800
H       1.47882636     -3.40816215     -1.11408920
H       2.18652729     -2.95402412      0.20010541
O      -2.87553625      2.28234458     -3.24781062
H      -2.52275558      1.39722461     -3.42878572
H      -3.69044112      2.35793777     -3.74605413
O      -1.90799653     -0.19151032     -4.22322672
H      -2.29414619     -0.41057778     -5.07269716
H      -1.34827664     -0.96289842     -3.97063211
O       1.51399619     -0.14440498      2.29301607
H       1.45688649      0.10170043      3.23891118
H       0.66211518      0.13575488      1.89156132
O       0.39275996      1.41308464     -4.44706387
H       0.10531399      2.35573904     -4.47177004
H      -0.42935779      0.90049261     -4.40194499
O      -0.67148781      3.81864791     -4.03856056
H      -1.47542996      3.41271406     -3.67668496
H      -0.14891041      4.11142844     -3.26715803
O      -4.24835042      4.12808349      3.52655313
H      -3.71855186      4.04575364      2.70881062
H      -5.16389035      4.07994984      3.24611488
O       1.97846782     -0.86290786     -4.19046423
H       1.64281699      0.02046049     -4.40594503
H       2.46525224     -0.77695167     -3.35258179
O      -0.09423236     -3.96730076     -1.66941635
H      -0.19135602     -3.34194008     -2.40446883
H      -0.84944973     -3.80412196     -1.07870536
O       2.93836302     -0.60753331     -1.62826228
H       2.72316579     -1.53223563     -1.36616402
H       3.42632265     -0.24225894     -0.86961778
O       0.23146134     -4.77432206      1.34657115
H       0.59743075     -5.00229204      0.48583692
H       0.80246919     -4.07266351      1.69932570
O      -3.25871288      2.51844488      5.44071662
H      -3.64546051      3.05305928      4.71230356
H      -3.55220621      2.92992631      6.25498764
