78
charge=0
Cl      4.00521361      3.22032166      0.00163581
Cl      0.81700777      4.10623867     -5.93122219
Cl      0.72834386      5.86975024     -3.38280796
Cl      1.54076554      1.09496195     -5.70162604
Cl      1.17256411      4.60347597     -0.60438623
Cl      2.22201554     -0.11445070     -2.94327693
Cl      1.78088726      2.87072709      2.51559013
Cl      1.64085358      0.11759141      1.69044087
Cl      4.17600707      1.25116510      2.38282771
N       1.91661757      1.71138953     -0.66616254
C       2.73072923      2.05734073      0.21086445
C       1.14160059      3.41738587     -4.40290429
C       1.08264536      4.20421828     -3.25460840
C       1.47046741      2.06752917     -4.29847163
C       1.34797016      3.64169786     -2.01055357
C       1.75605475      1.51322633     -3.05446764
C       1.71288365      2.29322654     -1.89476099
C       2.60860010      1.55272434      1.61795382
O      -3.24834642     -0.93811038      0.11587765
H      -3.13120181     -1.02798509      1.06851637
H      -2.37306603     -1.00910971     -0.28340707
O      -2.93990137      1.68185296     -3.13572766
H      -2.54888368      2.54932186     -3.35330906
H      -2.22128708      1.03741991     -3.25669249
O      -0.94320905     -2.87864127      1.02597173
H      -1.50055251     -3.51276766      0.57261762
H      -0.69540140     -2.19190963      0.35460055
O       1.67457781     -3.19259499      1.86915922
H       1.72609747     -2.65725454      2.67531271
H       0.72683364     -3.25848726      1.67285049
O      -1.31786081      1.21440294      2.72092439
H      -2.05249324      1.82491545      2.81190899
H      -1.69525904      0.29746501      2.72793256
O      -0.71567046      1.46491310      0.07306435
H      -1.64802461      1.55532999     -0.24416550
H      -0.78390760      1.38471975      1.04153253
O      -1.90240117      4.14802134     -3.64137999
H      -2.00975528      4.69639884     -2.83140717
H      -2.45935027      4.55820105     -4.30515515
O       0.44718783      0.59956293      4.71705169
H      -0.05826136      0.93558067      3.95249826
H      -0.20934340      0.30600429      5.35436131
O      -2.11809794      5.69837767     -1.45227006
H      -1.31000599      6.19749008     -1.31856066
H      -2.22232332      5.12891943     -0.65810459
O      -2.18909485     -1.27469263      2.81423738
H      -1.95072679     -1.54258676      3.72093956
H      -1.67619532     -1.87571465      2.23749313
O       2.11985927     -2.02623884     -0.50967843
H       2.05642127     -2.47511665      0.36311024
H       2.79466063     -1.32483519     -0.41040128
O      -2.16396664      3.94794771      0.59925681
H      -1.30363634      3.52633650      0.48121357
H      -2.80653307      3.29896706      0.26558113
O       3.44070256     -3.49050627     -2.32832603
H       2.84127256     -2.99569088     -1.72533204
H       3.70986824     -4.27775607     -1.85284464
O      -1.06803642     -2.16829912      5.13856660
H      -1.27129296     -3.06746820      5.39800497
H      -0.13446344     -2.16213688      4.84958128
O      -0.34988435     -1.00463327     -0.75420869
H       0.59476917     -1.27512626     -0.79170003
H      -0.34905903     -0.06267283     -0.43287552
O      -3.29639683      1.71333210     -0.53789514
H      -3.57589683      0.80758483     -0.31993482
H      -3.27844350      1.74727689     -1.52966811
O       5.17400072     -1.44215127     -2.56726095
H       4.94804400     -0.99011033     -3.38183197
H       4.61411542     -2.25047607     -2.55132914
O       4.23072534     -0.31011477     -0.33466472
H       4.85553528     -0.59152342      0.33716147
H       4.61199841     -0.62316340     -1.18986882
O       1.52107770     -1.78784156      4.30399145
H       1.24984976     -0.83651468      4.32647030
H       2.30835105     -1.85487938      4.84590323
O      -0.91158577     -0.18426641     -3.31724452
H      -0.71777174     -0.51898843     -2.41998101
H      -1.08090439     -0.95007718     -3.86709076
