95
charge=0
F       4.92757360      1.19245903     -4.47420800
F      -1.58173224      0.45731833      5.29324914
F       0.11504204     -0.73497062      4.75241843
F      -1.78266323     -1.06184491      3.80412317
N       2.76627195     -1.27192626     -0.65236538
O      -1.73983193     -0.44794090      0.87052874
O      -0.07144465     -2.14675354     -0.71775119
O       1.46058073     -0.03984831      2.52698442
O       0.03438831      1.96808401      3.83525777
S       3.02476772      1.03001014      0.56979591
C       3.28100677     -0.11111162     -0.77520644
N       4.03609042      0.30165894     -1.79072516
C       5.34703949      0.04817577     -3.82940168
C       4.22309853     -0.51060543     -2.97428854
C      -0.94939071     -0.10257286      4.26016827
C       1.90339028     -1.39779683      0.48797845
C      -0.43435885     -0.80169192      1.26507219
C       0.20651018      0.36551355      2.01868839
C       0.45865294     -1.08101218      0.04428664
C       2.38221732     -0.40208417      1.56532096
C      -0.62684690      0.93421442      3.18160190
H      -2.16427533     -1.23185987      0.41706693
H      -0.67429929     -1.74789391     -1.39405165
H       0.32564136      2.64929278      3.17008016
H       4.21820365      1.30020906     -1.86032718
H       6.21485588      0.33001265     -3.22702687
H       5.63342115     -0.65996165     -4.61090328
H       3.30653191     -0.55598605     -3.57464596
H       4.47696523     -1.52550793     -2.66052457
H       1.95007513     -2.41621946      0.88333499
H      -0.45377101     -1.69577787      1.90069678
H       0.35238732      1.19773771      1.31100907
H       0.49390440     -0.17646976     -0.57428965
H       3.24123108     -0.80938260      2.10957429
H      -1.59985555      1.26389335      2.78104490
O       0.94865763      3.61788027      1.95549059
H       1.88853964      3.78830077      2.04144218
H       0.79916562      3.35697719      1.02855520
O      -0.01253759     -4.31069952      1.01632575
H       0.51864161     -5.00549272      0.62446156
H      -0.05704713     -3.58709703      0.36800834
O       1.93086472     -3.22019370     -2.37219204
H       1.09098294     -3.26452323     -1.89750351
H       2.47216320     -2.62805201     -1.81270863
O       3.17428067     -0.87318620      5.69034765
H       2.28378241     -1.22363035      5.62265376
H       3.09540795      0.08281541      5.49862498
O       2.74578660      1.60923468      4.63764329
H       1.78857112      1.75306666      4.63427986
H       2.95528303      1.26272933      3.76567756
O       4.24712894      3.14539829     -2.03815522
H       3.48373975      3.69546891     -1.73417554
H       5.02285955      3.70452576     -1.99025102
O       0.37614040      2.73278224     -0.57695685
H      -0.59325620      2.65358298     -0.64706640
H       0.71525708      2.06206810     -1.19742632
O       2.03888056      4.57399753     -1.69235344
H       1.39451201      4.01763401     -1.21425334
H       1.78221025      4.52819620     -2.61827398
O      -4.37573861      0.53142884      0.79662049
H      -3.52316376      0.31033079      1.19103164
H      -4.96317689     -0.19232007      1.06955497
O       4.57740528     -1.51854135      3.45465211
H       4.08819155     -1.35046376      4.28850377
H       5.48147115     -1.69352160      3.71855220
O      -2.71749915     -4.61053196      1.27404707
H      -1.74914920     -4.63613151      1.36562468
H      -2.88130111     -3.99742146      0.54434633
O      -3.23016867     -2.32592745     -0.28856560
H      -4.03752352     -2.21406695      0.25785081
H      -3.44081192     -1.93059806     -1.14264632
O       2.41819283      2.75051740     -4.10180327
H       3.18846086      2.82991339     -3.51132890
H       2.74606844      2.32043190     -4.89372597
O      -4.07333837     -0.15220541     -1.81080266
H      -4.54093711      0.44369954     -2.39587178
H      -4.21048573      0.18338567     -0.89551567
O       1.10984683     -1.26929151     -4.00931939
H       0.16359473     -1.41774689     -4.08922419
H       1.46216671     -2.04490058     -3.51361434
O      -2.16264002      1.84785565     -0.66055699
H      -1.95364876      1.01774850     -0.19676673
H      -2.96889937      2.17838393     -0.25963736
O      -1.43271839     -0.66110080     -2.48253942
H      -2.33963931     -0.37823594     -2.27515171
H      -0.89529613      0.14326009     -2.52355910
O      -4.00471800     -3.25057412      3.16979904
H      -3.53402363     -3.87274340      2.56289198
H      -3.32453468     -2.76248208      3.63723026
O      -5.35639091     -1.95642327      1.35919825
H      -4.89456619     -2.39379521      2.12950407
H      -6.17902931     -2.43345906      1.24569649
O       0.90607868      1.02021679     -2.60776751
H       1.07861793      0.16899987     -3.06437759
H       1.33617009      1.68877541     -3.17401519
