110
charge=0
O      -0.80220350      4.02439104      1.22976782
O       2.03193930      3.68607401     -1.55042962
O      -1.23879960      1.95491295      0.92791938
O       1.13167509      4.98035487     -0.08798918
N       1.20070801     -2.27551755     -2.23229019
C       1.21942332     -1.04495524     -1.82447382
C       2.31020481     -0.25499364     -1.36813125
C       2.04115963      0.98585219     -0.89664900
C      -0.36963437      0.77839405     -1.29209990
C       0.70403913      1.50643191     -0.82096370
C      -0.12185985     -0.47832178     -1.82164269
C       0.48965414      2.80249506     -0.19935060
C      -2.28991066     -1.59406862     -2.00202189
C      -2.60189992     -2.67990916     -1.27446016
N      -0.93007420     -1.42236503     -2.29864424
N      -0.55134864      2.96402182      0.67812942
N       1.25639921      3.87674355     -0.59550146
C      -3.27402459     -0.54797073     -2.41086038
C      -3.99109020     -2.94470336     -0.79998586
C      -1.51871040     -3.67988513     -0.97698457
C      -4.67124037     -1.16101561     -2.43632528
C      -4.95615718     -1.79184225     -1.07755063
C       1.00518621     -3.82169633     -4.55193742
C       0.53870505     -5.14535618     -3.93972664
C       0.06487298     -2.65322421     -4.24957482
C       0.22661992     -5.01033542     -2.44789578
C      -0.10449426     -2.56054252     -2.70616452
C      -0.78200562     -3.88261672     -2.29667152
H       3.31180805     -0.65093561     -1.40021001
H       2.84562583      1.60263728     -0.53040865
H      -1.36569339      1.17707970     -1.27331067
H      -3.27528812      0.26927811     -1.68924884
H      -3.00317507     -0.13221793     -3.38184678
H      -3.95187533     -3.15411524      0.27088550
H      -4.34274816     -3.85711678     -1.29406393
H      -1.93671219     -4.61900388     -0.62099357
H      -0.84988822     -3.30880158     -0.19920717
H      -5.40385778     -0.38473401     -2.65359747
H      -4.73469413     -1.91884177     -3.21988816
H      -4.84246671     -1.02795725     -0.30920274
H      -5.98193715     -2.15920489     -1.03455699
H       1.08310683     -3.93239389     -5.63493316
H       1.99424636     -3.58200761     -4.16284548
H       1.31709886     -5.89337759     -4.08688585
H      -0.35865267     -5.48886606     -4.46147136
H       0.48763887     -1.71903588     -4.62363105
H      -0.91506839     -2.80176315     -4.70466797
H      -0.20488932     -5.93884449     -2.07436453
H       1.13204901     -4.80565964     -1.88434045
H      -1.56752714     -4.06653341     -3.04130171
O       0.37175786     -3.33180444      2.79525753
H       0.25491463     -2.56906761      2.18334167
H      -0.00842719     -4.09304076      2.31365042
O       0.70699939      0.74164492      2.82843661
H      -0.14375552      0.88706818      3.26381044
H       1.23694709      0.21127071      3.45350318
O      -0.81381266      6.05927626     -1.90603898
H      -0.25560179      5.74875346     -2.63661799
H      -0.24314710      6.11640415     -1.12875368
O      -2.08893998      1.07799646      3.36898733
H      -2.71881022      1.69775410      3.74414953
H      -1.85059817      1.46475333      2.50558099
O      -0.85841707      2.43087849     -3.58001907
H      -0.40627203      3.18860663     -3.97169347
H      -1.71220977      2.31117551     -4.04073531
O       2.37913592     -5.54750830      0.44770096
H       2.76266187     -5.21015122      1.26865698
H       2.78712763     -5.01668759     -0.26604581
O       2.02416662     -1.26368793      4.12001414
H       1.33978970     -1.93604654      4.01915229
H       2.57536625     -1.31909430      3.32187272
O      -1.99918256      3.67042460     -1.45054595
H      -1.55894087      3.21275706     -2.19702950
H      -1.76849071      4.61513433     -1.55374065
O       0.13429080     -1.23022093      1.11384705
H      -0.84643583     -1.18733613      1.11128378
H       0.38442310     -0.43725094      1.64909654
O      -3.82993826      1.34295036      0.41001711
H      -2.90539759      1.64604816      0.39294108
H      -4.21217467      1.87980359      1.11573209
O      -3.44426600      2.09938560     -4.39908535
H      -3.87169702      2.25801058     -3.52266361
H      -3.85206961      2.72719615     -4.99686121
O       0.86505185      4.71709849     -3.77644243
H       1.40651313      4.30898431     -3.07232654
H       1.48058905      5.17046144     -4.35410265
O       3.00858346     -1.73235829      1.52599492
H       2.12897538     -1.60366366      1.14837030
H       3.04942582     -2.66130919      1.83535361
O      -4.43881007      2.73393909     -1.99167094
H      -3.63015690      3.24284486     -1.76009873
H      -4.54111514      2.11902162     -1.25213642
O      -3.42968756      3.50231071      2.28023544
H      -2.53894782      3.74597831      1.97117552
H      -3.92767122      4.32006477      2.28229888
O      -0.17120641     -5.47215389      1.21665979
H      -0.28715791     -6.31593747      1.65469120
H       0.73536033     -5.50190604      0.82488154
O       4.96453546     -1.83352933     -0.32704377
H       5.82062503     -1.92668273      0.09140326
H       4.31318841     -1.68576709      0.39119569
O       3.43673683     -3.86051542     -1.40683785
H       2.72654838     -3.30933825     -1.76833871
H       4.10558837     -3.23379349     -1.08137481
O       2.87843228     -4.11036916      2.78916697
H       1.90990193     -3.89206271      2.87436777
H       3.23952540     -4.10591780      3.67625031
O      -2.53155498     -0.95671718      1.48935207
H      -3.03811747     -0.31611466      0.96735354
H      -2.41657167     -0.52229203      2.34911449
