96
charge=0
N       1.36199109     -7.07163076     -2.36776609
C       1.29853077     -6.27012683     -1.54446186
O       1.40307111     -5.28690797      0.66482236
O      -1.71790910      2.22497411     -1.39568107
C       1.08068383     -4.10141731      1.19266619
C       1.13247714     -5.20876924     -0.65850343
C       0.63502547     -3.96663879     -0.97544225
C       0.59847851     -3.23613622      0.23664758
C       0.22561447     -1.21934759      1.64217891
C      -0.26672506      0.05580122      1.79709654
C      -0.45680644     -1.19155403     -0.65885886
C       0.12334662     -1.87344240      0.41153146
C      -0.87691359      0.72087201      0.73076953
C      -0.94813538      0.09467148     -0.52175355
N      -1.32375236      2.01885618      0.87074354
C      -2.50992203      3.97145428      0.02742241
C      -0.55079634      0.81321449     -2.88947110
C      -2.86953476      0.20571462     -2.12996150
C      -2.27171672      2.47666437     -0.12447486
C      -1.53183470      0.82807045     -1.71229230
H       1.24234279     -3.98273151      2.24576421
H       0.34841245     -3.64468277     -1.95418566
H       0.69537123     -1.71302378      2.47603080
H      -0.17149065      0.56124953      2.74364974
H      -0.53360026     -1.67792665     -1.61554761
H      -1.51108340      2.33170559      1.81806406
H      -1.58553199      4.52272670     -0.11834392
H      -2.89190158      4.17540930      1.02288018
H      -3.23538394      4.30912776     -0.70568726
H      -0.45773848     -0.19119058     -3.28758169
H      -0.91113137      1.46602194     -3.67985256
H       0.43317900      1.15719613     -2.58026842
H      -3.26798093      0.74248504     -2.98728904
H      -3.58702223      0.25713031     -1.31510388
H      -2.73201703     -0.83832382     -2.39029641
H      -3.22585158      1.93083752     -0.01929402
O       3.79631172     -3.20314113      0.01195783
H       3.97493550     -3.78640245      0.78152941
H       4.60759849     -3.17685073     -0.49785464
O      -2.92277545     -3.26772911     -2.15642262
H      -3.50759506     -3.99500270     -2.37370248
H      -2.12885630     -3.37879591     -2.71447799
O       3.75587669     -0.74576957      1.21955221
H       3.67633270     -1.59696129      0.74869758
H       3.28152379     -0.08533970      0.67463960
O       2.30263491      0.94791013     -0.29236927
H       1.48286183      0.48229665     -0.47481669
H       2.05272882      1.81769279      0.08365737
O      -3.91454982     -0.19167852      1.28886854
H      -3.57066960     -1.06507618      0.98997442
H      -4.85996018     -0.30940501      1.39870241
O      -0.15821953     -6.15342199     -4.62663701
H       0.27682046     -6.63952708     -3.90927687
H       0.36026009     -6.32049928     -5.41651232
O       4.11796484     -4.82525779      2.15512825
H       3.62017814     -5.62003520      1.95182282
H       3.60657352     -4.35509344      2.84441392
O       1.22572552      3.23158751      0.70885791
H       1.37748099      3.34473554      1.66823117
H       0.30004351      2.93444652      0.66467085
O      -3.00131169     -2.59530952      0.51682001
H      -3.05006414     -2.77192749     -0.44110569
H      -2.06458590     -2.61159345      0.73219645
O       0.51035100      3.94935240     -1.91902468
H       1.04655939      3.91090541     -1.11558396
H      -0.19832819      3.29598467     -1.79929306
O      -0.23748900      3.59623815     -4.78467879
H       0.28069667      3.74154751     -3.98623782
H      -1.16387220      3.74795280     -4.52961558
O       1.24501461      0.69046033      4.61510226
H       1.47396518      0.81768453      5.53654770
H       1.93204754      0.11174222      4.23000192
O      -2.86002447      0.37602372      3.72832629
H      -3.24083193      0.21104013      2.83900442
H      -2.13820805     -0.24827887      3.82940477
O      -1.88917332      2.86732971      3.60042933
H      -2.46203271      3.47628908      4.06685683
H      -2.24956545      1.96466421      3.76325603
O       0.94580632      3.17272663      3.39990625
H      -0.01402495      3.24913798      3.49348240
H       1.15931200      2.30661534      3.78566678
O      -0.80518285     -3.59815487     -3.86833185
H      -0.90916001     -3.10792792     -4.68629302
H      -0.61444003     -4.52259503     -4.12210172
O      -2.68013407      3.99949283     -3.47645276
H      -2.31987607      4.83022772     -3.11409551
H      -2.50528177      3.32979823     -2.80347837
O       3.25831272     -0.91985009      3.72022276
H       4.11140109     -0.67014154      4.08009012
H       3.37579494     -0.83529647      2.71918815
O       2.60557178     -3.51172345      4.01554098
H       2.81323847     -3.71856798      4.92779365
H       2.81184756     -2.55770384      3.89188184
O      -1.11552562      6.04975480     -2.50422229
H      -0.43562560      5.38904609     -2.26036116
H      -0.78175567      6.49280864     -3.28608239
