110
charge=0
O      -2.43433706      4.10319659      0.96075250
O      -3.85531438      0.34277032     -0.97581329
O       0.53034307      2.00597434     -1.69365325
Cl      2.55329740     -1.56622092     -3.88342927
N       2.83038504     -0.93036426      3.15722779
N       4.44478223     -1.79702649      0.06721830
N       1.05837237     -0.77000848      0.35454315
O       4.00261088     -1.81893592     -1.22222099
O      -2.52924720     -0.49791930     -4.83666469
S       5.14185149     -2.02535594      2.96549034
C      -2.16360313      3.20115558      0.20047989
C      -2.95637547      1.16329627     -0.90637414
C      -0.56106819      2.01221849     -1.16914711
C       3.66753313     -1.39234979      2.27904974
C       3.46205404     -1.44184380      0.86100504
C       3.30999623     -1.04016675      4.40843036
C       4.54413266     -1.61153067      4.50982285
C       2.28993665     -1.18947016      0.08134725
C       0.24400338     -0.67010454     -0.66082928
C       1.86032354     -1.31225225     -2.32435844
C       2.70950926     -1.45740673     -1.23232347
C       0.54626893     -0.92677135     -2.03065215
N      -3.13802665      2.29983836     -0.19195173
N      -0.91885617      3.00085802     -0.30815953
N      -0.51223897     -0.82847019     -2.89637732
C      -1.15676539     -0.25397222     -0.39982365
C      -1.76863589     -2.36052228     -6.11423272
C      -0.41238247     -1.42946903     -4.21205909
C      -3.41998202      1.43930085     -3.87733290
C      -1.55124973      0.87239549     -1.39700284
C      -1.81630917     -1.71852792     -4.73668733
C      -2.71558915      0.11800166     -3.57832257
C      -1.37106723      0.36335824     -2.85290145
H       2.71659103     -0.68457352      5.23138562
H       5.11738925     -1.79630123      5.39472080
H      -4.06413618      2.41079758      0.27924117
H      -0.13204577      3.70729804     -0.01981009
H      -1.26797750      0.08351155      0.63013459
H      -1.82491473     -1.10208515     -0.57168354
H      -1.21637435     -1.72582378     -6.80183615
H      -1.27614668     -3.32528503     -6.04852095
H      -2.77701184     -2.49595226     -6.49440366
H       0.09775483     -0.76782386     -4.92309780
H       0.11876423     -2.37441324     -4.11692651
H      -3.70654302      1.96520164     -2.97327950
H      -4.31515694      1.23242546     -4.45696321
H      -2.76309455      2.07663437     -4.46435823
H      -2.34001334     -2.37930876     -4.02836502
H      -3.34976007     -0.53781306     -2.96582019
H      -0.85389323      1.15617436     -3.42107218
O       0.28807552     -4.46510212     -3.30712172
H       1.19469838     -4.59414248     -2.96598040
H      -0.04184329     -5.34385612     -3.50117778
O       0.31805653     -3.63669805     -0.56373756
H      -0.02283732     -3.79972710     -1.45506632
H      -0.45456133     -3.46322701     -0.00180101
O      -4.10682073      0.03324037      1.89705695
H      -4.54984492      0.86042259      2.12148748
H      -4.19278326     -0.04248372      0.93698227
O       4.67308248      2.98973001      2.39524961
H       3.70898097      2.86397006      2.38624265
H       4.93749457      3.01815159      1.46183705
O       5.99266847      0.82405153      3.12737227
H       6.76364432      1.15028026      3.59365262
H       5.44842623      1.62850112      2.92121135
O      -4.67039813     -2.65698293      1.17500781
H      -4.59651182     -1.93352512      1.80926787
H      -3.75634555     -2.91855204      0.97505611
O      -0.98959980      1.30537510     -6.36850826
H      -1.38385322      1.48464246     -7.22301853
H      -1.57186880      0.66762491     -5.92387870
O       2.55735892     -4.73789351     -1.79702935
H       3.29545907     -4.12552500     -1.83138608
H       1.96498515     -4.43155960     -1.09275774
O      -1.91169975     -3.17852901      1.08810355
H      -1.87519386     -3.99297893      1.59403190
H      -1.78922474     -2.45308808      1.75349729
O       2.94157801      1.46928778     -0.38948643
H       3.79576605      1.92941878     -0.48397484
H       2.33264497      1.84794964     -1.03574375
O       0.97878085      4.54368160      0.55638496
H       1.44571317      3.88336107      1.11358335
H       0.53818335      5.16241656      1.17113457
O      -5.46467799      2.37651417      1.25283739
H      -6.18840377      1.78876041      0.91273045
H      -5.84552098      3.24749016      1.37164679
O      -7.35101898      0.71062936      0.46635029
H      -7.92585291      0.32271804      1.12752000
H      -6.95465835     -0.05277086     -0.02629834
O      -0.66618753      5.80861351      2.30339918
H      -0.66647680      5.51255653      3.21530344
H      -1.41785577      5.37269956      1.86943608
O       6.56499439      0.25059393      0.53912783
H       6.40968999      0.35134027      1.50268258
H       6.07893722     -0.53801922      0.27053002
O       2.01074309      2.45286390      1.90130512
H       1.37697001      1.83627661      2.30592595
H       2.34074510      1.99810804      1.09005190
O       0.39385124      0.34948769      2.72003914
H       1.07633055     -0.01772974      3.30024142
H       0.61872685     -0.05881658      1.84989733
O      -1.82682734     -1.25203355      2.89867266
H      -2.61153326     -0.71773777      2.70445343
H      -1.06829836     -0.63866678      2.94392072
O       5.45617666      2.51505227     -0.26463834
H       5.90897523      1.66737092     -0.01463490
H       6.03330045      2.95789721     -0.88724862
O      -6.13583412     -1.33263563     -0.70974746
H      -5.40775294     -0.85782125     -1.12375631
H      -5.71972886     -1.93568181     -0.06089751
