98
charge=0
O       0.29550820      2.00814640     -0.83433316
Cl      2.23815191      5.81592530      3.20542399
N      -0.12896306      3.47749977      3.08137426
N       3.28115333      3.94790763      1.74993874
N       2.35772851      1.83186593      1.16396878
O      -4.80015007      0.17800201     -0.93414586
C      -0.70553533      2.38406770      2.69689264
C       3.33429252      2.74331458      1.15051062
C       2.21917048      4.28085600      2.45067484
C       1.26821960      2.21450163      1.81076419
C       1.12711616      3.42706207      2.53293798
C      -3.51403705      0.68117610     -0.87402570
C      -3.07067955      1.57789867     -1.85065980
C      -2.65816087      0.30367523      0.16598462
C      -1.76733323      2.01988335     -1.77901792
C      -1.35451610      0.78005893      0.15866866
N       4.46915032      2.42520046      0.51175526
N       0.08479636      1.56910941      1.92875636
N      -0.92879535      1.60670547     -0.82079389
C      -4.90544429     -0.98164062     -1.76585395
C      -3.94065194      2.05011997     -2.96824522
C      -3.10464715     -0.63820604      1.23453059
C      -0.32803184      0.40165091      1.18886932
H      -1.71192637      2.11559921      2.95043740
H      -1.35162654      2.69043431     -2.51453912
H       4.46009885      1.60988197     -0.07829140
H       5.11982476      3.16096683      0.28525438
H      -5.96054975     -1.24592254     -1.77944611
H      -4.31800959     -1.80769016     -1.36055805
H      -4.56584568     -0.76178567     -2.77948370
H      -4.96676625      1.72434516     -2.82906226
H      -3.55226031      1.65963006     -3.90768044
H      -3.91666716      3.13589962     -3.02661920
H      -4.15712596     -0.86902082      1.12810730
H      -2.93450996     -0.22368193      2.22499887
H      -2.53998685     -1.56287353      1.14717447
H      -0.72330608     -0.35126553      1.86469418
H       0.55867336      0.01476134      0.68135422
O       1.94464545      0.48979610     -2.31680339
H       1.37373820      1.06871501     -1.76223075
H       2.39435055     -0.08723224     -1.68314489
O       2.98747771     -0.57228283      0.01485488
H       2.72213684      0.28195893      0.41999041
H       3.42018166     -1.06485929      0.73530554
O      -0.23477303     -0.91654033     -3.39928711
H       0.59694964     -0.48847624     -3.13521873
H      -0.74955141     -0.24263459     -3.87676049
O      -3.10086883     -3.59353634     -0.84392951
H      -2.84806936     -4.45556938     -1.17644364
H      -3.28978272     -3.72158247      0.11589613
O      -1.40290329      1.13101197     -4.85079839
H      -1.36755703      0.88291516     -5.77588950
H      -0.60210672      1.68138369     -4.69654827
O      -3.56082428     -3.91390049      1.77000089
H      -4.33297152     -3.40535260      2.07410177
H      -2.81722759     -3.62395322      2.32015991
O       1.12703702     -2.89864121      2.55572553
H       0.22176809     -3.12250552      2.81878199
H       1.11931671     -2.90658612      1.55905335
O       0.92213085      2.35701674     -4.35660651
H       1.06886695      3.13035839     -3.79202315
H       1.45807814      1.65529256     -3.96835840
O       3.34533128      5.48822534     -0.74368708
H       4.19095027      5.10901362     -1.04733699
H       3.34299621      5.36423769      0.21195837
O       5.57918402      4.07086156     -1.55281200
H       6.14644420      4.47260935     -2.21173871
H       5.01310897      3.42660389     -2.03549074
O       3.79839957      2.51993952     -2.79186239
H       3.05537644      3.15159437     -2.70374765
H       3.38870508      1.65112044     -2.66243922
O      -1.52463291     -2.98204693      3.48879681
H      -1.54934721     -2.03452378      3.74131639
H      -1.63208866     -3.48438237      4.29789348
O       1.23168687     -2.76094243     -0.04876769
H       1.86009663     -2.03963145     -0.20736830
H       0.36934850     -2.45095477     -0.41053730
O      -6.65298019     -0.29005399      1.14945577
H      -6.06898365     -0.07877377      0.40341969
H      -6.82834504      0.53464773      1.60530420
O      -1.04176686     -1.78564183     -0.99872443
H      -1.76332875     -2.43798588     -1.03989037
H      -0.82040155     -1.55140033     -1.92409351
O       1.59441435      4.02219467     -2.22314799
H       2.09571853      4.67253988     -1.69111683
H       1.13551912      3.43647178     -1.59676097
O      -1.31207692     -0.38575029      4.26478362
H      -1.46826226     -0.11491609      5.17043426
H      -0.34883132     -0.29909962      4.11943619
O       3.77458760     -2.04949196      2.20073370
H       2.92379590     -2.45715661      2.42818293
H       4.37358574     -2.77273723      2.01128322
O       1.31993494     -0.49872087      3.72624119
H       2.19670085     -0.15606684      3.54882244
H       1.29157410     -1.39002315      3.30614300
O      -5.78914452     -2.48379610      2.59981291
H      -6.53201037     -3.08550210      2.66555899
H      -6.10732202     -1.71709633      2.08982252
