108
charge=0
O       3.82094506      1.78236071      1.12956735
O       2.07724213      2.59291564      2.58315985
O       1.51324217      1.61084359      0.46207863
C       1.99867298      2.01260154     -2.26621024
C      -1.57807945      2.57135757     -1.59357215
C      -2.71563794      1.99326435     -1.03222042
C       0.78216812      2.65024932     -2.17768754
C      -0.39947326      1.94929864     -1.95014734
N      -3.06926280      0.72985128     -0.90958600
N       3.20014606      2.59992298     -2.21900053
C      -1.47920441     -1.09704934     -0.53059247
C       2.19389876      0.53281205     -2.41030257
C      -3.76519409      2.86082201     -0.39460269
C      -2.46938200     -0.44417842     -1.48867105
C      -4.23940668      0.53464568     -0.07372236
C       4.29202173      1.64402275     -2.27852045
C       3.48049530      3.97303513     -1.90513707
C      -4.48644759      1.90468136      0.55553953
C       3.64030980      0.40812786     -2.89087348
C       3.78937774      4.21530415     -0.41929163
C       2.58379962      4.06234128      0.48336319
S       2.50350228      2.41600581      1.17914359
H      -1.57764533      3.65253917     -1.59203735
H       0.74112362      3.72733668     -2.14619690
H      -0.32747119      0.87687197     -1.94188972
H      -1.05718476     -1.98003885     -0.99321931
H      -0.67964765     -0.41077896     -0.27304215
H      -1.98751042     -1.38898280      0.37989036
H       1.47805709      0.06893743     -3.08401978
H       2.08164274      0.08342995     -1.42259086
H      -4.43274630      3.23237883     -1.17670997
H      -3.33105916      3.71502431      0.11729207
H      -3.27840842     -1.14559610     -1.70354734
H      -1.98982007     -0.18078148     -2.43256680
H      -4.02728439     -0.23309481      0.67315241
H      -5.07632945      0.18903653     -0.68998668
H       4.66565275      1.43526025     -1.27020537
H       5.11102807      2.04605010     -2.87999711
H       2.63307114      4.59786506     -2.19006887
H       4.35141638      4.27688499     -2.49595586
H      -4.01896140      1.95380262      1.53777705
H      -5.54490883      2.12875769      0.65901158
H       3.67922640      0.46456853     -3.97983782
H       4.10625044     -0.51849798     -2.56963822
H       4.18374990      5.22960761     -0.33398802
H       4.55849986      3.52112842     -0.07505315
H       1.64402066      4.22533922     -0.02866389
H       2.64561627      4.70646427      1.35223975
O      -1.47849960     -3.90127609     -3.09975244
H      -0.85871852     -3.16689570     -3.25904137
H      -1.19217814     -4.28447797     -2.23693359
O      -1.44852453      5.86024558     -0.46679255
H      -1.44231574      5.29276239      0.34789853
H      -1.77902523      6.71197534     -0.17862688
O      -1.01158813      1.84328443      1.41770441
H      -1.02658819      1.09240600      2.03661794
H      -0.13481219      1.81291019      1.00002220
O      -1.47114040      4.46850681      1.76863728
H      -1.39543446      3.50226255      1.63071224
H      -0.67788512      4.71478829      2.27626209
O       0.89912993      5.96589604     -1.81786221
H       0.06380488      5.89217964     -1.30986918
H       0.78644946      6.72635715     -2.38916892
O       0.83051345      4.82509212      3.23927060
H       0.62688273      4.78165362      4.17454430
H       1.28373483      3.98411617      3.01078838
O      -3.98265438     -3.27520480     -2.98000625
H      -4.34815386     -3.69879342     -3.75749241
H      -2.99698153     -3.45934010     -3.01808075
O      -2.47439515     -3.96082063      1.15262668
H      -3.27350550     -4.08182080      0.61172782
H      -2.60327055     -3.11939141      1.61633586
O       4.20314375     -2.42916097     -1.19680384
H       4.49118673     -1.74562448     -0.55063533
H       4.76242180     -3.19159845     -1.04486873
O      -0.56055513     -4.61539836     -0.69850941
H      -1.17828128     -4.40001425      0.02708420
H       0.21055818     -4.04150094     -0.58697337
O       1.47608776     -0.90782013      1.28274313
H       1.46965322     -0.00199280      0.90653963
H       2.23954777     -0.91481311      1.89370478
O      -2.97537906     -1.53180323      2.49529185
H      -3.38174104     -1.75472926      3.33352329
H      -2.12317258     -1.10778344      2.70576604
O      -0.55036345     -0.37631040      2.99646856
H       0.08303309     -0.73731287      2.34140014
H       0.00577098     -0.00162385      3.69642157
O      -4.61040029     -4.39002194     -0.57173927
H      -4.52401764     -5.33813711     -0.68018652
H      -4.34083112     -3.99074700     -1.42501178
O       5.00022235     -0.64508852      0.63553640
H       4.62707937      0.25286442      0.65888503
H       4.83900851     -0.98832639      1.52062368
O      -5.87915735     -1.75752064     -1.50517413
H      -5.29198611     -2.13512331     -2.17354261
H      -5.89374152     -2.40652049     -0.79599969
O       3.46858803     -0.24836204      2.99837298
H       3.62931911      0.58119057      2.51664453
H       2.87498922     -0.01977517      3.72849283
O       0.57448066     -2.07941249     -3.22108340
H       1.20780573     -2.52202048     -3.78784671
H       0.87857262     -2.25784871     -2.30141948
O       1.52443170     -2.68468800     -0.77630941
H       1.40984896     -2.08138306     -0.01769416
H       2.48262633     -2.68466502     -0.96197298
O       1.39854055      0.91418442      4.48241931
H       1.59664583      1.55978335      3.76170459
H       1.42433662      1.40550946      5.30363945
