101
charge=0
O      -1.91685026     -5.39286420      4.39904119
N      -3.11995212     -3.50146300      4.12138755
N      -3.47751364     -2.50950802      3.43521496
N       4.48090907      2.49875188     -3.42109530
N       5.51046776      1.70721808     -3.08872750
O       1.54069662     -0.13403507     -1.63405276
C      -2.21876307     -4.42049155      3.72766437
C       3.34003004      2.01071167     -2.96661668
C       5.03303348      0.68339176     -2.39770744
C      -0.71842291     -5.01571288      1.90690473
C       5.67736519     -0.43991284     -1.83503976
C      -1.54052050     -4.07776628      2.41995843
C       3.59447242      0.80795303     -2.27955928
C      -1.97835705     -2.91324021      1.73379122
C       4.89443901     -1.37552763     -1.24641583
C       2.86599648     -0.19364927     -1.65809259
C      -3.12504552     -2.24497344      2.18794994
C       1.06424686     -1.12196967      0.53432117
C       0.15999932     -1.79656411      1.32739365
C      -0.39811438     -1.45125770     -1.35490167
C       0.76444065     -0.92863869     -0.80964704
C      -1.04173491     -2.26891289      0.80003865
C      -1.31744573     -2.12404249     -0.56275786
N       3.53194852     -1.25085731     -1.17460059
C      -3.71461667     -1.02744131      1.57449491
C      -2.54111898     -2.69951163     -1.20382126
H       2.41395293      2.51075799     -3.16017142
H      -0.44723613     -5.01742138      0.86499921
H      -0.40004734     -5.84400865      2.51523025
H       6.74698223     -0.54642235     -1.88638942
H       5.28745529     -2.27652807     -0.80575828
H       1.96431054     -0.70802231      0.95914992
H       0.35349488     -1.92823715      2.38045707
H      -0.59190832     -1.31306008     -2.40596178
H       2.99383046     -2.07049975     -0.86257206
H      -3.08296803     -0.16617555      1.80286853
H      -4.69801072     -0.85038989      2.00062652
H      -3.79072208     -1.11261901      0.49820896
H      -3.20177401     -1.89439314     -1.52302976
H      -2.26561720     -3.26713541     -2.09080193
H      -3.08041543     -3.35194195     -0.52242251
O      -1.18538135      3.68433935     -0.02075585
H      -0.59283327      3.40278980      0.69587076
H      -1.49539618      2.82283880     -0.39326403
O      -5.24498615      1.96339453      0.20335378
H      -5.88701967      1.66901448      0.84955678
H      -4.57563626      2.48757431      0.71315764
O       2.96785953      3.82460133     -0.59450954
H       3.65210197      3.79874015     -1.26885141
H       2.11856042      3.89656358     -1.07241006
O      -0.24906795     -2.31176425      4.43031891
H      -0.82422214     -1.56862321      4.68802367
H      -0.14807351     -2.85184801      5.22125231
O      -4.01799154      0.30238105     -1.46471736
H      -4.20221731      0.67372999     -2.32937192
H      -4.50819700      0.87299453     -0.82549699
O      -1.51992370      1.20188241     -0.87278841
H      -1.10524611      1.25556093     -1.76034555
H      -2.40376926      0.81127505     -1.01153795
O      -2.75047920     -2.50292650      6.87156742
H      -1.94727250     -3.03973329      6.96129435
H      -3.26845453     -2.94472070      6.18685136
O       2.88774450      1.53899512      0.80109745
H       3.36979269      1.72774953      1.60807489
H       2.93651630      2.36731292      0.26821152
O       1.56427560     -2.79243751     -3.72648156
H       2.11850377     -3.18606243     -4.40235977
H       1.50421642     -1.83891310     -3.95014236
O      -3.43601784      3.24148974      1.65364873
H      -2.75498407      3.63123662      1.08532054
H      -2.98033216      2.56412069      2.18546121
O      -2.19130396     -0.47020012      5.18477250
H      -2.93884775     -0.65222890      4.60539614
H      -2.36134945     -1.01758189      5.98045074
O       3.92553342      0.23103108     -5.64558311
H       4.65702217      0.13202438     -5.03065353
H       3.98957125      1.15980144     -5.96399987
O       4.39458718      2.85326969     -6.08979389
H       4.46819087      2.95893353     -5.11142746
H       5.25670597      3.07681443     -6.44432697
O      -0.63237196     -4.30823520      6.58483931
H      -0.27634038     -4.93270476      7.21847625
H      -1.06834835     -4.83388128      5.89119803
O       2.10780647     -3.60136724     -1.18930394
H       1.88009377     -3.40222273     -2.12093384
H       1.29392222     -3.87196180     -0.76297948
O       1.51730439     -0.21675995     -4.58274090
H       0.91615089     -0.08187412     -5.31876220
H       2.41819127     -0.02533677     -4.93977392
O      -0.28538737      1.61897513     -3.22499482
H       0.44036409      1.00989723     -3.41907694
H       0.11655895      2.44261388     -2.90413067
O       0.58460066      3.99207356     -1.96882123
H       0.43699137      4.82794054     -2.41365056
H      -0.08924600      3.94664791     -1.23845663
O      -1.96615936      1.28004993      2.90358126
H      -1.82036699      0.94685478      3.79525722
H      -1.09249391      1.41002135      2.49874652
O       0.19918950      1.73776045      1.30096051
H       1.15212091      1.60101383      1.14688166
H      -0.26410882      1.31110930      0.56335733
