86
charge=0
N       1.52488289      3.11195890      1.70273308
N       1.35115537      2.19204576      2.47618129
N      -0.48392769      1.05739286     -0.36769883
C       0.15502616      1.60532740      0.56999361
C      -1.17628889     -0.19834328     -0.20551613
C       1.82207218      3.08695971     -0.70223262
C      -0.23431013      4.07507207      0.36278089
C      -0.70960513      0.99436967      2.91358211
C       1.34661891     -0.14806075      1.93335265
C       0.81693436      2.96352289      0.44106425
C       0.49022832      1.12235247      1.96762128
H      -1.28469826     -0.51630272      0.82674797
H      -0.64487072     -0.96391127     -0.76921046
H      -2.16491962     -0.07592595     -0.64439499
H       1.30774219      3.03581937     -1.65713458
H       2.32467346      4.04700119     -0.62332607
H       2.57294148      2.30243675     -0.64071450
H       0.26199950      5.04093688      0.39248795
H      -0.80362615      3.98346342     -0.55727742
H      -0.92043862      4.00582645      1.20332066
H      -0.39339524      1.25428455      3.92167139
H      -1.09259848     -0.02285610      2.91363692
H      -1.50625884      1.67125934      2.61060843
H       0.76097975     -1.00131431      1.60876093
H       2.18551937     -0.01284221      1.25494566
H       1.73160828     -0.34360226      2.92800546
O      -3.98693926      1.87245123     -2.50553944
H      -4.18204420      1.31302936     -1.74112688
H      -3.09470437      1.62484234     -2.81009395
O       1.01029973      2.10066305     -4.02482006
H       1.41812018      1.41901950     -3.45326989
H       1.29115689      1.91431054     -4.92083457
O       3.93124798      0.32183247     -0.76115048
H       4.78368787      0.50163492     -1.15846693
H       4.09253061     -0.39462436     -0.09501132
O       2.38080233     -3.39623923      1.58308851
H       2.69863494     -4.29788475      1.51828871
H       1.46856004     -3.40315659      1.21439426
O      -0.93361853     -3.14873972     -2.03595991
H      -0.76499633     -3.95423818     -2.52647353
H      -0.66143042     -2.39523001     -2.63861623
O      -0.10508898     -3.53712769      0.63110509
H      -0.74849770     -3.07280857      1.19485969
H      -0.36704285     -3.36868942     -0.28625525
O       1.23713177     -0.66532860      5.40369125
H       1.78132595     -1.42174183      5.09359257
H       0.35833000     -0.80543823      5.04771509
O       4.39480178     -1.54140159      1.04792578
H       4.53081751     -1.13382098      1.92077768
H       3.67423515     -2.18101749      1.16982425
O       4.61631804     -0.51478512      3.61059318
H       4.03281322      0.22298240      3.94343998
H       5.45743678     -0.40125381      4.05321220
O      -3.53298933     -2.52940118     -1.80502028
H      -3.61111138     -1.72030102     -2.31547710
H      -2.59095443     -2.80309843     -1.86213736
O      -3.07676002      2.52285190      1.18572807
H      -3.02881203      3.17290639      0.46620694
H      -3.46202003      1.73609544      0.78117051
O       1.71076361      0.15846816     -2.23480906
H       2.57887755      0.14823315     -1.77921518
H       1.08799351      0.49376345     -1.57490186
O       2.80061713     -2.51840728      4.21352850
H       2.55348134     -2.83890169      3.33151284
H       3.55072021     -1.91705065      4.06422670
O      -0.26759916     -1.15696749     -3.56109509
H      -0.82452752     -0.35876644     -3.43610514
H       0.60610649     -0.88136477     -3.23816136
O      -3.17693311      4.06290196     -1.15871046
H      -3.50951068      3.32976922     -1.72386800
H      -3.79298819      4.78737059     -1.26603765
O      -4.24714291     -2.18210518      0.69358634
H      -3.95175420     -2.36842704     -0.23774115
H      -4.99172273     -2.76355423      0.85496911
O      -1.97737747     -2.29814702      2.24710618
H      -2.18249554     -2.85110680      3.00253407
H      -2.79727386     -2.21260785      1.72550921
O       3.00561958      1.30487555      4.60375539
H       2.35455734      0.73098964      5.04820543
H       2.51048792      1.80571609      3.93236472
O      -1.35922395      1.25741169     -2.97004329
H      -0.70478367      1.76512135     -3.48107625
H      -1.08789640      1.37526763     -2.03540259
O      -4.58531245      0.42659896     -0.11938754
H      -5.41692505      0.77024347      0.21143807
H      -4.46357907     -0.45643864      0.27450967
