95
charge=0
N      -2.13277754      2.36728931     -1.82704102
S       1.60030829      3.58248030      1.54414292
C      -1.33376670      2.52664273     -1.00923818
N       1.64175946     -2.91483187      0.23297473
O      -0.08179074     -2.23548184     -0.92224390
C       0.19704098      3.67890716      0.59952673
C       0.73558951     -3.25990006     -0.60990170
C      -0.30084561      2.51145118     -0.07189468
C       0.24748156      1.25486840      0.17944461
C      -0.18782710      0.07670234     -0.39538210
C       0.37718528     -1.17261349     -0.23322537
N       1.42337942     -1.60490240      0.50329435
N      -0.41487188      4.85992488      0.52559680
C       0.51556179     -4.59234942     -1.19467215
C       2.19647764     -0.91951326      1.49337929
C      -1.64589836      5.14155945     -0.18811829
C       0.01289492      6.00150339      1.31097401
C      -1.87527179      6.63743612      0.02170017
C      -1.21261505      6.90250580      1.36934794
H       1.06864120      1.23632229      0.87604113
H      -1.01929752      0.09716086     -1.07866531
H       1.38346213     -5.21852608     -1.01888397
H      -0.35553664     -5.03706280     -0.71525542
H       0.31524472     -4.49717517     -2.25859038
H       2.79864890     -0.13501970      1.03792191
H       1.53571340     -0.48934310      2.24502444
H       2.85042098     -1.64467578      1.96915197
H      -2.45819660      4.54282561      0.23929641
H      -1.54759691      4.89126560     -1.24635711
H       0.85002685      6.50204129      0.81053430
H       0.35032579      5.67384246      2.29747299
H      -2.93237166      6.89235647      0.00831346
H      -1.36941258      7.20687143     -0.75874870
H      -0.93776549      7.94346071      1.51556885
H      -1.86937446      6.58680907      2.18080640
O      -0.08056421     -0.52615832     -4.27496874
H      -0.99217840     -0.40827272     -3.93787848
H       0.13947627      0.29287233     -4.72227161
O       5.15269355     -0.97314898     -0.17240623
H       5.02286884     -1.04569493     -1.13724487
H       4.76296147     -0.13278601      0.08694673
O      -3.10773076     -1.66475586     -1.29188759
H      -3.99641741     -1.35569820     -1.06471342
H      -2.61639294     -1.70481717     -0.45866399
O      -5.23763393      0.10201972     -3.57806553
H      -4.25595439      0.17567117     -3.60679573
H      -5.45152608     -0.69471201     -4.06614557
O       3.44180657     -3.48209246      3.18199325
H       3.87315859     -3.54723145      2.29591361
H       3.85006758     -4.15381388      3.72804152
O      -2.07675916     -1.74200974      1.33443082
H      -1.86427152     -2.69522183      1.36246865
H      -1.49371773     -1.33664205      2.00308709
O      -1.11546848     -4.28189600      1.59171552
H      -1.65154820     -4.89835126      2.09227741
H      -0.37642464     -4.02460787      2.19385562
O       3.18011001      1.42396251     -2.25726792
H       3.94779815      0.99557773     -2.64929735
H       3.40149515      1.57492950     -1.32255355
O       3.86795634      1.73588219      0.41454386
H       3.12988958      2.27810925      0.76590902
H       4.66452869      2.23782409      0.60005903
O       0.69281630     -3.38991598      3.32319596
H       0.48422488     -2.44829018      3.37426727
H       1.66355963     -3.45171521      3.24547865
O       1.02943442      9.20118067      2.12977505
H       1.50899025      8.52773495      2.61707188
H       1.51098965     10.02402734      2.23505339
O      -2.56641114      0.05540333     -3.27495319
H      -2.46317885      0.91581133     -2.82420473
H      -2.67715615     -0.62110177     -2.56647067
O       4.54662821     -1.22280233     -2.83453875
H       3.56430935     -1.26104216     -2.75547532
H       4.82358383     -2.05586699     -3.21619167
O      -0.50573632     -0.76237101      3.37024561
H      -0.46531132      0.22889576      3.33029310
H      -1.01907056     -0.95492877      4.15746497
O      -3.90464319      0.37968465      1.30367273
H      -4.42979885      0.29250896      0.49431816
H      -3.31388266     -0.38895858      1.32684780
O       4.41877499     -3.48309922      0.69741149
H       3.53578052     -3.47840981      0.30276729
H       4.81009406     -2.61795734      0.46985609
O      -2.69720984      2.66515529      1.94187742
H      -3.10383806      1.82516875      1.62183802
H      -3.32856034      3.02568081      2.56739469
O      -5.49658517     -0.25260681     -0.93510445
H      -5.44200317     -0.00801222     -1.88920099
H      -6.42791557     -0.28013385     -0.71464489
O       1.91604513     -0.96903729     -2.45742309
H       1.21746640     -0.96466079     -3.13924954
H       2.14227448     -0.02595113     -2.33157875
O      -0.51071221      1.86555681      3.33385139
H      -1.29156316      2.16493662      2.81961232
H       0.24553822      2.33963206      2.96180400
