87
charge=0
O      -0.68262755      2.00192418      1.51978708
N       2.17301814      2.03143850     -0.61862431
O       0.24814514      3.67907818      0.37499385
C       0.19258315      2.44218807      0.76846393
C       1.23554842      1.58177171      0.23658237
C       2.54291557     -4.26847584     -3.92658466
C       1.79073161     -3.45514063     -3.20593392
C       1.37345114      0.19726113      0.40573144
C       2.43597780     -0.14483673     -0.41279289
N       2.88084670      0.97341233     -0.99730070
C       1.52423510     -3.61741560     -1.74029574
C       0.79927097     -0.99201395      1.09516746
C       2.63083036     -1.58819771     -0.49174046
C       1.40574100     -2.28183212     -1.04690954
C       1.56221485     -2.14209323      0.43667690
H      -0.55038166      4.25710706      0.65299011
H       3.02610799     -5.12768903     -3.49177474
H       2.68762974     -4.12362067     -4.98377782
H       1.29850084     -2.61181685     -3.67382190
H       3.64979497      1.04777826     -1.65242099
H       2.29743965     -4.22727231     -1.27706000
H       0.57582508     -4.15082888     -1.62282085
H       0.97821308     -0.95788307      2.17127422
H      -0.27226532     -1.07778655      0.93110395
H       3.61368267     -2.01195894     -0.56739019
H       0.66713947     -1.63414537     -1.50596764
H       1.75278946     -3.02410542      1.02543997
O      -2.66354500      4.65069309     -1.66785196
H      -2.00124685      4.19282530     -2.22133573
H      -3.31274290      3.97529906     -1.43602074
O      -1.09639473      0.24109298      3.69333673
H      -1.95567506      0.64138027      3.93743715
H      -0.74815296      0.80545234      2.98795593
O      -1.80046022      5.19102999      0.81760194
H      -2.18803143      5.10278281     -0.08351409
H      -2.39472968      4.68583414      1.40354887
O      -3.77884698      2.26008995     -0.52137972
H      -4.22840221      1.44664265     -0.27941772
H      -2.87252433      1.97124748     -0.78436521
O       1.44093954      4.25581216     -2.26027939
H       1.72042959      3.65009437     -1.55105859
H       1.09908506      5.05824741     -1.82449138
O       5.01232852     -0.23278769     -2.61720625
H       5.72709026      0.07764291     -3.17483048
H       5.11773679     -1.19840463     -2.56220699
O      -1.34258326      1.47096246     -1.30115414
H      -1.26424229      0.54432218     -1.56097826
H      -1.08125038      2.02301897     -2.05813804
O       0.82159204     -5.34224958      0.89001582
H       0.42044126     -6.04717507      1.39921202
H       0.10315517     -4.70717525      0.69615373
O       5.12355888     -3.07536126     -2.41272442
H       4.18234543     -3.11961163     -2.62344178
H       5.19927023     -3.11792128     -1.43393006
O      -1.29606586     -3.62209671      0.47943614
H      -1.26914377     -2.94862809     -0.21632248
H      -1.51665966     -3.14449896      1.29244540
O      -2.76943266     -0.05003769      0.80548482
H      -2.07328716      0.59984914      0.97947115
H      -2.68969958     -0.72447715      1.50599268
O      -0.78252407      3.33250507     -3.18879375
H       0.10286595      3.67774447     -2.84899685
H      -0.75347175      3.42445634     -4.14115383
O      -2.11038657     -1.94452348      2.65141208
H      -2.73033636     -2.28280227      3.29819586
H      -1.60465544     -1.21996471      3.10833332
O      -0.07862106      6.34193614     -1.25428399
H      -0.91891645      6.15715394     -1.68534581
H      -0.25830922      6.31205413     -0.30988934
O      -1.81682570     -1.37999516     -1.29234328
H      -2.23179760     -0.91052973     -0.52618202
H      -2.53804225     -1.73084793     -1.81603265
O       3.62233435     -5.51355999      0.55333551
H       3.80225464     -5.85653197     -0.33614071
H       2.65817441     -5.45598065      0.65327370
O      -3.52716813      1.42573047      4.04207145
H      -3.50247087      2.05384856      3.28777145
H      -3.70492266      1.95196420      4.82192406
O       5.17150662     -3.37306044      0.26063314
H       5.93269940     -3.48304864      0.83006450
H       4.56634737     -4.12953869      0.45757339
O       4.79133382     -5.87298962     -1.99438057
H       5.58756750     -6.40293913     -1.94421893
H       5.06817393     -4.97668905     -2.25303686
O      -3.09747135      3.11015488      1.96802859
H      -3.51985036      2.85177762      1.12267461
H      -2.19233966      2.73739610      1.90337920
