97
charge=0
S      -1.54748168      1.12688142     -0.77660904
Br      1.50616530      2.48336517      1.10237633
N       0.91348164     -0.12687601     -0.45347224
S      -3.47375936     -0.48401446      0.73592725
S       1.61603227     -1.04022457      1.91355406
C      -1.82448313     -0.13432287      0.23051451
C       0.47597294     -0.66905027      0.60655776
C       4.82021253      1.23398534     -1.03931512
C       4.37927577      0.07644273     -1.65876998
C       3.96249827      1.93694082     -0.21329943
C       3.09529305     -0.38670193     -1.44761901
C       2.67898433      1.47386144     -0.00903059
C       2.22212131      0.29957148     -0.60567968
N      -0.86628738     -0.93546212      0.77433227
C      -4.39102623      0.80739057     -0.13616719
C      -1.47793390     -2.74973435      4.03865134
C      -1.24742922     -0.31469473      3.53354289
C       0.69588533     -1.86385326      3.25257350
C      -1.19109020     -2.03331465      1.66568063
C      -0.81423208     -1.72170626      3.12355673
H       5.82341639      1.59942733     -1.18748794
H       5.03891050     -0.47471011     -2.31110997
H       4.29116835      2.84063480      0.26870787
H       2.75237376     -1.29243557     -1.91954682
H      -5.43506408      0.67968581      0.13223521
H      -4.25481467      0.68069864     -1.20606840
H      -4.03223464      1.78266558      0.17912530
H      -1.21022300     -3.76133062      3.74256329
H      -2.55838021     -2.65225542      3.98351702
H      -1.15898270     -2.58741626      5.06436434
H      -0.95568519     -0.13932903      4.56514988
H      -2.32577014     -0.20829849      3.44680285
H      -0.77106409      0.44766089      2.91989669
H       0.99440956     -2.91288881      3.21690859
H       1.05144929     -1.41529880      4.18113001
H      -0.63133355     -2.90851288      1.32056791
H      -2.25232924     -2.26479767      1.58802390
O       2.65635974      4.20050497     -1.80529505
H       2.09487283      3.48957009     -2.16865870
H       2.35828435      5.00441311     -2.23539687
O      -5.78001930     -2.46715854     -1.33769330
H      -4.97591545     -3.06436056     -1.16605797
H      -6.45177548     -3.04417285     -1.70410758
O      -4.04407923     -3.80613357      1.88174337
H      -4.85037312     -3.25238292      1.78705234
H      -4.31272450     -4.59270604      2.35790101
O       0.27382479     -0.26359837     -3.17308466
H      -0.65610052     -0.30696843     -3.44840669
H       0.26382614     -0.25601076     -2.19755205
O       1.16051640     -2.80247669     -3.38512986
H       0.41502622     -3.17104872     -3.87349500
H       1.00072764     -1.83458993     -3.39935798
O       5.01244585      4.07784074      2.37394633
H       4.38805985      4.61935108      1.81108318
H       5.14817723      4.58633416      3.17446404
O       4.21669713      1.57548536      3.24947136
H       4.04579058      1.01727444      2.48841004
H       4.51024648      2.43982370      2.90699086
O      -1.51839214     -2.97765653     -4.37997655
H      -2.24356422     -3.49132711     -4.73762663
H      -1.73162716     -2.04160131     -4.53409912
O      -3.77277468     -3.98379522     -0.83854916
H      -3.00044153     -3.43226249     -1.10784300
H      -3.75275303     -4.00201470      0.13666443
O       0.81677372      2.43817830     -2.77301658
H       0.85784762      1.52786582     -3.11090790
H       0.17423542      2.40427817     -2.05623143
O      -6.19157601     -2.25319261      1.36165114
H      -5.96487461     -1.37189669      1.66275264
H      -6.10459419     -2.24482809      0.38607178
O       0.71283324     -3.41627366     -0.82884110
H       0.93407105     -4.34086267     -0.70889830
H       1.01291706     -3.18654964     -1.74303486
O      -1.72766019     -2.48672611     -1.62306397
H      -0.89284300     -2.79415351     -1.22579362
H      -1.64040169     -2.66562558     -2.57327807
O       3.55255193      5.49798999      0.73080802
H       4.20371097      5.59776656     -0.00214404
H       2.82787890      4.99728297      0.33983833
O       5.25600366      5.17067417     -1.31517343
H       4.56472265      4.61527509     -1.70287871
H       5.88336143      4.56679715     -0.87978714
O      -4.77957457     -0.59900576     -3.04543749
H      -5.06688823     -1.26653165     -2.38751800
H      -5.52934355     -0.44565553     -3.62156737
O       6.85230338      3.64344028      0.36199517
H       7.68018714      4.06651443      0.59222615
H       6.27241324      3.72383063      1.14266383
O       1.06451221     -0.22528514      5.94332284
H       1.49603219     -0.22104881      6.79829966
H       1.35272168      0.60300282      5.50456742
O       1.95446889      2.02795524      4.71022106
H       2.81271962      1.82530303      4.28649484
H       1.39374955      2.36426507      4.00762691
O      -2.33891645     -0.36282468     -4.23292057
H      -2.35841535      0.53495778     -4.56883271
H      -3.14226146     -0.47094696     -3.68593427
