82
charge=0
O      -0.76143933      1.46988064      1.66736079
O       2.25851412      5.24055739      1.43093734
O      -2.13554897      1.88941711     -0.07047343
O      -3.69585010      0.40272112     -0.82942247
C      -1.20610739      2.21284579      0.81177628
C       1.09065678      5.09721087      1.03013692
C      -3.85003588     -0.92767779     -0.96773601
C      -2.51242990      0.58496088     -0.23139207
C      -2.77539166     -1.59112145     -0.46591036
C      -1.89139202     -0.60163709      0.02199210
C       0.30734019      6.13425548      0.42667539
C      -0.94441738      5.88123958     -0.04237762
C      -1.49570845      4.59108546      0.06089661
C      -0.74669207      3.61427520      0.65924830
N       0.49013222      3.87527899      1.13513595
H      -4.75820083     -1.27157578     -1.41688045
H      -2.62076563     -2.64636575     -0.42647485
H      -0.94287232     -0.75860389      0.48394318
H       0.76242750      7.10786887      0.34208872
H      -1.52057113      6.66622378     -0.50747395
H      -2.47710174      4.36716669     -0.31828423
H       1.06346618      3.09369685      1.53789037
O      -1.01673645     -1.64825545     -3.16308159
H      -0.43471454     -2.00787374     -2.47398013
H      -1.82958576     -2.17284166     -3.13289442
O       1.20591970     -0.40451863      2.20117771
H       0.32369579     -0.01076518      2.18799900
H       1.78422628      0.36454367      2.38083851
O       2.26331449      2.04307857      2.22219070
H       2.40419291      2.57873636      3.03400326
H       3.03395336      2.26288361      1.65069180
O       1.77100172     -0.37816086     -0.43223871
H       1.27688505      0.41780281     -0.68503608
H       1.68481530     -0.43263641      0.54396376
O       1.88355955      4.32331608     -2.04564587
H       2.52329085      3.80715901     -2.54626861
H       2.40859898      5.03756567     -1.63721301
O      -2.98133242     -5.44627574      0.24220415
H      -2.73697067     -4.87539788      0.99485561
H      -2.23125672     -5.39281455     -0.38235810
O      -0.33513717      3.12903477      3.97383045
H      -0.60755923      2.71087526      4.79235072
H      -0.37602992      2.44631571      3.28783156
O       0.64192781      2.02032968     -1.21895436
H       0.88088770      2.92728160     -1.48504933
H      -0.01624515      1.70394921     -1.87577829
O       2.32402523      3.98863930      4.03704431
H       1.36335827      3.92040520      4.15766979
H       2.46854172      4.62918183      3.32666942
O       0.75875179     -2.63836864     -1.22295174
H       1.48401143     -3.12369636     -1.62094808
H       1.13681678     -1.74689809     -0.97346427
O       4.06400276      3.14825088      0.61505690
H       3.87885291      2.83229109     -0.28849853
H       3.55079664      3.95562633      0.76314614
O      -4.91745361     -2.69362251      1.54352983
H      -4.01871874     -2.90920605      1.81948503
H      -5.00662323     -3.05517280      0.65381495
O      -4.82434717     -4.13055167     -1.03450541
H      -5.59967105     -4.68573715     -1.12448349
H      -4.15793202     -4.67768551     -0.51922136
O       3.62367265      6.04710388     -0.77705280
H       3.24213977      6.01409102      0.11786456
H       4.51631890      5.70201260     -0.70064711
O      -3.15095030     -3.50773107     -3.04737104
H      -3.53826490     -3.85559489     -3.85136949
H      -3.81114460     -3.64366573     -2.33016473
O      -1.11885247      1.01265484     -2.96229010
H      -1.10260087      0.02936202     -3.01670090
H      -1.11983588      1.32642559     -3.86745096
O      -1.12655375     -4.78486729     -1.63011862
H      -1.75842688     -4.38566381     -2.25084476
H      -0.52521200     -4.07921017     -1.36752646
O       0.32116800     -3.02827029      1.55463603
H       0.45756971     -2.98378044      0.59600784
H       0.72598820     -2.23459340      1.92926047
O      -2.21564574     -3.65095098      2.16636891
H      -2.18479549     -3.97921007      3.06575171
H      -1.29383759     -3.39664468      1.93555367
O       3.40967690      1.85332384     -1.72739612
H       2.45229929      1.79238117     -1.56395652
H       3.75479847      0.97515463     -1.55296884
