73
charge=0
N      -3.54206466      0.75058022      0.41429773
N       2.58877674     -0.12052610      0.24706198
F      -2.04368714     -1.63425782     -1.22096814
F      -1.80089060      0.11467970     -2.45453598
F       0.62034755     -1.59418980     -2.15741679
F       0.80173768      0.53299668     -2.51566242
F      -0.27037828     -0.97825564      0.48982326
F      -0.20466598      1.10239402     -0.04653437
C      -2.77222033      0.36452312     -0.33257746
C       2.06513506     -0.34892930     -0.75962910
C      -1.77781221     -0.30614471     -1.17965545
C       0.81637381     -0.41489012     -1.54802689
C      -0.35716520     -0.13513913     -0.55570156
O       3.27340685     -0.79746499     -2.21859819
H       3.70953726     -1.63908232     -1.82758666
H       3.95671154     -0.11930712     -2.23771029
O      -3.87629695     -1.68110985      2.03025366
H      -4.20690708     -1.99538505      1.16679854
H      -4.28977429     -0.82584368      2.16853615
O      -4.85270984     -2.16464488     -0.47004197
H      -4.30793008     -2.58261017     -1.14226014
H      -5.19075255     -1.34748698     -0.86909187
O       0.36406420      3.39451195     -2.07938314
H       1.04100759      3.12315047     -1.42715079
H       0.61144038      2.98005165     -2.90817879
O      -4.22746218      1.92804596     -3.09630863
H      -3.88221249      1.45722223     -3.88331077
H      -3.45029111      2.16983384     -2.56706433
O      -3.22124561      0.24804943     -4.99148174
H      -2.26756417      0.20859305     -4.90338338
H      -3.56466718     -0.56303771     -4.56888285
O      -4.41693746     -1.80918655     -3.60816086
H      -5.05540209     -2.28482594     -4.14131653
H      -4.92451147     -1.18600135     -3.05031415
O      -5.63948945      0.02897343     -2.01436836
H      -6.55359136      0.31528881     -2.02948451
H      -5.10803554      0.80286535     -2.36468900
O       2.58785310     -0.42115144      3.04932669
H       3.05861486      0.40076287      3.32794984
H       2.43743516     -0.29774527      2.10090451
O       2.32486801      2.75183143     -0.26772681
H       1.84501306      2.68438370      0.58761325
H       2.84516215      3.55777179     -0.21130631
O       4.31091165     -2.76809195     -0.94748116
H       4.81591556     -2.33437818     -0.24070894
H       3.46388381     -3.04290728     -0.53882184
O       3.62719290      2.00876470      3.27621941
H       4.20316542      2.04262200      2.48746951
H       2.81353034      2.46800326      3.02575424
O       0.08245438      0.63623846      3.29949059
H       0.94062365      0.19414686      3.44381595
H      -0.53991331     -0.07984901      3.09663723
O       1.11915717      2.77608058      2.13946353
H       0.49670787      3.49115923      2.27480736
H       0.67551555      1.96809629      2.49664895
O      -1.39265953     -1.70260175      3.05557795
H      -2.24796560     -1.74175167      2.57886040
H      -1.58039863     -2.01807995      3.94239478
O       5.03975725     -1.07117947      1.16959904
H       5.12291814     -1.29909478      2.09825070
H       4.10144850     -0.85746053      1.02907793
O       1.83467314     -3.03944756      0.07970370
H       1.61296109     -2.99749958      1.04280079
H       1.26195159     -3.71058882     -0.29377600
O       1.16001911     -2.80635268      2.63940932
H       0.25008520     -2.46862532      2.66841752
H       1.71733660     -2.10207139      2.99827518
O       4.83865056      1.77706382      0.83189188
H       5.15740347      0.86368014      0.86115385
H       4.00762504      1.76393650      0.33658223
O      -2.09030254      2.53763754     -1.40667016
H      -1.20837609      2.87477475     -1.68976268
H      -2.45232013      3.21091426     -0.82720961
