69
charge=-1
O       1.08884122      2.54667639     -2.94188981
O       0.32253424      1.15841603      1.31618261
N       0.65673858      2.27677916     -0.67248069
C       0.97808929      1.86758630     -1.92008683
C       0.60453123      1.20089821      0.09926707
N       1.11556101      0.49913584     -1.91298215
N       0.96475574      0.05273612     -0.60273885
H       1.59356644     -0.07212842     -2.58864520
H       0.38850452     -0.78470940     -0.51775973
O      -1.30466863      3.89446969     -3.39788565
H      -0.38137522      3.60319377     -3.29180555
H      -1.68759205      3.82652347     -2.51232454
O      -3.34990562      1.86568066      1.21920013
H      -2.79405853      2.06188382      1.99494662
H      -3.29353200      0.90462490      1.08715036
O       0.24360227      1.30313034      5.05906214
H       1.07093748      1.28526796      4.56082235
H      -0.05328246      0.38190502      5.08830379
O      -2.24945067      1.62861209     -4.53658585
H      -2.48700897      1.19062918     -3.70533200
H      -1.99655680      2.53915354     -4.26604831
O       2.30513999      0.69745817      3.09516471
H       1.53574965      0.88394499      2.52100901
H       3.06463679      0.82551870      2.50110976
O       0.24349278     -3.82627161     -0.74834942
H       0.61113491     -3.59252872      0.12631800
H      -0.43232429     -3.16106786     -0.93953058
O      -2.01983050      3.04492326     -0.78578515
H      -1.07813448      3.00814117     -0.53848263
H      -2.53310231      2.78504598      0.01483280
O       0.28027559      0.86228019     -4.94504244
H       0.69447570      1.50885040     -4.33815349
H      -0.67470091      1.11223406     -4.93854410
O       2.16609759     -1.86355454      3.97015601
H       2.33858054     -0.93121228      3.71574367
H       1.99770986     -2.32791510      3.12792527
O      -3.02472809     -0.90109385      0.71437688
H      -2.72507961     -1.30143496     -0.10662480
H      -2.27482643     -1.02564280      1.32821749
O      -0.27904398     -1.44348232      4.79066428
H      -0.60202861     -2.18162180      5.30547394
H       0.67594617     -1.64504230      4.56827159
O       1.37122355     -2.66986619      1.46737382
H       1.99356642     -2.14311828      0.93234278
H       0.58567671     -2.10226639      1.64813476
O       2.13424703     -2.72821891     -2.31241004
H       1.58580158     -2.29537832     -2.98629769
H       1.49989244     -3.27879831     -1.79833758
O       0.28195698     -1.54270108     -4.00989262
H       0.30063778     -0.59845444     -4.36920233
H      -0.07576452     -2.07843185     -4.71774584
O      -1.14565806     -1.51123132     -1.64047914
H      -0.67372009     -1.59052439     -2.48915761
H      -1.66024992     -0.68490290     -1.73809812
O       3.26998759     -1.59122491     -0.22025571
H       4.04739806     -2.13130650     -0.07241379
H       2.86250255     -1.92914384     -1.05950749
O      -0.70983927     -1.12363642      2.10483539
H      -0.71779736     -1.15565592      3.07773996
H      -0.36112895     -0.23006415      1.86167735
O      -2.66247468      0.73726999     -1.89317931
H      -3.45573756      0.54992738     -1.38498712
H      -2.35343334      1.61819882     -1.54972671
O       3.81319225      0.94516899      0.80752376
H       3.59593804      0.08810932      0.40143614
H       3.27832178      1.60032106      0.35299467
O      -1.40014666      2.37749435      3.07677274
H      -0.97329302      2.10391672      3.90627733
H      -0.75064167      2.15925773      2.38967496
