72
charge=0
O      -0.49488809      1.35833353     -1.99250222
O       0.61173731     -0.98945845      1.93140818
Cl      1.61235627     -0.58307701     -2.64427442
Cl      2.37462763     -1.94515854     -0.26587436
Cl     -2.54925624      2.49816206      0.07732545
Cl     -1.57096419      0.97234770      2.96094861
C      -0.45534065      0.92807286     -0.86534507
C       0.18129395     -0.17408281      1.13791227
C       1.37941501     -0.78749172     -0.99270494
C      -1.29886756      1.39235250      0.27277241
C      -0.90815192      0.79389459      1.41852003
C       0.45554786     -0.07845188     -0.29988039
O       0.06810414     -3.64114346      1.66737584
H      -0.15661838     -3.80388522      0.73476608
H       0.39348587     -2.72915369      1.69354567
O      -1.89501508     -1.10310863     -1.16838461
H      -2.07752937     -0.90041319     -2.10245930
H      -2.69034228     -0.94153305     -0.62431590
O      -1.68139509      3.65126182     -2.92743487
H      -1.33236606      2.78910337     -2.63242678
H      -2.51716673      3.77647030     -2.47463839
O       2.22599646      2.56482902     -1.01637882
H       3.04222857      3.06444960     -0.94372383
H       2.10178853      2.12159383     -0.15087768
O       2.47904795     -2.94181266      3.30938792
H       1.90879067     -3.46669511      2.73594532
H       1.90900627     -2.62262727      4.02309566
O       0.86147700      3.27145853      3.04106205
H       0.21138050      2.87649764      3.62601575
H       0.34695277      3.82192924      2.40656947
O      -0.71893905      1.57620188     -4.83212995
H      -1.21599313      2.37186580     -4.61613980
H       0.18313871      1.76559757     -4.51221634
O       0.84278901     -1.05791221      4.65314658
H       1.48549288     -0.39732885      4.91904534
H       0.73286180     -0.94535353      3.68944739
O      -0.61807381      4.69564573      1.32260112
H      -0.29719773      4.63089806      0.38961546
H      -0.60932314      5.63120427      1.53000693
O      -1.05915890     -3.59787004     -0.84722244
H      -1.85643564     -4.11391039     -0.71362978
H      -1.34369755     -2.65378073     -0.88949059
O      -2.42117787     -2.62826185      2.39741501
H      -1.58548509     -3.08341196      2.18461312
H      -2.29255719     -2.24554173      3.28381047
O      -0.36056934     -3.10004292     -3.54491065
H      -0.56119002     -3.38602238     -2.64059384
H      -0.76467238     -2.22447823     -3.64907293
O      -1.83680760     -1.65423723      4.92169548
H      -1.93317810     -2.33779584      5.58620326
H      -0.89671264     -1.40201534      4.92032475
O      -1.82318865     -0.65836211     -3.86487560
H      -2.37330209     -0.87976528     -4.61822399
H      -1.33645660      0.16184482     -4.12946479
O       1.89805511      1.43345624      1.41912147
H       1.60133347      2.12157158      2.06104113
H       2.48230001      0.82255873      1.91337463
O       0.28792594      4.57549347     -1.16774941
H      -0.34147925      4.41077751     -1.89059257
H       0.94628959      3.86335300     -1.21336171
O       1.76105382      2.30696800     -3.84660009
H       2.45859135      1.70284452     -4.10548516
H       1.74838382      2.31681761     -2.87897680
O       3.38288435     -0.40087021      2.79188212
H       3.03140344     -1.31276830      2.87492779
H       4.29233372     -0.50080247      2.50854287
O      -3.67664507     -0.89159977      0.80835494
H      -4.59996059     -1.13704647      0.88089231
H      -3.19165440     -1.51164692      1.40475937
O       2.36204296     -3.41826890     -3.24850989
H       1.41260220     -3.29622032     -3.43878458
H       2.59227531     -4.27096179     -3.61816356
