87
charge=0
Cl      0.05480556     -2.83853623      5.95730555
Cl      0.19889431     -0.26757656      4.20548727
Br     -1.25706686      2.05105702     -4.43192488
N      -2.92558296      0.12086566     -1.22007535
O      -2.55495618     -1.74709701     -0.05889652
C      -0.27793050     -2.41870437     -1.61674927
C      -0.66096291     -3.23885713     -0.64338266
C      -2.65445101      0.97288192     -2.20223237
C      -2.16159697     -0.94948861     -1.05779064
C      -0.97278992     -4.04516782      3.76696736
C      -0.74605384     -0.31164943     -2.88202428
C      -1.42191981     -4.06313073      2.46089625
C      -0.85148799     -1.74442348      2.21596365
C      -0.47884142     -2.87192652      4.31198736
C      -0.41877601     -1.72597066      3.52963103
C      -1.58102373      0.78716722     -3.04730542
C      -1.04216539     -1.21354162     -1.87360618
C      -1.36918913     -2.91497568      1.68222127
C      -1.83991509     -2.95223696      0.24093060
H       0.58165959     -2.62491727     -2.23592556
H      -0.15280524     -4.16133411     -0.41314857
H      -3.31140362      1.82452500     -2.29217290
H      -1.00076483     -4.93970915      4.36726880
H       0.12149251     -0.45699309     -3.50772048
H      -1.78678018     -4.98408592      2.03676563
H      -0.78995052     -0.84875671      1.61916747
H      -2.56820900     -3.77156301      0.14029308
O       1.49563065      0.39430243     -0.67232015
H       0.76595429      0.59765520     -0.07419765
H       1.51920487      1.14156805     -1.30637975
O       2.36685964     -1.99457259      0.39974491
H       1.80320051     -1.42794318     -0.14689805
H       2.53754799     -1.46639946      1.20353597
O       2.14942918      0.59240933     -4.27526531
H       2.43626480      0.80854672     -5.16314992
H       2.89160566      0.12977421     -3.84155014
O      -0.89444170      3.60626020     -0.61664663
H      -1.37764974      3.96475797      0.18998585
H      -0.02613975      4.01433422     -0.62455174
O       3.06620549     -0.17498164      2.33872833
H       2.46799575      0.60650382      2.35416048
H       3.86552447      0.12872898      1.89801206
O      -2.27454864      4.31371228      1.46612553
H      -3.17317526      4.35240627      1.06392548
H      -2.30858999      3.52532372      2.03028189
O       0.22974982     -6.03007486      0.78844074
H       0.74703991     -5.42071645      1.34300946
H       0.86422482     -6.65348632      0.43102354
O      -3.12179890      4.06482122     -2.17686823
H      -2.27174007      3.90785504     -1.72570828
H      -3.03248229      4.88366201     -2.66540072
O      -2.65261428      1.76440607      2.49775423
H      -2.77904365      1.27789785      3.32841456
H      -3.41816167      1.54529570      1.92883597
O      -0.65559939      1.30461316      0.79359967
H      -0.77388214      2.05197439      0.17290685
H      -1.38521143      1.39999210      1.44556795
O       4.17720790     -0.01967653     -0.43620232
H       3.26851913      0.34282144     -0.45761034
H       4.05344023     -0.93751843     -0.15652387
O       1.48313546      1.99464707      2.28646436
H       1.13592863      2.31024114      3.12136312
H       0.70533641      1.75052954      1.73743483
O      -2.87781731      0.42204398      4.90112222
H      -3.18731231      0.86968926      5.69074886
H      -1.97728538      0.12326834      5.07213640
O       2.79719245     -2.89168927     -2.40323632
H       3.31017159     -2.13368689     -2.71369139
H       2.80967652     -2.85716291     -1.44135473
O      -4.57961384      3.90213545      0.17231788
H      -4.71475058      2.95916562      0.34163429
H      -4.23369038      3.96506555     -0.73460718
O      -4.56399944      1.08930459      0.70001521
H      -5.21646599      0.42345393      0.91987556
H      -3.99054942      0.69681026     -0.00527450
O       4.31809463     -0.53402928     -3.03670263
H       5.22422048     -0.50173885     -3.34397209
H       4.32967131     -0.24996746     -2.08799008
O       1.50064550      2.45008771     -2.41011999
H       0.62665061      2.78077021     -2.62955744
H       1.76213813      1.87674147     -3.15920484
O       2.90853515     -2.45263767      3.97284427
H       2.45866334     -2.22113313      4.78765870
H       3.02702450     -1.62810696      3.47522184
O       1.79851316     -4.16134097      2.04522773
H       1.96871564     -3.52702023      1.33207149
H       2.21423956     -3.76802880      2.82721183
