99
charge=0
O       2.66080734     -2.66627918      1.67946412
F      -6.25017301     -4.47524697     -1.67640049
F      -6.69982100     -2.51214548     -0.93748780
F      -7.43222454     -4.23832945      0.09679123
F      -6.02101934     -4.32283043      2.41648590
F      -4.29787833     -3.05551698      2.41912341
F      -6.19143969     -2.28924991      1.76540624
F       0.11107699     -4.74282318      0.10673064
F      -0.20011051     -4.49410866     -2.01124685
F      -1.57453687     -2.16810452     -1.59192125
F      -1.13389582     -2.22356161      0.51660295
F      -2.43397497     -4.44263285      0.93184949
F      -2.65003824     -4.89350254     -1.17874608
F      -3.73292625     -1.88294340      0.22470816
F      -4.16669498     -2.83761929     -1.65339601
F      -4.81421645     -5.16460561      0.37245621
S       3.87081633     -2.49168889     -0.61107029
C       3.55228324     -2.09121243      1.09550843
C       5.19631196     -0.28433603      0.94452587
C       4.44435753     -1.08920326      1.69120090
C       4.39350139     -1.01716938      3.18501409
C      -6.39626141     -3.74503142     -0.57719571
C      -5.40643615     -3.35418532      1.74921243
C       2.49377190     -3.65115350     -0.86575729
C       1.18370271     -2.87604524     -0.94066363
C      -0.01443123     -3.80034255     -0.85634091
C      -1.32257660     -3.00035225     -0.56768824
C      -2.57005873     -3.89423996     -0.28514406
C      -3.90616364     -3.07558560     -0.35750905
C      -5.10455681     -3.83479127      0.29539657
H       5.80911105      0.47300860      1.40120170
H       5.19675949     -0.33991077     -0.13061709
H       5.05528108     -0.23868599      3.54696005
H       3.37886474     -0.80755903      3.51443688
H       4.68453038     -1.97355984      3.61626085
H       2.70186519     -4.19367001     -1.78543485
H       2.49289335     -4.33371553     -0.01481651
H       1.11763368     -2.31240099     -1.87582748
H       1.14409400     -2.17512112     -0.10506229
O      -3.05868086      2.47318250     -2.23124191
H      -2.87706080      2.53968639     -1.24592953
H      -3.22409156      3.36733589     -2.52984576
O      -0.66884907      0.76469469      0.94400024
H       0.26633670      0.46525927      0.78773149
H      -1.18804742     -0.03640841      1.05081972
O       1.18817309      0.08183664     -2.21730127
H       0.24573030      0.25522557     -2.38227026
H       1.64965574      0.35821209     -3.01081870
O       0.77186791     -1.33838371      3.32499466
H      -0.10441858     -1.39344812      2.92180938
H       1.38189595     -1.82969962      2.75589592
O      -2.53997072      2.61619695      0.30073531
H      -3.18320371      2.09292367      0.82846095
H      -1.71078030      2.11511045      0.37892846
O       0.84102819     -2.38842935     -4.13646825
H       0.75227756     -1.46317027     -4.45323738
H       1.53331178     -2.78980661     -4.66316672
O       0.45827554      0.10419907     -5.14041846
H       0.02041215      0.10219898     -5.99235113
H      -0.20632288      0.41580374     -4.48804096
O      -1.34056128      1.67966518      3.35300782
H      -2.15051729      2.18134550      3.23479566
H      -1.00478903      1.50537565      2.44104925
O      -1.33408433      0.62224566     -3.22214062
H      -1.96965246     -0.09967174     -3.37886610
H      -1.86421717      1.36447404     -2.87747372
O      -5.75699354     -0.13855519      0.02884087
H      -5.44094759      0.05709346     -0.88563028
H      -6.65209115      0.19853740      0.07277619
O      -1.66346683     -3.39200942     -4.41496849
H      -1.72370262     -4.20189571     -3.90667297
H      -0.74848622     -3.06102832     -4.29349280
O       5.22765523      2.30645954      3.08805275
H       5.47787013      3.23118417      3.10671117
H       4.73859992      2.13661548      3.91760639
O      -3.99008163      0.91277177      1.78935115
H      -3.42585057      0.16645200      2.03482936
H      -4.66744074      0.53941939      1.19225130
O      -3.19332592     -1.25142643     -3.95889335
H      -3.68417895     -1.16241149     -4.77783745
H      -2.67659535     -2.08309567     -4.04704746
O       2.81809632      2.01354990      1.71188607
H       2.27550630      1.83223013      2.50146797
H       3.73586133      2.02839733      2.02951542
O       1.76336201     -0.06839778      0.44720327
H       1.73478731      0.06350397     -0.51505419
H       2.25749296      0.69610876      0.82506538
O      -4.87841797      0.41755324     -2.42034211
H      -4.35670568     -0.29416431     -2.81483006
H      -4.28074359      1.18501837     -2.36321968
O       3.59671211      1.95290455      5.24932168
H       3.30455497      2.61605899      5.87560314
H       2.78908523      1.61168698      4.81736772
O       1.34929119      1.21486050      3.91045727
H       0.45923734      1.58952333      3.94060197
H       1.20970318      0.25997039      3.72134794
O      -2.05547844     -0.90497792      2.90221699
H      -1.79954468     -0.05293285      3.31746440
H      -2.41420333     -1.46304612      3.59234214
