96
charge=1
N      -1.97636540      1.28896159     -0.81816460
N      -0.75610339      3.85043757     -0.77405247
C       0.58625380      2.38836164     -3.87097299
C      -0.79116078      0.70214360     -2.76886958
C       0.37195952      3.26825274     -2.88204868
C      -1.06256560      1.58718633     -1.74510602
C       0.12083996      1.02073771     -3.79034353
C      -3.48256658      2.79600542      2.12467319
C      -2.96488430      4.15598226      2.04640712
C      -3.15463609      1.87741866      1.13590607
C      -2.11704599      4.48963976      1.04982894
C      -2.26869081      2.19126297      0.11787897
C      -1.67025958      3.53060223      0.08133245
N      -4.29371015      2.44472064      3.11871648
N       0.50183533      0.11924813     -4.68868985
C      -0.24642084      2.82828706     -1.61679995
C      -3.38501688      5.13668482      3.08847621
C       1.49383594      0.42237927     -5.69342869
C      -0.06060545     -1.21091389     -4.67997186
H       1.07347592      2.71486612     -4.77331963
H      -1.31847998     -0.23473885     -2.76279924
H       0.69263211      4.29520112     -2.94984323
H      -3.57210885      0.88417460      1.17728773
H      -1.70878416      5.48653111      0.98199833
H      -4.38328329      3.02751855      3.93544704
H      -4.55178200      1.46330341      3.20995507
H       0.66492267      2.44193514     -1.05080018
H      -2.91783199      6.10216193      2.91980240
H      -3.10171176      4.77944379      4.07841425
H      -4.46666813      5.26665632      3.07360959
H       2.35421591      0.90624267     -5.23092207
H       1.08907558      1.07295107     -6.47233029
H       1.82227977     -0.50248257     -6.16061350
H       0.47210085     -1.82867410     -5.39376578
H       0.02059035     -1.66022790     -3.68896204
H      -1.11536942     -1.18502197     -4.96128599
O       1.85974863     -2.84178668     -6.83908325
H       1.91087618     -3.04955107     -7.77306788
H       1.43868884     -3.59998327     -6.40716515
O       3.07074782     -3.27534111     -4.21042419
H       3.36956130     -2.92940677     -5.05573117
H       2.27724183     -3.79776883     -4.42496503
O       0.07900624      2.35871483      1.87898102
H       0.91155510      2.84905621      1.91915637
H       0.31299394      1.43883782      1.65977406
O       3.19995509      1.30921876     -2.90534512
H       2.80224966      1.44475062     -2.02812425
H       4.06998838      1.71193061     -2.87094078
O      -1.50610536     -1.15162360      0.28647694
H      -1.22020841     -1.74743625     -0.44156742
H      -1.88656044     -0.36782829     -0.15887858
O       0.95423144     -4.86634765     -5.06209183
H       0.46758883     -4.91182766     -4.21148280
H       1.22185162     -5.76559858     -5.26240241
O      -0.37352932     -2.47076359     -1.74067479
H      -0.45737245     -3.39993192     -2.00146807
H       0.50228840     -2.40580701     -1.29902091
O       2.08152687      1.60238231     -0.38569431
H       1.74869030      0.85684450      0.13601803
H       2.39312660      2.27628915      0.25240748
O       2.50571130     -4.64289590     -1.67039035
H       2.41443201     -3.92760697     -1.02235093
H       3.02852159     -4.27612903     -2.39348005
O       0.75549211     -0.27233649      1.27503081
H       0.76779808     -0.61438387      2.17294020
H      -0.10434580     -0.60797989      0.88450099
O       1.95085157     -2.23169247     -0.42478200
H       2.59813498     -1.82566877     -1.05348655
H       1.77117336     -1.57769290      0.26187683
O      -4.07644981      0.53167088      6.13544753
H      -3.73446286      1.44073103      5.99676786
H      -3.37174458      0.03621031      6.55716408
O      -1.12964454      1.56558531      4.18739741
H      -1.43178553      0.69558663      3.86110588
H      -0.73451619      2.00161647      3.41199869
O       0.07032503     -5.09882424     -2.52951824
H      -0.27950888     -5.90306372     -2.14410245
H       0.99426424     -4.99066947     -2.16841253
O       1.35595552      5.47863622     -0.16909795
H       0.52514368      5.02363043     -0.43198421
H       1.11795898      6.35996862      0.12235440
O       2.53307337      3.62433213      1.34437800
H       3.35007834      3.94189715      1.73182276
H       2.16581433      4.36284673      0.80397387
O      -4.65908001     -0.30659688      3.69497932
H      -4.49054771     -0.06780978      4.64053533
H      -5.42456590     -0.88292114      3.69306629
O      -2.88678544      2.91356766      5.59220844
H      -2.20107306      2.44220883      5.04804237
H      -2.42991077      3.24313955      6.36782092
O       3.56047083     -1.34818299     -2.29402921
H       3.42399575     -1.98464411     -3.01439540
H       3.40580879     -0.46127548     -2.65947881
O      -1.98183740     -0.76660407      3.05182492
H      -2.93335335     -0.73353054      3.23718217
H      -1.90240908     -1.00627221      2.11807433
