69
charge=0
N      -0.93676647      1.17613351      1.76899553
N      -0.95751089      0.15026735      2.47193919
N       0.60050552     -0.17584438      0.85506589
S       0.46564782      2.17602100     -0.36982179
C       0.04404851      0.99791789      0.78858345
C      -0.00519076     -0.78726045      1.97681061
H      -0.72980093      2.84074725     -0.39232489
H       0.72622078     -1.05674535      2.74682908
H      -0.53520034     -1.72078061      1.72310044
O      -3.42201657      2.53888403      1.22782023
H      -2.62525239      2.32383159      1.73060019
H      -3.89534848      1.69341687      1.12303262
O      -3.53376881     -2.21942655     -0.42979256
H      -4.31620531     -2.62905184     -0.80163134
H      -2.95693083     -1.96813255     -1.18151526
O       0.06101663     -4.57368931      2.49282117
H       0.56658199     -4.59968569      1.67122254
H      -0.77816072     -4.13395996      2.27777294
O       2.77001521     -2.26248064     -1.45822649
H       2.58930990     -2.81991960     -0.68285459
H       3.21071793     -1.46205068     -1.09910704
O      -4.35718598     -0.04957679      1.17470650
H      -4.13883553     -0.40224472      2.04895624
H      -4.07113274     -0.72515534      0.54330849
O       3.61621922      2.73779856      0.82594836
H       3.83118517      1.87830027      0.43255300
H       3.23263299      3.27474581      0.11928938
O      -1.94945482     -1.58884386     -2.50948889
H      -1.01508778     -1.43991228     -2.22351565
H      -1.91033415     -2.19207995     -3.25275182
O       2.36541276     -3.65720280      0.92061601
H       3.17398252     -4.15813102      1.04141876
H       2.26693563     -3.10119404      1.71462263
O       1.79847051      1.89665933      2.68178217
H       2.45959760      2.23011996      2.03882140
H       2.01685189      2.32160127      3.51183834
O       0.16166273      4.00648398     -2.72242489
H       0.17749319      3.10796784     -3.07253584
H      -0.67732705      4.09865075     -2.25405416
O       0.45709694      1.06648265     -3.46723152
H       0.67542561      0.72961497     -4.33777838
H       0.52586421      0.30071808     -2.84215157
O      -2.20327103      3.38624644     -0.99713003
H      -2.78330688      3.22078151     -0.21953112
H      -2.41911794      2.68182968     -1.63751658
O       1.75435070     -2.76343202      3.48284127
H       2.20679917     -3.02867726      4.28413381
H       1.06564283     -3.44696229      3.30540056
O       2.58337937      4.24748342     -1.47622643
H       2.97680173      5.09365941     -1.69197751
H       1.68309244      4.24987991     -1.86464105
O       3.03717124      1.72821575     -2.49193603
H       2.14489959      1.60233809     -2.84485154
H       3.04681100      2.63550513     -2.14483856
O       3.35660549      0.14004702     -0.35653162
H       2.51761530      0.18697521      0.12152928
H       3.25708785      0.68308815     -1.17334967
O      -2.25823970      1.26991352     -2.75289818
H      -2.42800017      0.33622681     -2.58015650
H      -1.34426134      1.31123887     -3.07412161
O      -2.08770646     -2.98436535      1.80003794
H      -2.56250222     -2.52214255      2.50643453
H      -2.60395688     -2.82786841      0.99248410
O      -3.17862352     -1.05996261      3.53651248
H      -3.43623525     -0.87970242      4.44148480
H      -2.40158220     -0.49606818      3.33882411
O       0.53498233     -1.02054511     -1.81197040
H       0.51897261     -0.69219419     -0.89493023
H       1.37247844     -1.57238490     -1.83519131
