88
charge=0
O      -0.52899292      1.64773213      3.00201709
O      -1.16777893     -1.71778054      2.00169879
O      -1.78111985     -1.42563206     -3.32329948
O       0.75154320      1.15874541     -0.89804129
O      -1.64929076      3.27829020      1.44978234
O       0.64512843     -3.07001450      0.81255803
O       1.19674099     -1.97402089      2.96088489
O      -0.05252799      0.43830346     -3.56545291
O      -2.14319550      0.93729605     -2.41790195
C      -1.06886785      0.82409216      0.46336205
C       0.98918427     -0.39270947      0.78526236
C      -0.38945642     -0.83795396     -1.10743005
N       0.08240083      0.20871568     -0.19922481
P      -0.54901243      2.16754193      1.61497456
P       0.28316497     -1.82951558      1.69952791
P      -1.14914412     -0.24343139     -2.68033998
H      -1.44583452      3.93504867      0.69709102
H      -0.12822911     -3.68235763      0.56547889
H       0.89337349     -1.39311147      3.71192793
H       0.76313055     -0.10850821     -3.77762353
H      -3.09449245      0.60024270     -2.56061519
H      -1.60457424      0.06936354      1.03694192
H      -1.71878224      1.22994442     -0.30971029
H       1.87066093     -0.74652247      0.24529886
H       1.31029194      0.36955585      1.49828351
H      -1.13337713     -1.45463366     -0.61013234
H       0.46233607     -1.45164761     -1.39947758
H       0.61121374      2.65734470      1.10113482
O       0.17539864     -0.32341408      4.70578461
H       0.11307311      0.48032494      4.15613564
H      -0.73476103     -0.62176623      4.81185062
O      -1.24887000     -4.57574587     -0.00717657
H      -2.08340009     -4.22005359      0.34980861
H      -1.27569032     -4.45826904     -0.97206972
O       1.62715514     -4.28877466     -1.58226072
H       1.49859900     -4.52279911     -0.65917934
H       0.73612417     -4.19779541     -1.96931532
O       2.46202911      1.84078692      2.50417046
H       2.97494656      2.19284339      1.76750298
H       2.00311305      2.59097313      2.90359309
O      -0.90496390      4.84879469     -0.42065090
H      -0.01594964      5.13061649     -0.15179957
H      -0.75301967      4.29560673     -1.22355808
O      -4.38081912     -0.24590030     -2.72722837
H      -4.00971103     -0.94230143     -3.28050981
H      -4.31204106     -0.58032747     -1.80564630
O      -2.73115683      0.56636103      4.18612050
H      -3.05412190      1.17898242      4.84890556
H      -1.95478781      0.99246684      3.77405384
O       0.17792220     -2.79309582     -4.96809084
H      -0.54954339     -2.20961422     -4.71735259
H       0.97976412     -2.26377655     -4.91786286
O      -3.92438344      0.88263613      1.71951602
H      -3.63980505      1.79351642      1.61318338
H      -3.61393141      0.60303353      2.60129023
O       0.88821188      4.21487192      2.76081578
H       0.33624819      4.76490715      3.31689222
H       1.18433180      4.75390195      2.00741671
O      -3.22885170     -3.18903689      1.25983253
H      -2.49750612     -2.64193105      1.62909141
H      -3.74870585     -3.48279498      2.00908036
O       2.81404814      2.74319390     -0.23809886
H       2.05529064      2.13066790     -0.37542667
H       3.30857692      2.67643155     -1.06260946
O      -3.56645301     -0.94257372     -0.30729885
H      -3.63962730     -1.80328570      0.13293648
H      -3.79490337     -0.28162465      0.37225231
O      -0.22914172      3.18226201     -2.37652662
H      -0.92868894      2.79117015     -2.90560762
H       0.10580021      2.44215578     -1.82771088
O       2.17430692     -0.79079202     -3.96854315
H       2.37789324     -1.26581672     -3.13035663
H       2.63897297      0.05955620     -3.88147305
O       3.03970960      0.47240443      4.96351833
H       2.17609023      0.11084258      5.17897331
H       2.94797490      0.87165806      4.08922320
O      -0.89409640     -3.88861403     -2.65013788
H      -1.32388838     -3.02038498     -2.78360935
H      -0.56038037     -4.09660322     -3.53473760
O       2.69150241     -1.89806634     -1.58451999
H       2.33485821     -2.82694064     -1.59264636
H       3.63183908     -1.98201720     -1.41919271
O       1.77220971      5.15024532      0.32474701
H       2.17486357      4.28210267      0.07973218
H       2.38813913      5.82749969      0.04260013
O       2.54012310      1.70432019     -2.91238518
H       2.00121678      2.33782525     -3.39385860
H       1.93138994      1.32880610     -2.25030217
