84
charge=0
O      -3.50294937      0.62836336      0.28006011
O       1.15433281      0.93363539      1.96553976
O       3.92413373     -3.23485338      1.17485060
O      -2.43272020     -0.87463435     -0.98104407
O       3.61915440      1.27733756      2.56010474
C      -2.48934990      0.01421982     -0.02208779
C       1.06317451     -0.17954657      1.38429629
C       4.22397416     -2.14983889      1.63577688
C       3.35977094     -0.98699756      1.75454687
C       4.04177425      0.05113149      2.31349107
C      -1.21597912      0.26058951      0.67113325
C      -0.18427214     -0.58288772      0.72212173
N       2.04551246     -1.06486884      1.30136848
C       5.58425515     -1.76979056      2.17788875
C       5.45395221     -0.31946585      2.63736725
H      -3.23566382     -0.82509701     -1.63132931
H       2.62042366      1.29977281      2.37312280
H      -1.15210101      1.22737426      1.14737421
H      -0.22082729     -1.56375085      0.27855373
H       1.82200597     -1.97007924      0.84085446
H       5.85670316     -2.44765844      2.98591117
H       6.32251722     -1.88846295      1.38528376
H       5.63073713     -0.19837774      3.70706329
H       6.14063768      0.34753307      2.11490406
O       3.79967652     -1.21248850     -2.37069323
H       4.39613836     -0.79971523     -1.70617493
H       4.19504282     -1.05562467     -3.22943603
O      -2.53302990      3.51043922      0.31595407
H      -1.96312826      3.51015940      1.10721756
H      -3.28567402      2.95139209      0.52760009
O       1.53866098      0.01728499     -1.41775755
H       0.82148509     -0.30161270     -1.99874708
H       2.35824566     -0.37556518     -1.75899397
O      -2.03116234      0.97331418     -3.78345140
H      -2.03339856      1.63810583     -4.47271463
H      -1.75313569      1.43964713     -2.95652192
O      -5.74571748      0.99069957     -1.33591613
H      -6.31828479      0.23588179     -1.13944768
H      -5.08552330      1.01083638     -0.62410705
O      -2.94973367      1.09439884      3.10226497
H      -3.38292463      1.00590620      2.24334405
H      -2.54593569      0.23363131      3.28256076
O      -1.20376727      2.16615858     -1.57845840
H      -0.28672283      2.42896211     -1.40897509
H      -1.74714897      2.72896689     -0.98481800
O       1.35303262     -3.49286580      0.22668438
H       1.36920516     -3.44167404     -0.75627658
H       2.22620690     -3.83004600      0.48304779
O       5.34406320      0.23879136     -0.73109056
H       4.83629432      1.05222294     -0.49377288
H       6.16455132      0.55414806     -1.11326783
O       0.44775335     -0.04542918      4.56094556
H       0.68034043      0.54196534      3.83206690
H      -0.40336653     -0.44977390      4.30865396
O      -1.70566109     -1.41147100      3.52314051
H      -2.26479105     -1.89659567      4.13270961
H      -1.11932163     -2.09270447      3.10648817
O       4.10440793      2.49786669     -0.04627652
H       4.09913752      2.52968646      0.91603548
H       3.17295310      2.62156771     -0.32617330
O       1.60083704     -3.05931566     -2.40071427
H       2.41829441     -2.54241537     -2.41192757
H       0.90328406     -2.48346954     -2.74242403
O      -1.02342737      2.95544731      2.56318578
H      -0.19634301      2.46737431      2.62495972
H      -1.71231985      2.39623004      2.97409195
O      -0.41630977     -1.10451771     -2.92263060
H      -1.03339069     -1.29554189     -2.20246997
H      -0.87605760     -0.44265786     -3.46417554
O      -6.45571660     -1.72756604     -1.51807358
H      -5.67585908     -1.70401579     -2.08575473
H      -7.13578035     -2.19983325     -1.99976290
O       2.03943739     -2.16163053      4.17480066
H       1.52616101     -1.34988505      4.39967015
H       2.19928711     -2.61307125      5.00424113
O       0.00887396     -3.23774323      2.68450104
H       0.81048798     -2.97211961      3.17628366
H       0.31117945     -3.46867143      1.79492245
O      -4.15731781     -0.49197066     -2.82316593
H      -3.51072024      0.00527441     -3.35544800
H      -4.76767470      0.18406560     -2.42689268
O       1.42066943      2.48787808     -0.53237292
H       1.48776082      1.58163162     -0.91513204
H       1.10868603      2.35955512      0.37055203
