104
charge=0
O       2.78984012     -1.83916395      1.73738505
O      -1.25797342     -2.42718097     -1.84289497
O       5.64082536      2.93256431      0.44934438
O      -7.48512139     -0.42895256      2.49238947
O      -8.02790653     -2.36922183      1.12310729
N      -0.70719213     -1.63357277      1.43632023
N       1.16544581     -0.43368397     -1.35541851
N       1.59105705     -1.55179115     -0.98336212
O       1.26528307     -0.92486026      3.09551921
O       6.82166704      2.18292425     -1.68298795
O       6.09517198      0.49225970      0.04357777
O      -7.75000214     -0.22571770      0.05429049
C       1.63336330     -1.56924915      2.03011198
C      -0.81687104     -2.28416936     -0.73988640
C       0.51025166     -1.90714947      1.13982411
C       2.57120459      2.43200958     -3.12303197
C       1.70417563      1.41678752     -2.77412384
C      -3.40978957     -1.77418837      1.85609160
C      -3.72647844     -1.51726266     -0.53244975
C       3.79514834      2.56582331     -2.48342787
C       3.31450875      0.62854392     -1.15324140
C      -4.76399412     -1.60675684      2.05424840
C      -5.08214164     -1.35015076     -0.32218848
C       2.07665920      0.49545211     -1.79103718
C      -2.89233814     -1.71614836      0.56183392
C       4.15835599      1.66067300     -1.49827393
C      -5.57940162     -1.38855227      0.96273590
N      -1.51301477     -1.85172729      0.39634426
C       0.64655512     -2.38449486     -0.28611149
P       5.71287973      1.86758169     -0.59523403
S      -7.30097865     -1.13163027      1.24481614
H       2.05905764     -0.57381898      3.66668126
H       7.18043158      3.14866235     -1.67160014
H       6.16379859     -0.30837995     -0.61613310
H      -7.25564882      0.69119272      0.07017599
H       2.29124644      3.13448765     -3.89286945
H       0.75156917      1.29842647     -3.26599356
H      -2.74692715     -1.95217429      2.68607045
H      -3.32965713     -1.49869149     -1.53280003
H       4.46227958      3.37339468     -2.74128319
H       3.57227788     -0.05693181     -0.36063825
H      -5.19876064     -1.63130409      3.03966550
H      -5.73573157     -1.17976469     -1.15923667
H       1.00202153     -3.41781110     -0.34096498
O      -1.61655850      0.82471982      2.69416912
H      -1.20631464     -0.04124277      2.56551987
H      -0.91475021      1.41713215      2.97046136
O       7.65669979      4.57795846     -1.58563681
H       8.02603047      4.59461450     -0.68023177
H       6.80595846      5.05581444     -1.50910598
O      -8.23817006     -4.02003916     -0.91960576
H      -8.91729007     -4.66843831     -0.72778372
H      -8.16114309     -3.45373669     -0.12105176
O      -6.63866076      2.04714943      2.92685804
H      -6.94731684      1.11738831      2.87181835
H      -7.21066346      2.48196131      3.56108660
O      -1.29135073     -4.60923649      0.02571177
H      -1.28010657     -5.07422608     -0.81402222
H      -2.23660947     -4.57227944      0.28120164
O       5.20307201      5.37762378     -0.76476034
H       5.18750066      6.07694001     -0.10898801
H       5.20528304      4.53917382     -0.26889790
O      -4.12699330      1.38943252      1.51005023
H      -3.23326245      1.21152546      1.83862596
H      -4.63982115      1.66279324      2.27893222
O       4.82908671     -0.60937877     -3.69997852
H       5.41996595      0.11070791     -4.00619936
H       4.66765366     -1.17373124     -4.45755738
O      -8.28769213     -1.68076783     -2.39825618
H      -8.28009425     -1.06400454     -1.65627534
H      -8.40837353     -2.56252679     -2.00716809
O       6.12410261     -1.49051817     -1.50080980
H       5.47936908     -2.11831700     -1.10292596
H       5.69111422     -1.19316316     -2.32892966
O      -6.45139160      1.92791611      0.22868129
H      -5.50535287      1.70830861      0.28775281
H      -6.66357775      2.23521262      1.13192964
O       3.21928204      0.13104165      4.38362956
H       4.03560199     -0.35093549      4.19509488
H       3.28678364      0.94254088      3.84816210
O      -5.53345667     -4.28990101     -1.64252323
H      -6.47061882     -4.30281957     -1.39717260
H      -5.43892141     -3.52944856     -2.24448363
O       4.03844513     -2.88201429     -0.57522711
H       3.73692810     -2.72077947      0.32933641
H       3.33986482     -2.50792995     -1.13128983
O       7.98639526      4.22178378      1.07993148
H       7.13792718      3.74587782      1.01403497
H       8.59570556      3.62511437      1.51640241
O       6.68225938      1.25698036     -4.28218742
H       7.56064001      0.93371246     -4.49200220
H       6.74351072      1.64482176     -3.39253319
O      -5.79911889     -2.12166393     -3.33048593
H      -5.78411394     -2.29781443     -4.27165091
H      -6.72924707     -1.90098598     -3.10359215
O      -3.97868433     -4.56475964      0.51258361
H      -4.49356052     -4.41184758     -0.31397906
H      -4.32839315     -5.37441897      0.88844060
O       3.82128809      1.66152318      2.22108222
H       4.40537755      0.88194864      2.23787264
H       4.32980993      2.32745850      1.74396004
O       5.21943369     -0.71820903      2.52217430
H       5.81901399     -0.57676255      1.78154972
H       4.49213323     -1.27301890      2.19736317
