76
charge=0
I       6.50237619     -1.17141438     -2.12639508
C       1.94775487     -2.62706146     -2.54244000
C       2.44933502     -1.53934903     -1.56628019
C       3.13844214     -3.52979386     -2.15359966
C       2.78834634     -2.00197655     -3.67627524
C       3.63609491     -2.44586280     -1.17534585
C       3.28407945     -0.91260832     -2.70378406
C       3.97592291     -2.90843302     -3.29092649
C       4.46122404     -1.82417276     -2.31515614
H       0.92341732     -2.95453255     -2.64426974
H       1.84061204     -0.99124256     -0.86115830
H       3.08613765     -4.58827641     -1.93120508
H       2.44905289     -1.82019467     -4.68807217
H       3.98455499     -2.62526652     -0.16638183
H       3.34856684      0.14303219     -2.93351667
H       4.60085324     -3.45697494     -3.98488862
O       4.14131882      1.25013160     -0.32718771
H       3.75833998      0.76104231      0.43205907
H       4.78905311      0.67090208     -0.73317936
O      -0.00865092      1.26353716     -2.81206764
H       0.70797682      1.49305858     -2.19403572
H      -0.48158374      0.50235354     -2.42866636
O       0.99123775      1.49319527      2.72328663
H       0.09510368      1.40713060      2.36479882
H       1.28682869      2.35924772      2.36489182
O      -1.34004165     -1.88977165      2.28021412
H      -0.98492089     -2.78976038      2.21437764
H      -2.12903874     -1.87509267      1.69862343
O      -1.70189982     -4.54972288     -0.29253943
H      -0.98657030     -4.38799972      0.36001091
H      -1.95643904     -5.46793712     -0.19477883
O      -1.15350119      4.23307348      0.14265038
H      -2.07590831      4.28678732      0.45039132
H      -1.21946277      4.03892472     -0.80647082
O       1.99909431     -2.55402537      2.24358236
H       1.59376398     -2.10334920      3.01766453
H       2.26857786     -1.82064865      1.67015528
O       2.97703790     -0.01372530      1.73857815
H       2.19036390      0.51670728      2.01473338
H       3.55651568     -0.02809138      2.50248123
O       1.41111149      3.65494351      1.20387348
H       0.58706631      4.12484432      1.02268393
H       1.61801346      3.18363322      0.37760939
O       0.08586661     -4.20760356      1.68350073
H       0.86169345     -3.57880575      1.76588615
H       0.28205572     -4.92714539      2.28421956
O      -1.17190404      1.67365231      1.04175214
H      -1.94784428      1.43766174      0.50068653
H      -0.98403719      2.60148416      0.79467764
O      -3.06417481      1.43378656     -0.91464611
H      -2.68166080      2.12214893     -1.49091718
H      -2.72980795      0.59629424     -1.26451912
O      -1.44997732     -0.77656682     -1.58861739
H      -1.30253128     -1.59682568     -2.09177971
H      -0.77713734     -0.77687175     -0.85283575
O       0.66820311     -1.01473890      4.01969337
H       0.84867832     -0.09001676      3.80258303
H      -0.20096458     -1.20652740      3.63947997
O      -3.08487031     -2.13424812      0.24721706
H      -2.68115647     -1.55917794     -0.42479852
H      -2.80323129     -3.03234966      0.02517953
O       1.94199839      2.39189019     -1.23013757
H       2.23847364      3.14082250     -1.74991174
H       2.75890634      1.92373808     -0.93671339
O      -1.29002107     -3.27643744     -2.67618210
H      -2.02278864     -3.51276576     -3.24628150
H      -1.39644560     -3.78440509     -1.84989426
O      -1.65200093      3.24741476     -2.41160452
H      -1.89587456      3.66230488     -3.23827082
H      -0.98870168      2.53304564     -2.63126870
O       0.17425250     -0.57475016      0.44988247
H      -0.25447203     -1.09332799      1.16149634
H      -0.10199650      0.34452708      0.62814009
O      -3.72692673      3.55782788      0.85639602
H      -3.77540440      3.18829327      1.73994857
H      -3.77217453      2.80811779      0.24590867
