95
charge=0
O       2.61382236      0.68423827     -2.44538141
O      -2.69557937     -1.19522369      1.65474295
O       1.40788345     -0.97727649     -3.07234148
O      -2.13151831     -2.47915728      0.02565995
O       1.21385937      3.47146103      1.13157147
O      -0.38830272      2.84019515      2.41384865
S       0.60092555     -2.46331574     -0.73897758
C      -1.36394561     -5.00952717     -4.32806072
C      -0.48164430     -5.34912568     -3.32204455
C      -1.94463724     -3.76501498     -4.57802891
C       0.04251023     -4.53969876     -2.32279607
C       0.89794440      1.32846081     -0.51860781
C      -0.90046856      0.65269749      0.95252920
C      -1.83186592     -2.58009896     -3.89246879
C      -0.21123753     -3.20802901     -2.05923864
C       0.71980886      0.22783682     -1.29268785
C      -1.09260755     -0.48971824      0.22003351
C       0.09907179      1.56854422      0.61519472
C      -1.09277607     -2.30069874     -2.72788134
N      -1.16587764     -1.10771882     -2.14493984
N       1.62249948     -0.02440627     -2.34016757
N      -2.02245857     -1.40748275      0.65805385
N       0.31536343      2.68143244      1.41965111
C      -2.04223044     -0.04086738     -2.56591968
C      -0.30037592     -0.84082977     -1.00989065
H      -1.63818862     -5.80179337     -5.01196925
H      -0.14644983     -6.37840908     -3.30819311
H      -2.59487195     -3.72773033     -5.44274916
H       0.73467623     -5.00341747     -1.63135837
H       1.68598520      2.01836203     -0.77538319
H      -1.50867672      0.81229084      1.83155452
H      -2.40322003     -1.75450581     -4.28738563
H      -3.04351541     -0.43193962     -2.75193398
H      -2.10292500      0.70639162     -1.77727038
H      -1.66735987      0.43333784     -3.47293485
O       4.49870633     -0.89149430      1.16067710
H       4.52931105     -0.04626651      0.65008613
H       5.00458480     -1.51997252      0.64286958
O      -4.71000284     -1.70655847     -3.14830478
H      -4.45146347     -2.53681863     -2.71669630
H      -5.61250861     -1.52786393     -2.88013000
O      -3.64179613      0.73060638      3.61357679
H      -2.79199021      0.74921602      4.09423331
H      -3.59235125     -0.03374847      3.02993223
O       3.50548304     -1.67485593      3.63635898
H       3.88798266     -1.35655110      2.80057495
H       4.19176368     -1.58965205      4.29882517
O      -3.30367727      2.94356321      2.11642137
H      -3.59486446      2.18981319      2.67554751
H      -2.44446082      3.20227277      2.46680414
O      -0.81250095      4.25240006     -1.04763569
H      -0.74205777      5.05898981     -0.53512126
H       0.01227970      4.19808046     -1.59401836
O      -1.87674502      2.41790794     -4.83834831
H      -2.33170511      2.84963605     -4.07167465
H      -2.00190643      3.01126006     -5.57994634
O      -2.62041034      2.19251183     -0.35799962
H      -3.03819136      2.43813822      0.49773879
H      -1.96181462      2.88492701     -0.51548671
O       0.57027668      1.87009143     -3.90755782
H      -0.31740524      2.09663358     -4.26403604
H       1.12112715      1.64613077     -4.65958252
O       4.53674441      1.19117186     -0.48913853
H       4.04578730      0.92311941     -1.27948702
H       4.27964441      2.11654352     -0.35659738
O       1.13028740     -5.12138375      0.75788481
H       1.37661090     -6.00883379      1.02524302
H       0.15533732     -5.06654614      0.86934036
O       1.73967087     -0.99810741      0.90416376
H       2.70040377     -1.10010468      0.98858495
H       1.37238026     -1.01248375      1.80758311
O       0.76446625     -1.01597961      3.44845303
H       0.63997765     -1.98555542      3.41226753
H       1.63991344     -0.91378596      3.84598940
O      -1.03580305      0.88631086      4.44804850
H      -0.45574830      0.17104186      4.14314189
H      -0.75127544      1.68581299      3.98964294
O      -2.94589497      3.65696588     -2.75523035
H      -2.18561076      4.05969830     -2.30278804
H      -3.29501149      3.02567311     -2.11071589
O       3.40137974      3.75436259     -0.48534867
H       3.87904308      4.57318087     -0.34637017
H       2.67709058      3.74033423      0.16563905
O       1.31333993     -3.61266486      3.07915545
H       2.20363860     -3.28296827      3.24849479
H       1.33739962     -4.02136649      2.19466116
O       1.38874526      4.05956577     -2.50523540
H       1.19243535      3.25431149     -3.02331741
H       2.19558162      3.88026877     -2.00191593
O      -3.82276897     -3.89991074     -1.67153987
H      -3.23275826     -3.41200839     -1.07833202
H      -4.23114412     -4.58332808     -1.13686042
O      -1.47771603     -4.81270787      1.34310315
H      -1.42400270     -4.54210152      2.26385312
H      -1.78176820     -4.03379766      0.84736475
