89
charge=0
N      -4.40850168      2.02562015      0.36175172
O       1.70428316      4.40339516     -3.33500548
O      -1.95498916      1.31572921      2.52124621
N       2.41811506      3.66888382     -2.61055255
N      -3.44352879      1.47284953      0.24274788
O       1.47822632     -2.36147944     -0.60834699
C      -1.54595219      0.79166831      1.46137409
C      -2.31951752      0.85852936      0.22046518
C      -1.85294819      0.23550540     -0.96664699
C      -0.68285003     -0.44601559     -0.96502841
C      -0.31844497      0.08408356      1.35760290
C       0.11173112     -0.50486435      0.20625591
N       2.57114958      2.46141182     -2.96418115
C       1.45820020     -1.17983754      0.17855993
C       3.18837817      1.53089341     -2.06015741
C       2.55111816     -0.22189092     -0.33872960
C       2.07819053      0.63767507     -1.50283022
H       0.58133180     -2.80146838     -0.60353313
H      -2.46217649      0.31677880     -1.85119501
H      -0.34159832     -0.92358879     -1.86511258
H       0.28769222      0.03338051      2.24702280
H       2.09159834      2.04637948     -3.78488184
H       1.72718131     -1.44682103      1.20867912
H       3.67073878      2.09545653     -1.26160073
H       3.91861602      0.93271375     -2.60937701
H       3.40182400     -0.83308961     -0.64229307
H       2.86205194      0.42675014      0.47735454
H       1.26816379      1.28242856     -1.15795862
H       1.71221403      0.00982184     -2.31275464
O       0.17927198      5.28664256     -1.17225210
H       0.66838830      5.10156862     -1.99171330
H       0.50378172      6.12865960     -0.84960445
O      -4.22318218     -1.45525387     -0.95049240
H      -5.07461390     -1.89559874     -0.94035230
H      -3.82421376     -1.62443867     -0.07283602
O      -0.55139929     -1.28680686     -4.20489626
H      -0.74796584     -1.60597836     -5.08746062
H       0.25184314     -1.77250992     -3.91077362
O      -0.03838106      3.47448949     -5.21492314
H       0.55042284      3.87320478     -4.53680289
H      -0.01570616      4.06615049     -5.96754339
O      -0.56453812     -1.90423264      4.12347348
H      -0.87773759     -2.56337426      3.48550787
H       0.40294375     -1.91325005      4.02126813
O      -3.11487585     -1.94570451      1.45790524
H      -2.44324303     -2.61322333      1.64380076
H      -3.31079061     -1.53531056      2.32636650
O       1.48652875     -4.01920529      1.83948230
H       1.72448499     -3.74088961      0.94614027
H       1.82359142     -3.33628925      2.44404883
O       2.17035037     -1.94444658      3.58034382
H       2.30038421     -0.95666341      3.52700213
H       2.74316312     -2.23619872      4.29092134
O       3.37300650     -0.53703114     -4.44296306
H       2.92761201     -1.31806340     -4.09267115
H       2.67234489      0.00947792     -4.81997895
O       1.64552777     -2.54899464     -3.27251826
H       1.66765371     -3.50020032     -3.38777835
H       1.69005316     -2.39744501     -2.29959921
O       2.34323935      0.65820232      3.62000405
H       2.46622774      1.25066326      2.85432060
H       1.49641514      0.91329118      4.03827340
O       1.00068137      1.00067643     -4.88816663
H       0.50880555      1.80029958     -5.15396496
H       0.33975460      0.36387002     -4.57640481
O      -2.43623093     -2.73784032     -2.59728065
H      -3.09535537     -2.22207914     -2.09538463
H      -1.93424475     -2.10937519     -3.13612736
O      -0.18181694      0.98412449      4.59441559
H      -0.82485244      1.13833308      3.87395576
H      -0.33997882      0.07623952      4.87556521
O      -0.68933882      3.71846757      3.01754130
H      -0.15037012      3.42959480      3.75908382
H      -1.40073129      3.06499528      2.94986514
O      -3.17027484     -0.78588857      3.89642833
H      -2.95407694      0.11482336      3.61893101
H      -2.33991960     -1.16932256      4.21364527
O      -0.77938176     -3.67432004     -0.73043277
H      -1.25967059     -3.71174104      0.10315194
H      -1.41798724     -3.39352409     -1.42644974
O       0.20766631      3.07531472      0.48469133
H       0.17715643      3.83070021     -0.13036837
H      -0.14659182      3.41479903      1.32746042
O       2.57586223      2.40909009      1.52452750
H       1.71424118      2.58634805      1.07720066
H       2.91671709      3.26329034      1.79312053
O      -1.12927851     -3.84956990      2.13736799
H      -0.15069368     -3.95821037      1.99641461
H      -1.44264730     -4.69090046      2.47265194
