84
charge=0
O       0.26846852     -2.50976875      1.44850011
Cl     -1.35836101     -0.46024284     -4.21342205
Cl     -3.57619115      0.94616250     -3.03962276
Cl     -3.54226195     -1.95259349     -3.05627395
O      -2.65335411     -0.52727772     -0.48766458
O      -0.44349046     -0.79591840      3.83202308
O      -0.97566759      0.62790177     -1.50640554
O      -2.68589446      0.71449801      1.48814279
O       0.17596922     -0.46708410      0.59295519
C      -0.14065645     -1.37706819      1.50125550
C      -2.54491081     -0.50083727     -2.91974207
C      -1.78207797     -0.52839853     -1.57500502
C      -2.64325967      0.77390785      0.12095461
C      -1.05196594     -0.79416691      2.57652374
C      -1.26069644      1.29008071     -0.29815726
C      -1.36320876      0.61428780      2.03801976
C      -0.37980590      0.81282899      0.87912150
H       0.49502137     -0.51192934      3.72104270
H      -1.15933905     -1.44617585     -1.56125454
H      -3.50480713      1.35025027     -0.22953997
H      -1.97016694     -1.38621097      2.65781261
H      -1.17685925      2.36716927     -0.45388512
H      -1.27023524      1.37115856      2.82103511
H       0.44583019      1.49610897      1.10402678
O       0.76685662     -2.30276935     -5.93465719
H       0.18796387     -1.59428330     -6.22095569
H       1.45643418     -1.88559858     -5.38023531
O      -3.48062035     -3.04170749      0.81555383
H      -2.74261041     -3.62592065      0.57563798
H      -3.36556582     -2.22988180      0.31178638
O       0.22250342      3.92933582     -0.66053676
H       1.17900479      3.75100493     -0.62436388
H      -0.00661918      4.25830843      0.21923076
O      -1.56404077      3.12939524      4.02288913
H      -2.47318183      2.73245403      4.04084718
H      -1.21381985      3.02575425      4.90893517
O      -0.48652873     -4.00394144     -4.27447647
H      -0.07250898     -3.38393358     -4.91562983
H      -0.15063581     -4.87379974     -4.49497471
O      -0.08419078     -3.00985525     -1.82165360
H      -0.24552625     -3.37770787     -2.71822911
H      -0.42083583     -3.66543290     -1.19640821
O      -0.19489588      4.44819545      2.11127154
H      -0.15895585      5.35227806      2.42883274
H      -0.75214313      3.96168597      2.75295731
O       2.67629589     -1.08065194     -4.42698856
H       3.54986482     -1.16649602     -4.81169516
H       2.51609901     -0.10342848     -4.33365250
O      -3.94731521     -2.42450003      3.42529752
H      -4.78606862     -2.80418808      3.68964254
H      -3.81937628     -2.68040166      2.49017034
O      -1.15097497     -4.53104738      0.33223937
H      -0.57904473     -3.95736097      0.86974209
H      -1.08043612     -5.41465469      0.69804150
O       1.93943422     -0.02675790      2.91992836
H       2.07475376      0.90993177      2.71216271
H       2.49183990     -0.53527705      2.30168333
O      -2.93790008     -0.48996869      5.19846808
H      -3.35495962     -1.19371042      4.67736647
H      -1.99194788     -0.57629909      5.02206130
O       0.04917983      2.82518762     -3.31383349
H      -0.54713439      2.10418863     -3.09802672
H       0.09447938      3.37862567     -2.52218894
O       2.39335841      1.48782243     -3.93540167
H       1.59293453      2.02263457     -4.06193331
H       2.39159432      1.30352279     -2.97458566
O       2.37153287     -1.82384369     -1.76128685
H       2.53761105     -1.71408699     -2.71403008
H       1.50312190     -2.26888184     -1.70075420
O       2.87004582      3.11970689     -0.51271743
H       2.63971598      2.20419922     -0.77597441
H       3.53679961      3.42062937     -1.13163088
O       1.96642832      0.75698177     -1.37936186
H       1.00409677      0.78025362     -1.39463001
H       2.19798526     -0.20358751     -1.38537305
O       3.05526478     -1.75643464      1.02202921
H       3.04430685     -1.71171915      0.05675596
H       2.36434966     -2.38754700      1.24767393
O      -3.81134132      1.75465383      4.02151134
H      -3.89515888      1.41620296      3.12571771
H      -3.56572759      0.97231637      4.56955595
O       1.91907808      2.62594842      2.05064263
H       2.45365786      2.87124280      1.28309089
H       1.27242316      3.33826430      2.17182242
