108
charge=0
O      -1.33949023     -1.34892143      4.98858587
O       1.51969079     -3.96567382     -0.67106220
S       1.77000024     -4.68414902     -4.53007981
O       0.51054846     -3.06762522      1.04547540
C      -0.91953692     -1.14080740      3.82054515
C       1.09974520     -2.93502160     -0.14990343
C       3.02644925     -3.58882764     -4.60755696
C      -0.46748969     -2.22200108      3.00438596
C      -0.24214792      0.38672387      2.05373679
C       0.08475900     -2.00447004      1.77694912
C       0.24202624     -0.68708098      1.26622841
C       0.82033193     -0.51342907      0.02681059
C      -0.82428647      0.19795675      3.26390072
C       1.26199505     -1.60659301     -0.72383969
C       1.91284102     -1.45075682     -1.97154541
N       4.04750644     -3.70642704     -5.45978375
N       3.03745035     -2.50654950     -3.78118225
N       2.23355590     -2.51918397     -2.67131889
C       2.31470821     -0.12178631     -2.50023029
C      -5.11998636      5.34714918      3.45132847
C      -1.43876742      1.34716132      4.00461250
C      -5.73309257      4.09084576      4.06434913
C      -2.93227976      1.42047061      3.65399794
C      -5.02831206      2.80207403      3.64094392
C      -3.56539702      2.74331758      4.07155599
H      -0.56563176     -3.22545081      3.38812606
H      -0.12572963      1.38183436      1.64893442
H       0.90293514      0.49060492     -0.35455718
H       4.74046937     -2.97355502     -5.57636410
H       3.99309089     -4.41770997     -6.17406001
H       3.91406396     -1.98421286     -3.65958855
H       1.90943383     -3.44120810     -2.32725905
H       3.30955541      0.12734270     -2.13204890
H       1.63374813      0.65543139     -2.17426648
H       2.33973230     -0.13682585     -3.58748982
H      -4.14657626      5.55162106      3.88731912
H      -5.75781183      6.20818501      3.63941058
H      -4.98981779      5.24417806      2.37459253
H      -1.32520916      1.22026956      5.08044931
H      -0.94843916      2.27974381      3.71629569
H      -5.69789815      4.16642352      5.15196911
H      -6.78666930      4.02411421      3.77547321
H      -3.45269595      0.59332776      4.13873350
H      -3.05408100      1.28260356      2.57401528
H      -5.07715869      2.68380835      2.55416833
H      -5.56098404      1.95785530      4.08439640
H      -3.49463699      2.85962158      5.15176469
H      -3.01619008      3.56489557      3.60821804
O      -2.81210173     -0.15918643      6.91569153
H      -2.24046761     -0.55028049      6.22145599
H      -3.68497696     -0.53068910      6.78220514
O      -3.79102989      3.27555490     -1.03725000
H      -3.14710102      3.51880298     -0.34099004
H      -4.66154575      3.28112887     -0.61458918
O       2.45575066     -0.80582876      4.10970199
H       1.97729997      0.01305713      3.97033952
H       2.04859370     -1.21851565      4.89645020
O       3.22150970     -2.31158436      1.96306263
H       3.04635826     -1.68416819      2.69000801
H       2.97893800     -3.17229782      2.31204341
O       1.02858461     -1.82451924      6.22090566
H       1.04028411     -2.71491993      6.57430257
H       0.11567769     -1.66857043      5.90809663
O       2.87027798     -5.79886252     -7.17920927
H       2.38983945     -5.74380670     -6.32691883
H       2.71782137     -6.67536484     -7.53449705
O      -1.79542722      3.50164524      0.79225776
H      -1.11652545      3.09538651      0.22047577
H      -1.93631988      2.90109598      1.52875654
O      -0.21520003      2.35862025     -1.17396678
H      -0.97892257      1.83581011     -1.49603310
H      -0.13168071      3.10677517     -1.76829042
O      -2.52845887      1.20928326     -2.04493044
H      -2.73670878      1.18377829     -2.97992823
H      -3.09100381      1.93230872     -1.65751265
O       5.34782808      0.39187430     -4.55966639
H       5.29245210     -0.02007488     -3.68823932
H       4.42547543      0.56278403     -4.84884681
O       1.89312655     -3.25105170     -7.76761606
H       1.22954811     -3.27547420     -7.07366633
H       2.28761344     -4.13755755     -7.78939852
O      -4.97562992      4.00825152      7.36548000
H      -4.20081822      3.41786245      7.35740812
H      -4.64242667      4.86960655      7.62100861
O       4.31352068     -2.97961741     -0.45283267
H       4.10134763     -2.59496326      0.41545304
H       3.62222682     -3.63478479     -0.60521183
O       2.84500380      0.56226134     -5.56101262
H       3.01406134     -0.04660801     -6.32722712
H       2.61776104      1.40634054     -5.95232947
O       3.49297555     -1.02366189     -7.55666749
H       2.92144461     -1.79629672     -7.71593814
H       4.34598399     -1.36132627     -7.24181791
O      -6.26446725      3.58672423      0.29539782
H      -6.91214463      4.15230779     -0.12889590
H      -6.28727220      3.78082998      1.23784180
O       5.84424817     -1.63546714     -6.15081697
H       6.68859922     -1.53811552     -6.59097484
H       5.73193431     -0.83151263     -5.57359200
O       5.27476372     -1.51288361     -2.46938471
H       6.17511019     -1.82760915     -2.57019142
H       4.92561972     -1.98030952     -1.67581124
O      -2.64928524      2.49258252      7.43433195
H      -2.22254494      2.50275439      8.29237981
H      -2.73221150      1.54576515      7.19695591
O      -1.77254949     -1.33587659     -1.05661611
H      -2.03134451     -0.45320343     -1.36029460
H      -2.58697270     -1.80934777     -0.88015127
