106
charge=1
O       0.67049690     -4.60781328     -0.85437018
C       0.32158822     -3.43692835     -0.67885272
C       1.13420506     -2.40250686     -0.15395315
C       0.75675399     -1.08928129     -0.17316194
C       2.06758099     -3.34657693      2.66485809
C       2.73608568     -2.60670797      1.78521219
C      -0.50739081      3.08940034     -1.53575195
C       0.72549502      3.44820383     -1.01751551
C      -0.96206235      1.77996308     -1.46696668
C       1.53193450      2.51335175     -0.37613172
C      -0.14328697      0.85277839     -0.85516399
C       1.08435246      1.21707665     -0.28776223
N      -0.32430105     -0.51434047     -0.72676470
C       1.02840124     -4.35807826      2.33269103
C       3.43872769     -1.59765098     -0.36800925
C       1.34725879      0.10279291      1.92765532
C       5.00371674      0.36859330      1.82224577
C       3.81949669     -1.66964190      2.23810705
C       2.68605509      0.49129215      2.51216413
C       3.15222615     -0.26828817      0.31501178
C       2.55930890     -2.67244142      0.28530018
C       1.63513222     -0.00186329      0.40721558
N       3.68394843     -0.27308081      1.72793445
H      -0.70169107     -3.13783103     -0.94274800
H       2.26528779     -3.20416941      3.71887696
H      -1.12303086      3.84071102     -2.00698429
H       1.06357514      4.46902309     -1.10496388
H      -1.91859380      1.49402198     -1.86899451
H       2.48849614      2.80284598      0.02290118
H      -1.07539760     -1.02213773     -1.17938719
H       0.90242629     -5.05946344      3.15233626
H       1.28514989     -4.90598928      1.43035985
H       0.07587456     -3.85836609      2.15521291
H       3.18263413     -1.50676223     -1.42400346
H       4.50053585     -1.83219182     -0.31328389
H       0.58680110      0.85023755      2.13341229
H       1.01253120     -0.85627752      2.31369525
H       5.39461458      0.24500337      2.83001245
H       4.92074499      1.43284855      1.60713176
H       5.68963424     -0.08098300      1.10635931
H       3.85638364     -1.63229511      3.32788878
H       4.77977616     -2.05168367      1.88116697
H       2.76588179      0.26237370      3.57318264
H       2.86497379      1.55673079      2.35905157
H       3.64094451      0.54963700     -0.21702034
H       2.82512304     -3.67135305     -0.07516938
O      -0.29195693     -0.54367552     -3.97876103
H       0.03388569     -1.08489980     -4.69905309
H      -0.87413088     -1.11758090     -3.43228124
O      -3.64676464      0.03781048     -0.09955465
H      -3.68666685     -0.90310804      0.13619894
H      -3.82004765      0.08917245     -1.04870924
O       6.32733632     -0.22752858     -0.87643163
H       5.88752257      0.61937875     -1.06134260
H       7.04037899     -0.30955982     -1.51094690
O      -2.28669506      1.18725706     -4.53638791
H      -1.48998447      0.62939166     -4.40090619
H      -1.99535565      2.09708139     -4.46619923
O      -1.28219707      0.84354050      4.42705443
H      -0.81172302     -0.00556638      4.52911974
H      -1.66055049      0.82494304      3.53155065
O      -1.33331957     -6.02868966     -1.81555933
H      -1.11173554     -6.96051487     -1.80668859
H      -0.54097897     -5.54980067     -1.45576085
O      -2.07757737     -1.93421384     -2.52212376
H      -2.86683843     -1.37379766     -2.63761755
H      -2.28740158     -2.79999177     -2.91443374
O       0.06284601      3.07168800      4.41939894
H      -0.21779526      3.56774967      5.18959353
H      -0.38994459      2.18452766      4.49177183
O      -2.59252703     -4.39921426     -3.60239754
H      -2.54879384     -4.69808067     -4.51126443
H      -2.08036885     -5.03761665     -3.06723124
O      -1.30400778     -1.81185634      1.94710602
H      -1.43093194     -0.85587579      1.83229181
H      -2.10639808     -2.21110364      1.57060752
O       4.52157560      3.46204404      1.29355711
H       5.07843905      4.24357559      1.42048990
H       3.68829067      3.65440465      1.75638639
O      -3.64003027     -2.63261780      0.73448059
H      -3.59261950     -3.39229985      0.10866239
H      -4.37611111     -2.82004593      1.31923497
O      -0.78681167      3.46766957      1.86499854
H      -1.44329780      4.16129382      1.78871683
H      -0.57166549      3.38468717      2.81880067
O      -3.62463169     -4.71281171     -0.92135724
H      -3.84594660     -4.47810556     -1.82821590
H      -2.82825519     -5.26330343     -0.99140969
O       6.03521309      5.77876041      1.69993262
H       5.66504975      6.57631318      2.08436255
H       6.99028988      5.85061395      1.75505863
O       4.91501611      2.18317382     -1.09964773
H       4.82517185      2.70187744     -0.27677447
H       5.00898578      2.81747999     -1.81140799
O      -1.85283595      0.90451558      1.72274270
H      -1.51807517      1.80067988      1.55549107
H      -2.56432057      0.74140885      1.07473576
O      -0.17578732     -1.65393951      4.38881385
H      -0.59492747     -1.84519953      3.52295687
H      -0.56730357     -2.25987897      5.01939281
O       2.04600831      3.65884051      2.51957110
H       1.62548637      3.50033376      3.37620383
H       1.31229302      3.70945176      1.89367024
O      -4.00960621     -0.04806821     -2.91681894
H      -3.44431099      0.47682462     -3.53070755
H      -4.87433384     -0.10521200     -3.32538854
