100
charge=0
O      -0.19580209     -1.97933871     -3.63479265
O      -1.43306536      0.84285338      0.09699588
N       1.88892852     -0.69466274     -5.78668857
N       3.33447561      0.57090075     -4.53285031
N       1.44824594      0.51792640     -2.49413697
O      -1.14733631     -0.00689266     -4.04788161
O       0.48182593      0.43346147     -1.52631791
O      -0.06180809      1.20069558      1.83968905
S       3.18433241     -0.60419436     -6.78718593
C      -0.13361699     -0.76974588     -3.79945964
C      -0.32881832      1.00071861      0.57794317
C       2.13528136     -0.03638932     -4.67621433
C       4.07025590      0.36935333     -5.58763602
C       1.16391079     -0.03023824     -3.60936281
N       5.28731782      0.83469133     -5.80969634
C       1.44419269      2.41495477     -0.48582121
C       1.99634755      0.07659202      0.33862969
C      -0.36482175      1.27086754      4.19321013
C      -1.87776299     -0.13734294      2.81042111
C      -2.03242601      2.38423949      2.67220114
C       0.93640117      0.98588678     -0.28209911
C      -1.11764478      1.18166024      2.86967164
H      -2.03268228     -0.52432257     -4.01779125
H       5.80745023      1.27766116     -5.03970556
H       5.83280495      0.36834647     -6.51547410
H       0.64113259      3.04903742     -0.85602378
H       2.24097173      2.39137528     -1.22486060
H       1.82748536      2.82253596      0.44331057
H       2.82377793     -0.03197349     -0.35888836
H       2.35708512      0.50268285      1.26874921
H       1.56551949     -0.90290352      0.53481445
H      -1.07187282      1.20845591      5.01328225
H       0.16862548      2.20855327      4.28392312
H       0.34626533      0.45353104      4.27653954
H      -1.18746111     -0.97411430      2.86893999
H      -2.55598342     -0.18661358      3.65474199
H      -2.45308414     -0.22078643      1.89657456
H      -2.65623739      2.26711824      1.79218744
H      -2.67302161      2.48812972      3.53980511
H      -1.44762230      3.29257369      2.56142735
O       4.27062855     -0.32363023     -2.03005439
H       4.42314535     -1.14557687     -2.52434649
H       3.82056846      0.26280205     -2.65985744
O      -2.75596745      2.63489469      6.10262035
H      -3.26175813      3.11226619      6.76194343
H      -3.39749391      2.10083113      5.60323024
O      -4.19955700      1.26003925     -0.14670798
H      -3.23352222      1.30749694     -0.08861969
H      -4.37967650      0.60626814     -0.82833224
O      -0.77475833      4.58343510      5.44427446
H      -1.40616893      3.86706259      5.61235167
H       0.10862428      4.21868661      5.63369019
O      -0.31016154      5.18983311      2.90569467
H      -0.56019663      5.00431724      3.84805979
H      -0.19891960      6.13856215      2.84260142
O       2.06864976     -3.33639317     -4.52568186
H       2.01996325     -2.95522878     -5.40861558
H       1.28725418     -2.98579339     -4.06523873
O      -2.92015268     -1.27807353     -1.01251630
H      -2.30006609     -0.57625188     -0.76210655
H      -2.35902108     -2.09648487     -1.08891230
O       1.84741171      3.68877837      5.43021801
H       2.54831547      4.26549693      5.73450633
H       1.96258621      3.60162585      4.45874809
O       5.91173694     -1.98131985     -5.92555281
H       5.46156806     -2.13596528     -5.07816360
H       6.09619602     -2.84735363     -6.29193094
O      -1.26195307     -3.27278058     -1.38378037
H      -0.79066166     -2.97862146     -2.17472146
H      -0.66452726     -3.11548334     -0.62484475
O       6.98115406      1.89364060     -3.90598634
H       6.78942833      1.61400432     -2.98191040
H       7.86397801      1.57204260     -4.09475967
O      -3.27110509     -1.43846189     -3.66365154
H      -3.01093372     -2.34801014     -3.83442031
H      -3.28953682     -1.34408297     -2.68316546
O      -4.59354441      1.03733289      4.74977556
H      -4.74193402      0.89488046      3.79660425
H      -4.78569156      0.20060932      5.17626865
O      -4.27174224     -2.10478928      1.25606728
H      -3.89688489     -1.81230295      0.40531061
H      -4.62223619     -1.31160580      1.68921837
O       1.77089867      3.48306425      2.72464552
H       1.06291196      4.16116201      2.66869628
H       1.33043570      2.64217923      2.55832379
O       4.47110414     -2.63059239     -3.59592928
H       3.56837968     -2.87796525     -3.91132342
H       4.78324354     -3.37754894     -3.08183286
O      -2.16969609     -3.42077123      2.25621463
H      -2.95020358     -2.89479750      1.96239845
H      -2.38998138     -4.33066714      2.04994624
O      -5.25537843      0.38450600      2.14313132
H      -4.84403390      0.80769420      1.35237281
H      -6.19917362      0.52797842      2.05640223
O       6.47561574      1.03420430     -1.41703705
H       6.18044155      1.70542787     -0.79989161
H       5.69115583      0.46200159     -1.58959752
O       0.06265822     -2.76594963      0.92963776
H      -0.75280547     -2.92801721      1.46102216
H       0.70963367     -3.40102273      1.24043445
