96
charge=-3
O       3.97812630     -2.37690418     -0.86665466
O       2.48533923      2.30496724     -0.01743732
O       1.50731989     -1.91405083     -1.22060746
O       3.21046928     -1.01132245     -2.87838549
O       1.53713815      0.40659673      1.41481394
N      -0.58960845      0.58028395     -0.67817556
N      -0.40601125      0.58952460     -2.90084205
N      -4.53658293      0.97594588      4.07640316
O       3.11384726     -0.03926826     -0.54549527
C      -1.24034557      0.50257954     -1.82683280
C       0.78245800      0.71795103     -2.35196178
C      -4.89608445      1.63202330      2.97560535
C      -3.68614367     -0.04243241      3.91547838
C      -4.57604138      0.63163414     -3.46960927
C      -5.43598073      0.41322262     -2.40463990
C      -3.21124649      0.63136575     -3.25527098
C      -4.46547107      1.31776415      1.70868398
C      -3.18602901     -0.44363382      2.70412645
C      -4.92647015      0.18593453     -1.14140674
C      -2.67883797      0.41903003     -1.98511469
C      -3.57957322      0.23748186      1.53605839
C      -3.55059172      0.18479740     -0.90535662
N      -3.04632597     -0.11778278      0.34881868
N       0.69316273      0.71499444     -1.02543655
P       2.93318667     -1.47180808     -1.46149894
P       2.02889725      0.89198635      0.09034924
H       1.71004769      0.80516016     -2.87251673
H      -5.56939103      2.46652499      3.13852551
H      -3.40279108     -0.55192538      4.82708073
H      -4.96751528      0.79876786     -4.46285040
H      -6.50716173      0.40452063     -2.56050118
H      -2.52830544      0.80825930     -4.07117528
H      -4.77173155      1.91525546      0.86399236
H      -2.49238667     -1.26386947      2.62753223
H      -5.59598869     -0.02471666     -0.31911959
H      -2.31249716     -0.86573767      0.38032169
O       5.69253830      0.15464805     -2.39345954
H       4.85892265     -0.31490215     -2.58285345
H       6.06384635     -0.33218160     -1.63519056
O       4.13973283      2.36695758      2.47537684
H       4.41922128      1.44219770      2.41399959
H       3.55876390      2.48544083      1.71205985
O       4.29216030      2.52607697     -2.27096802
H       3.69400454      2.46484479     -1.50962950
H       4.87017714      1.73816179     -2.21084711
O       3.65791327     -2.83427697      1.74088362
H       2.69700127     -2.69726416      1.80285913
H       3.81931016     -2.76347453      0.76746702
O      -0.79891747      1.39369228      4.64135889
H      -0.91913962      1.42909568      3.66572283
H       0.13976506      1.55323372      4.75842648
O      -5.88902718      0.66499698      6.60641089
H      -5.10166252      0.74897723      7.16778971
H      -5.55002967      0.79055075      5.70365852
O      -3.30817175      0.92701758      7.80243876
H      -2.78619748      0.20920799      7.43768325
H      -3.15762832      1.67514300      7.17273428
O       0.96045562     -2.20615388      1.32377287
H       1.11811906     -1.26417849      1.53601246
H       1.21502283     -2.23038587      0.36384441
O      -0.76577181     -2.95951704     -2.04136347
H       0.10344403     -2.59784880     -1.74920371
H      -0.91239825     -2.55934286     -2.91313936
O      -3.24186260     -2.04173041     -5.40602004
H      -3.59692184     -1.62972839     -4.61467636
H      -2.27718983     -2.00887514     -5.27126025
O      -0.63279673     -1.69723119     -4.56387761
H       0.27093264     -2.09198149     -4.57105468
H      -0.51875151     -0.82106221     -4.16032133
O      -2.89896254      2.64825107      5.80491956
H      -3.59565506      2.29771392      5.22972257
H      -2.07197155      2.29091027      5.41681361
O      -1.58865025     -2.35257952      0.50023730
H      -0.68738538     -2.28882720      0.89827742
H      -1.40998929     -2.61700925     -0.42229920
O       0.40301807      4.02067040      0.86767494
H       1.19002506      3.56912775      0.52237941
H      -0.06631833      3.32671084      1.35303292
O       1.77634740     -2.81602230     -4.15237252
H       1.49964040     -3.29636554     -3.36632578
H       2.34901275     -2.10166262     -3.76897640
O      -0.71642005      1.62098267      1.98448510
H      -1.18987974      1.29642796      1.20809617
H       0.17516123      1.20411745      1.86772833
O       4.78863314     -0.36382003      1.76296101
H       4.42855551     -1.25797167      1.96226747
H       4.27869219     -0.10087725      0.98424794
O       0.76773971      1.88027210     -5.50906818
H       1.69465125      1.68790715     -5.26665292
H       0.25479969      1.50732316     -4.78503847
O       6.40633832     -1.48194314     -0.26393802
H       5.56984791     -1.91395280     -0.56371124
H       6.11822148     -1.00878524      0.53257620
O       3.28063255      1.23587316     -4.50930503
H       3.31067455      0.35993085     -4.08384955
H       3.63872034      1.83748446     -3.82657920
