64
charge=-3
O      -1.37996368      0.50774010     -0.06291330
O       0.91213142     -0.53424923      0.21401110
O       0.52100665      1.85082572      0.98329891
P       0.12730447      0.77230592     -0.00972435
O      -2.34802247      1.80089660      2.14737176
H      -1.95415557      1.22544139      1.45336041
H      -2.11129740      2.68954890      1.82598251
O      -1.18735274      3.89562927      0.73433780
H      -1.65139707      3.64078235     -0.07588655
H      -0.48843154      3.19949722      0.82187713
O       1.01759311     -2.24599292      2.17706581
H       1.85540376     -1.93231589      2.57091268
H       0.83827585     -1.54785607      1.48533612
O       3.29872801     -0.84705969      2.85293065
H       3.47243113     -0.86917612      1.88796516
H       2.76896898     -0.04675418      2.99594619
O       1.46962247      1.31560545      3.34498107
H       0.72999503      1.70957811      3.83443513
H       1.17673015      1.44335426      2.39619184
O       0.25400670     -0.92551368      4.52965964
H       0.20771895     -1.52556971      3.76893351
H       0.82339347     -0.20470117      4.20035683
O      -1.28554301     -0.64227063     -2.69897335
H      -0.51303899     -0.23949137     -3.23056095
H      -1.26502002     -0.20156066     -1.83315065
O      -2.89183684      1.21695867     -3.94597567
H      -2.46230513      0.45150149     -3.50888870
H      -2.14919172      1.63928653     -4.42975397
O       4.84305340     -0.67370461     -2.31676170
H       4.18173723     -0.09360754     -2.74442145
H       4.44005708     -0.86492107     -1.45303488
O       0.58969658      0.36875182     -4.14013259
H       0.50643569      1.22647244     -1.27138229
H       0.73370193     -0.24701632     -4.85610460
O       0.10100399     -2.51756496     -1.29793970
H       0.40972952     -1.74656582     -0.74805550
H      -0.46181865     -2.06281375     -1.95619640
O       3.43573946     -1.17230467      0.12640856
H       2.52842575     -0.76637069      0.07372196
H       3.24486149     -2.12413857      0.05274105
O       2.84366962      1.05712206     -3.14940812
H       1.96230627      0.76472837     -3.58233733
H       2.58432248      1.21410256     -2.23778905
O      -0.64048159      2.35127058     -5.01990984
H      -0.53705457      2.95071550     -4.27869070
H      -0.09657577      1.49190744     -4.68107919
O      -2.45913130      2.57844004     -1.48477618
H      -2.10960828      1.82680568     -0.96167005
H      -2.69195655      2.18118019     -2.34203270
O      -1.08862700      1.63892550      4.56676826
H      -1.54552489      1.71757744      3.69957912
H      -0.91742839      0.69062244      4.65898193
O      -3.14658919     -1.50928739      0.61107467
H      -2.54799360     -0.79074975      0.32683486
H      -2.56030263     -2.27269246      0.74373845
O      -1.20915993     -3.56309028      0.82125178
H      -0.61107954     -3.19715953      1.48399613
H      -0.81899276     -3.25694000     -0.03037627
O      -4.54328486     -0.00746786      2.50642561
H      -4.16523371     -0.63000856      1.85779422
H      -3.89793521      0.71573702      2.49704662
O       2.21432851     -3.70915329      0.13549906
H       1.79182470     -3.35497280      0.94277286
H       1.59311644     -3.45483186     -0.56471298
