86
charge=0
O      -2.20640864     -0.10561529     -0.59254764
O      -2.80228145      1.53180070      2.18878546
O      -2.79580379     -0.24289208      3.52144874
O       0.11836401      2.40313339     -0.56544515
C      -1.31152788      0.70325506     -0.30109328
C      -2.24696612      0.54941538      2.63968030
C       0.26749475      1.94465838      0.68758356
C      -0.55960887      0.88584389      0.91707776
N      -0.82137185      1.61242853     -1.18374047
N      -0.48990071     -1.24181196      2.14906154
C       1.24704595      2.64699274      1.53760637
C      -1.55834800     -2.11507228      1.68318354
C       0.09941584     -1.74869120      3.37693020
C      -0.81844441      0.18015797      2.21688285
H      -3.76904281      0.04469462      3.67093486
H      -1.39660132      2.11529682     -1.89722965
H       2.23911147      2.20318699      1.42013114
H       0.96112763      2.58700687      2.58249706
H       1.30773164      3.68495902      1.22387282
H      -2.34051619     -2.26444307      2.43526477
H      -1.11970937     -3.08542423      1.45230633
H      -2.00087720     -1.69558915      0.78337741
H       0.95555901     -1.13048919      3.63633628
H       0.43402355     -2.76851061      3.19460855
H      -0.61277697     -1.75443630      4.21089631
H      -0.15756830      0.62932575      2.96713112
O      -4.26316473      1.19210546     -3.53513655
H      -3.53616277      0.50512663     -3.52151167
H      -4.69391335      1.12033869     -4.38632907
O      -2.58911168      3.10865663     -2.51039364
H      -3.24154180      2.54030580     -2.95897822
H      -2.99140394      3.33186164     -1.64407063
O      -3.70098667      3.11259426     -0.05015122
H      -4.28414272      2.36242202     -0.27131337
H      -3.26261184      2.84179122      0.76502511
O       3.47357723     -1.17021559      1.16302713
H       2.65964790     -1.24808429      0.61497506
H       3.62295595     -2.04671790      1.54867191
O       3.38759507      2.25988751     -1.58147422
H       4.10597696      2.21972329     -2.21447241
H       2.82390255      1.46062330     -1.77260142
O       1.99097945      0.14931723     -2.21431656
H       1.65279160     -0.39654597     -1.48659261
H       1.23505009      0.34753551     -2.79547142
O      -0.15424487      3.42758142     -3.84859395
H      -1.03198471      3.59225420     -3.47638575
H       0.48274347      3.77951281     -3.19464724
O      -4.76853131      0.72029765     -0.85287399
H      -3.87626311      0.34371816     -0.72275831
H      -4.84366955      0.86124605     -1.81031903
O      -6.03195602     -0.50721432      1.23001208
H      -5.73643287     -1.40881033      1.09427070
H      -5.68765898      0.00609570      0.47463143
O       0.85087160     -4.08916483     -0.44299422
H      -0.05001989     -4.35204152     -0.63621800
H       1.03912336     -4.35551662      0.47958366
O       3.78045710     -3.46895970      2.72545448
H       4.66666375     -3.83219150      2.74421180
H       3.69085234     -2.91819197      3.54536163
O      -5.21801525      0.66106002      3.52201754
H      -4.99859628      1.54371043      3.20423808
H      -5.62427993      0.20494996      2.75174972
O       4.15478359      1.56425746      1.01654190
H       4.13787345      0.60162177      0.93197694
H       3.98126540      1.90322793      0.12394861
O       2.85493988      0.21276270      3.36990496
H       3.40040820      0.99972427      3.29167442
H       3.00579345     -0.26566654      2.51877951
O       1.44388457     -4.74995136      2.13353990
H       2.26887174     -4.26187818      2.32390790
H       1.64102686     -5.67732964      2.27323839
O       0.01962984      0.82451186     -4.01111768
H       0.34266532      0.63309126     -4.89225170
H      -0.04121378      1.82013650     -3.95027076
O       1.15503490     -1.42683529     -0.10354365
H       1.08540300     -2.36727441     -0.36432271
H       0.55856483     -1.31730260      0.66601955
O       1.68303318      4.34456179     -2.05914437
H       2.23983046      3.58836964     -1.78659785
H       2.27946184      5.05128171     -2.30829003
O      -2.28796134     -0.49201785     -3.30196759
H      -1.45799536     -0.07010495     -3.59026148
H      -2.24150654     -0.51020245     -2.32742599
O       3.54040978     -1.89625130      4.83817072
H       2.79878426     -2.05696528      5.42339848
H       3.34805138     -1.04172655      4.37992228
