106
charge=0
O      -2.92359018     -2.56994589     -0.23947988
O      -2.33211956     -0.24070601      1.89504673
O       5.77310523      0.89219147      2.83098339
C      -3.32893315     -1.51315620     -0.69707138
C      -1.45753856     -0.82129993      1.27147682
C       5.65196295      1.52413603      1.79290153
C       3.48889513      0.47569815     -0.39275086
C       4.56084166      0.07928230      0.29538966
C       2.28465197     -0.31730730     -0.42023454
C       1.16883141     -0.08821457     -1.12587012
N      -1.91650621     -0.59422623     -2.37890989
C      -4.76009937     -1.26242643     -0.98498498
C      -0.71442174     -1.96772038      1.85971689
C       5.23482783      2.95492870      1.79204188
C       1.00520893      1.03590010     -2.10268769
C      -0.72251301     -1.42047390     -2.24408412
C      -2.39165265     -0.36060590     -1.02129544
C      -1.12315060     -0.31996878     -0.11409718
C      -0.01079305     -1.01044914     -0.93357412
C       6.17402317      1.78303261     -0.70496773
C       5.85319842      0.84751775      0.45307289
H       3.50210885      1.40697529     -0.93442337
H       4.52767678     -0.85555296      0.83673854
H       2.30553691     -1.18029511      0.23172907
H      -1.68887458      0.29288703     -2.81842253
H      -5.18568806     -0.87595619     -0.04640643
H      -4.89395803     -0.51662024     -1.76022423
H      -5.28324613     -2.18169297     -1.23529272
H      -1.15592338     -2.23160252      2.81732319
H       0.32919142     -1.68818036      2.01177770
H      -0.74239370     -2.82610599      1.19516585
H       6.07272879      3.56796262      1.46508355
H       4.93433746      3.26420946      2.79002595
H       4.42173506      3.11031529      1.08612442
H       1.79169940      1.77465533     -1.99331751
H       1.05330974      0.64709443     -3.12041319
H       0.04526398      1.53038305     -1.97264142
H      -0.09214289     -1.33126633     -3.12526343
H      -1.03531389     -2.46169838     -2.16115380
H      -2.95896981      0.56880960     -0.97107411
H      -0.87990671      0.74009364      0.01353123
H       0.34292568     -1.90747690     -0.42931002
H       6.26122275      1.20004197     -1.61894711
H       7.12152693      2.28847299     -0.53001952
H       5.40097645      2.53012180     -0.84917051
H       6.66079388      0.11551956      0.56843371
O       3.76005190      1.43760946      4.73963843
H       4.62229834      1.24597005      4.34754203
H       3.17685831      1.59863737      3.97820612
O      -2.33008693     -0.47676061     -6.06596745
H      -2.90414124     -0.95867914     -5.38215047
H      -2.85593767     -0.43010032     -6.86488179
O       0.93817756      3.03601769      0.69692527
H       0.36049479      2.75415690     -0.02699962
H       0.34542413      3.56184438      1.26081618
O      -0.22940555     -2.16079068     -5.43450041
H       0.11219126     -2.54958840     -6.24087857
H      -0.91652420     -1.52287943     -5.70204261
O       2.05512093     -0.63366153      5.36115408
H       2.76078454      0.04105185      5.32163180
H       1.23147727     -0.12673514      5.37136298
O      -1.31840164      4.08871387      1.85240844
H      -1.60684552      3.33078740      2.42846063
H      -1.65824752      4.87777728      2.27418848
O      -1.78047165     -4.67495749     -1.66332674
H      -2.17904576     -4.01330936     -1.07849714
H      -2.04206873     -5.53515081     -1.33198097
O       4.88605275     -1.71130892      3.17896217
H       5.32180665     -0.84799382      3.07695648
H       4.83726471     -1.88063949      4.12232657
O      -5.16585568     -0.76232908      1.99060704
H      -4.31042118     -0.35541223      2.16773965
H      -5.04862647     -1.69918968      2.21334920
O       3.20527578      3.82308861     -0.61194868
H       2.40825931      3.54196596     -0.12300120
H       3.08198753      4.75164808     -0.81158872
O      -1.40189669      2.86545209     -0.70519738
H      -2.19266253      2.78391594     -1.26151184
H      -1.66100248      3.36017026      0.08460004
O      -2.12594693     -3.93541345     -4.36147920
H      -1.33310701     -3.44054549     -4.62942704
H      -1.95207234     -4.26587786     -3.46669862
O       0.31391779      1.50674945      4.69238331
H       0.66146997      2.19127491      5.26650989
H       0.90320518      1.49349266      3.89834038
O      -2.02944055      2.09931325      3.41180895
H      -2.28328760      1.30490087      2.92347549
H      -1.26519980      1.83926160      3.96103528
O      -3.48726368      2.41275116     -2.47062752
H      -2.93815407      2.15109859     -3.23041157
H      -4.12925211      3.04112045     -2.80272303
O      -1.78642349      1.66202607     -4.49989403
H      -1.99112343      0.92197886     -5.10802699
H      -0.87958372      1.92061466     -4.66901617
O      -3.62374669     -1.72376933     -4.22900566
H      -3.24106487     -2.62695846     -4.31269777
H      -3.14352288     -1.32105358     -3.47398170
O       2.21912359     -1.21807220      2.74077857
H       3.15366596     -1.48842261      2.69489800
H       2.04521706     -1.16237562      3.70753150
O       2.00070900      1.43021772      2.63233731
H       1.68687594      1.87402348      1.82664155
H       2.07030704      0.46293155      2.45466868
O      -4.49625240     -3.50301015      1.91293343
H      -3.87809309     -3.27266580      1.20300479
H      -5.20798230     -4.00250683      1.50937796
