95
charge=0
S       4.35134587     -0.46882995      1.33924399
Br     -1.83293498     -5.07480431      4.13689495
N      -1.69063083     -2.31518814      4.45242113
N      -1.38131024      1.00222011      2.91642916
N      -1.22483323     -0.75608168      1.30280941
O      -0.17705033     -2.15722683     -1.79296522
O      -2.81355976     -2.77719466     -0.58351028
O      -0.02556685     -4.30412585      1.10331825
O       1.87234923      0.41524283     -0.10963243
O       3.71395790     -0.43136391     -1.61030264
O       2.38820333     -2.01116815     -0.35593750
C      -1.67100669     -3.30209704      3.61825013
C      -0.40533358     -2.91204388     -0.69599472
C      -1.59085503     -3.12343366     -0.12250983
C      -1.17583981      0.53329245      1.66538644
C      -1.55968003      0.16442563      3.91511682
C      -1.42835611     -1.58379182      2.30701965
C      -1.56176729     -1.19547867      3.66220072
N      -0.96404056      1.45264537      0.72106503
N      -1.53486862     -2.95131091      2.29660635
C       1.64249312     -2.55269185      0.71560148
C       0.67650045     -3.57966525      0.10637952
C      -1.35628588     -3.85686287      1.17361360
P       3.09042748     -0.57122455     -0.16624772
H       0.70721125     -2.35301083     -2.20793230
H      -3.34477743     -2.37291266      0.14597013
H       2.04308604      1.33367849      0.33512125
H       3.14665570      0.15770065     -2.19121496
H      -1.69826213      0.59364211      4.89714819
H      -0.62281543      1.14421409     -0.17966002
H      -0.71171287      2.38922568      1.02828738
H       1.08520526     -1.76120879      1.22417032
H       2.30765814     -3.04599139      1.43104532
H       1.25254551     -4.29785350     -0.49135804
H      -2.00955965     -4.72447666      1.33438700
O      -2.03495234     -1.63187824     -3.79099717
H      -1.55824136     -1.78420506     -2.95826279
H      -1.38212750     -1.24575972     -4.39226887
O       0.72426460     -4.93961618     -3.09420581
H       0.84227281     -5.72853359     -3.62457409
H      -0.23607927     -4.72831996     -3.14438731
O      -4.36631625      0.78151161     -0.02202359
H      -5.24065287      1.01107337     -0.34418135
H      -4.01714378      1.61064013      0.38690570
O      -2.22857862      3.53124670      3.24876398
H      -1.95304765      2.58523853      3.15613637
H      -1.56204535      4.02437644      2.74872151
O      -0.04776976      3.97351791      1.66296313
H       0.61882211      4.21909279      1.01641479
H       0.44958668      3.48606328      2.36253164
O       2.36181716      2.67324859      0.90362157
H       3.34021553      2.77707627      0.74871294
H       2.25132711      2.61000826      1.86363323
O      -1.91153986     -4.35013318     -3.27114500
H      -2.35314269     -4.25732679     -2.42257605
H      -2.06899018     -3.50421957     -3.72580085
O       0.53698138     -0.46300910     -4.40362563
H       0.17280098     -0.09007261     -3.57722236
H       1.05703657     -1.23864648     -4.15512965
O       4.93283772      2.65924612      0.45098043
H       5.16741993      1.78728378      0.79621935
H       5.03011347      2.61804833     -0.51885601
O       2.25489376      1.21714964     -3.00793008
H       1.91153774      0.79869228     -3.81730533
H       1.47449484      1.31327230     -2.43624656
O      -4.22031719     -1.55650015      1.34273914
H      -4.21395461     -0.67160876      0.92048720
H      -5.14129399     -1.80673954      1.44128899
O       1.57480600     -0.15354068      3.07910447
H       2.50627177     -0.25267183      2.83023448
H       1.46235336     -0.62504866      3.92363594
O       1.27035575      2.51469698      3.49199126
H       1.27249981      1.54332551      3.36639938
H       0.71650494      2.68013502      4.27687439
O       0.95321942     -1.36205154      5.50200581
H       0.08218698     -1.77703410      5.46572733
H       0.94500164     -0.76592520      6.25400554
O       1.99552379     -2.60708890     -3.21070788
H       1.71793387     -3.54624794     -3.28700872
H       2.76674667     -2.56286162     -2.63872517
O      -2.88223874      0.66437249     -2.40188902
H      -2.95582940     -0.16554829     -2.89850119
H      -3.35904250      0.55451697     -1.56313372
O      -0.56344128      3.21263087      5.43271390
H      -1.29171113      3.39610638      4.80719817
H      -0.39626552      4.02817540      5.90689409
O       4.86466029      2.21860474     -2.26164670
H       5.22499372      1.33866245     -2.39642428
H       3.96236379      2.19842774     -2.60447193
O      -0.28883114      0.59172687     -1.98872277
H      -1.25138909      0.74390662     -2.17106577
H      -0.23387362     -0.27651149     -1.56266194
O      -3.60899658      3.14390910      0.91882157
H      -3.30040199      3.30824851      1.83334032
H      -2.91976583      3.48031133      0.34161257
