104
charge=0
O       0.88086610     -3.91604684     -0.03169745
F      -0.51928488      2.45823111      5.47987982
F       0.22320598      0.50087415      5.05249782
F       1.58308145      2.15287400      5.15557527
N       3.04572953     -1.81233453     -1.91388128
N       2.83946640     -1.53834816     -3.21035345
N       2.25165942      2.03069000      1.92753709
O       1.14144317     -2.69983419     -2.49214704
O       3.06324437      1.15169838      1.28358522
O      -1.06931924      1.56364943      2.86750661
C       1.66417721     -2.98354397     -0.14578564
C       2.02247721     -2.49429483     -1.49903415
C       1.69530954     -2.07322537     -3.53448882
C       1.27725937      1.34825642      2.47717738
C       2.56382610     -0.07954847      1.44446466
C       1.42255335     -0.04122342      2.19828648
N       2.20228937     -2.34965166      0.91391946
C       3.18035744     -1.28936542      0.84891187
C       0.14082831     -3.08901144     -5.28975393
C      -0.44452690     -1.78323484     -4.88718245
C       1.05558559     -1.98041337     -4.83196876
C      -0.61677693     -1.38015539      1.63425307
C       1.56833530     -2.48884399      2.21373287
C       0.25353468      3.58886302      3.02198931
C       0.36240575      1.79991425      4.72616938
C       0.64360017     -1.28442437      2.49631620
C       0.18491920      2.07238103      3.22282214
H      -1.14614557      1.67603383      1.86709635
H       4.07053457     -1.58376961      1.42164930
H       3.48237931     -1.11185628     -0.18643771
H       0.17529158     -3.34598185     -6.33610052
H       0.00381961     -3.93175546     -4.63213984
H      -0.82724255     -1.12495645     -5.65250443
H      -0.97300459     -1.73302683     -3.94686753
H       1.67223401     -1.46764949     -5.55715800
H      -0.35035258     -1.47609117      0.58624933
H      -1.19643555     -2.24741593      1.93536876
H      -1.23008563     -0.49422132      1.74808525
H       0.98093084     -3.40675161      2.20638701
H       2.35075066     -2.55929196      2.97410803
H       1.17606013      3.98512704      3.43337852
H      -0.60645462      4.03764466      3.51489687
H       0.20822198      3.81928838      1.96339423
H       0.35598305     -1.31032869      3.54884840
O      -3.34283688      2.96254383     -0.27084195
H      -4.04345197      2.59303854      0.28796305
H      -3.25877847      3.88146501      0.00404998
O       0.77496169      0.00785906     -1.09820501
H       1.24692841      0.72244704     -1.56442161
H       0.05048398      0.45624476     -0.63751165
O      -0.33734015     -6.14153986     -4.01393574
H      -0.92133650     -6.89251821     -3.90551502
H       0.17237501     -6.06651422     -3.16560647
O       1.22714940     -5.95270866     -1.89257783
H       0.92623413     -5.33127152     -1.20920723
H       1.96837166     -5.50856965     -2.33784088
O       2.78205010      0.81473013     -5.85614996
H       3.35865419      0.81779421     -5.07482113
H       3.15622387      1.44853994     -6.47025198
O       1.91587587     -6.04483502     -5.50376781
H       2.21374467     -6.95624094     -5.49786932
H       1.02520514     -6.04978679     -5.09188350
O      -2.62863031     -2.75505538      3.84605924
H      -3.35337118     -3.35382881      4.02941049
H      -2.20782506     -2.56769347      4.70591692
O       1.03951649      3.50143199     -0.30330553
H       1.37577763      3.12298921     -1.13622298
H       1.70696726      3.31290717      0.36673360
O       4.19792032      0.85505915     -3.44574536
H       4.72953625      1.08437671     -2.66524412
H       3.91723013     -0.06911610     -3.31094659
O       0.47110466      1.55691097     -4.60534168
H       0.01056860      0.76362383     -4.32422352
H       1.21877536      1.26043610     -5.16067629
O      -2.91764876      0.00299632      4.21827418
H      -2.96012156     -0.86953805      3.79223917
H      -2.20253097      0.48579014      3.77509906
O      -4.33514955      5.08977013      1.54153192
H      -5.01047996      5.76759464      1.50483463
H      -4.79984761      4.22706785      1.55043691
O       5.03040462      1.72386486     -0.95350712
H       5.14176414      2.67628891     -0.92802540
H       4.33120667      1.51265244     -0.32569651
O      -1.75295868     -1.57201020      6.16808642
H      -2.23643330     -0.83790518      5.74692906
H      -0.86737699     -1.24343489      6.33054024
O       3.07287751     -4.63182054     -3.50100983
H       2.69189073     -5.04550141     -4.30660066
H       4.02297915     -4.62432191     -3.62297672
O      -2.81830714      4.51144872      3.77546374
H      -3.06805828      5.16206408      4.43282745
H      -3.23640393      4.78002391      2.93646667
O       1.97446079      2.09512013     -2.44611303
H       2.81454608      1.74861111     -2.80619517
H       1.35168453      2.08502454     -3.20313103
O      -0.98936284      1.80963324      0.26918498
H      -1.85308036      2.16236520     -0.03532027
H      -0.32515876      2.49586085      0.03604656
O      -4.43904005      2.27977983      4.02647389
H      -3.74010648      2.95906753      4.05536955
H      -3.99008510      1.42899916      4.17221173
O      -5.36099824      2.57648092      1.61901691
H      -6.24451875      2.20935730      1.59284853
H      -5.01080206      2.39624455      2.54134679
