82
charge=0
Cl      0.54536078      4.51195604     -0.52163344
Cl     -1.73150502      2.93867893      0.27343313
Cl      0.01345025      4.10629092      2.27130862
N      -0.21897973     -0.31717152      3.18059968
N       0.77070948     -0.87969537      2.56211832
N       1.69598593      1.90906437     -0.21758975
C       0.76371512      2.07700512      0.66023779
C      -0.46581527      0.88155201      2.65828095
C       0.44443724      1.08876395      1.62540752
C       4.12669474     -0.61450144     -1.22093881
C       3.91571766     -1.60450024     -0.26096968
C       3.39576579      0.54920932     -1.20918121
C       2.95367745     -1.44284643      0.70967510
C       2.41385506      0.74716191     -0.22815932
C       2.19605222     -0.27689180      0.72157265
N       1.19204497     -0.06051040      1.62688204
C      -0.03790850      3.34265024      0.66066556
H      -1.25117810      1.50780020      3.02288550
H       4.88594068     -0.75968019     -1.97155415
H       4.51641597     -2.49888527     -0.27845411
H       3.56440784      1.31400817     -1.94924392
H       2.76514421     -2.19457876      1.45894770
O      -2.42242351     -1.28462871      4.65734446
H      -1.50971242     -1.07642133      4.40123801
H      -2.97244878     -0.73359494      4.08186584
O      -2.46830889     -0.50495129      0.32191563
H      -2.81276553     -0.25604137      1.19227629
H      -2.87731454     -1.36890116      0.11331517
O      -3.99033736     -0.10723949      2.61915794
H      -4.45790503     -0.93432132      2.39393959
H      -4.64973277      0.58676558      2.65267395
O      -0.87659635     -2.83484318     -2.55432207
H      -1.06003631     -3.59167807     -1.97963569
H      -1.74541645     -2.49599304     -2.82524337
O      -3.41205868     -1.74422902     -3.01389023
H      -3.96553517     -1.68129183     -3.79178958
H      -3.22081306     -0.80313678     -2.72501832
O      -1.07195503     -2.93443735      1.48474002
H      -0.29973445     -2.59561885      1.94586419
H      -1.72830444     -3.19128576      2.17724442
O      -5.11051885     -2.45404388      1.76405456
H      -4.66490884     -2.59451083      0.90163107
H      -5.98245089     -2.84274404      1.69032278
O      -2.93560365     -3.53365623      3.27739661
H      -2.75107750     -2.83321645      3.94092534
H      -3.76391202     -3.27188689      2.85350955
O       5.23605024      2.25119629      1.02950367
H       4.88744092      2.76857296      0.28309247
H       4.46918386      2.07517964      1.59582125
O      -0.15647987      0.63157475     -2.85288053
H      -0.02257985      0.00819443     -3.57001460
H       0.00686991      0.10716401     -2.02163887
O       3.54787002      4.84875650      1.74795905
H       4.46451805      4.95811134      2.01170194
H       3.57674234      4.67439260      0.79038176
O      -3.76870614     -2.78425039     -0.53239662
H      -3.79219709     -2.46331083     -1.45307631
H      -3.09153567     -3.48848275     -0.51645662
O      -0.02254815     -0.97690375     -0.80157025
H      -0.83499528     -0.85563190     -0.27727492
H      -0.21189721     -1.74477615     -1.38381257
O      -2.81931412      0.63578227     -2.14249734
H      -1.91593829      0.81543602     -2.46170476
H      -2.72159131      0.42129722     -1.19614112
O       1.17912830      2.95536858     -3.42833649
H       0.87521506      3.55956120     -2.74583083
H       0.74953153      2.10258026     -3.23041482
O      -1.67387992     -4.52251478     -0.48961632
H      -1.31041052     -3.94359223      0.22814861
H      -1.68259678     -5.41213460     -0.13577972
O       3.76109652      3.78745615     -0.76457806
H       2.96136465      3.24386354     -0.66932882
H       3.98738356      3.71482306     -1.71057730
O       6.47511156     -0.15586564      0.52533521
H       6.02006197      0.69298108      0.67787437
H       7.39268200      0.00231247      0.75300089
O       2.91409638      2.36787240      2.61572812
H       3.01409488      3.31510063      2.36814745
H       3.09551218      2.31886776      3.55582114
O       3.85301295      3.18378625     -3.40185896
H       4.11806900      3.70798645     -4.15768496
H       2.88130448      3.05409110     -3.48311287
