18
charge=0
O      -2.11965053      1.78652690      1.98000804
F      -0.16100418      2.19811817      3.93689487
F      -1.32333549      0.77342417     -0.50486387
C       1.46205953      1.37325457      2.48468649
C       1.86064518      0.83375749      1.26200936
C      -0.93021944      1.53799610      1.76809948
C       0.15557707      1.69975930      2.71471854
C      -0.41205305      1.01805923      0.53715171
C       0.90094490      0.66512018      0.27589758
C       1.23338986      0.06938997     -1.06290645
N       0.29384073     -1.08439813     -1.29626840
H       2.18536931      1.53057390      3.27054677
H       2.89024474      0.57425729      1.07894665
H       2.26443959     -0.28276717     -1.09145238
H       1.07003817      0.78663571     -1.87067128
H      -0.65450320     -0.65595641     -1.19976206
H       0.40343493     -1.52555504     -2.21236171
H       0.40597191     -1.77300596     -0.54548387
