49
charge=0
O      -4.24566162      5.39717819      0.61353921
O      -1.08564064     -1.40398110      0.10916590
Cl     -5.88904642      0.46549445      1.06553895
O      -0.42704217      2.56070601      0.59119851
C      -5.19129903      4.65657472      0.65507361
C      -0.83074351     -0.36338745      0.69142684
C       0.40795504      2.26107000      1.66744257
C       0.76656326      1.01258942      1.97410303
C      -3.21115292      0.20142683      0.94650296
C      -2.75695469      2.91735568      0.66756336
C      -4.27035651      1.08033508      0.92493832
C      -1.68583799      2.03411026      0.71338013
C      -1.90015700      0.66255097      0.85549942
C      -4.06369567      2.45827878      0.77098543
N      -5.16911606      3.30087797      0.72961415
N       0.40426321     -0.11397507      1.20254456
N       3.53753148     -1.28681695     -0.42055986
C       0.81071978      3.47871843      2.44637307
C       1.61657977      0.72458742      3.18157974
C       3.54971240     -3.73912141     -0.34723051
C       4.67302745      0.17809957     -2.13588426
C       3.24366998     -2.49469118     -1.17919822
C       4.74938463     -0.60128596     -0.81715517
C       1.46886248     -1.04239550      0.85807658
C       2.40149300     -0.42386874     -0.19378635
H      -6.23426184      5.02529867      0.63918997
H      -3.37667414     -0.86264684      1.01678964
H      -2.56539462      3.97005561      0.54076520
H      -6.05325376      2.80684043      0.78174497
H       0.56248837      4.35855951      1.85898401
H       0.27198234      3.53489270      3.39262282
H       1.87801701      3.47915185      2.65171120
H       2.67793166      0.74068710      2.93699500
H       1.36800195     -0.25483123      3.58299741
H       1.43357376      1.46617281      3.95312714
H       4.59449844     -3.74147816     -0.04745908
H       2.93639106     -3.75449964      0.54900675
H       3.34901878     -4.63734231     -0.92583803
H       5.64298414      0.61206018     -2.36454976
H       4.38705075     -0.47668111     -2.95587539
H       3.94270475      0.98054057     -2.06636735
H       2.19000848     -2.50459969     -1.47170986
H       3.83801799     -2.52933818     -2.09939129
H       5.01795225      0.08906577     -0.01061453
H       5.53943632     -1.35349313     -0.88423812
H       2.05119704     -1.31122483      1.73898397
H       0.99041625     -1.93887038      0.46198229
H       2.76704778      0.53368807      0.18790220
H       1.81748993     -0.22275367     -1.10780817
