49
charge=0
O       0.04650003     -2.78367432      4.11914283
O      -6.16288674      5.15780267      0.19876312
O      -6.30768363      3.01994778      1.44385092
Cl      5.97017052     -1.59613169     -5.82659705
N       1.75922213     -0.99732042     -0.61791228
C       0.38788360     -2.32843432      3.04500975
C       2.72019673     -1.88682488     -0.84227917
C       2.80418227     -2.81328914      0.22515128
C       1.82443893     -2.41739871      1.10813010
C      -1.93440094      4.36205254     -0.54700747
C       5.30349627     -2.67339984     -3.44558683
C       4.01265328     -0.76827860     -4.16282650
C       4.55155513     -2.74348253     -2.28881807
C       3.26674510     -0.84557787     -3.00501853
C      -1.28118936     -0.49625961      3.07234786
C      -1.88086761      0.60545931      2.50605685
C      -1.33757484      3.23975212      0.00087464
C      -0.41124936      0.45522964      0.60779514
C      -3.30477567      4.54109556     -0.44229825
C      -3.47055972      2.46459030      0.77212131
C       5.03068986     -1.68548746     -4.37848296
C       3.52363106     -1.83225528     -2.05170331
C      -0.23509031     -1.15100805      2.42091781
C      -1.45146179      1.09534086      1.26588344
C      -2.09293447      2.27708898      0.67149186
C       0.19064427     -0.65907226      1.18039791
C      -4.04878112      3.58343800      0.21558451
N       1.22204618     -1.32074399      0.55783097
N       1.41406232     -2.90555432      2.31911811
N      -6.29737414      2.98364106     -1.08300628
C       2.09056679     -4.07004809      2.84797774
S      -5.81677149      3.77286293      0.32687613
H       3.47571612     -3.63824127      0.32614748
H      -1.32959903      5.09987659     -1.05184011
H       6.09844726     -3.38007594     -3.62602446
H       3.81118960     -0.00454830     -4.89762675
H       4.77078491     -3.51465066     -1.56727542
H       2.47018930     -0.14411928     -2.81595475
H      -1.59935475     -0.88078876      4.02920227
H      -2.67702713      1.11227391      3.02846333
H      -0.26705618      3.11727447     -0.06822034
H      -0.06206006      0.78430529     -0.35759970
H      -3.80393086      5.40769318     -0.84402662
H      -4.10520916      1.75028740      1.27166473
H      -6.76137902      3.60970371     -1.72073981
H      -6.86467975      2.17591970     -0.88372104
H       1.63039508     -4.30613440      3.80613907
H       3.15105120     -3.85841347      2.99083979
H       1.97743848     -4.91442185      2.16678596
