22
charge=2
F      -0.17103700      1.51155025     -0.78878423
F      -0.87666520     -0.16374411      0.37240184
C      -0.74830645      0.49926973      3.55721092
C       0.01936563      0.98176029      2.77583755
C       1.37176351      0.55442798      0.73499596
C       0.22263631      0.32361815     -0.25342858
C       0.52836127     -0.62859573     -1.43059912
C       0.95479062      1.56332457      1.82790177
N      -0.69491332     -0.75249295     -2.26412777
N       2.16531474      2.03209106      2.59665396
H      -1.43422031      0.08369786      4.23944975
H       2.22086584      0.94128570      0.16755173
H       1.63585521     -0.40475716      1.18502247
H       1.34468826     -0.22339231     -2.03360132
H       0.81047297     -1.61058909     -1.04279279
H       0.49915589      2.44564203      1.35939532
H      -0.97930121      0.17052469     -2.63460813
H      -0.54467757     -1.38895743     -3.06089505
H      -1.48193557     -1.11718106     -1.69991508
H       2.85025308      2.51936015      2.00164877
H       2.63020848      1.23876946      3.06341038
H       1.86062670      2.68370560      3.33672344
