33
charge=0
O       1.79039877      0.06319055     -0.49445206
O      -1.89196904      1.49824388     -1.13738650
O      -2.12073872      0.69359094     -3.37017604
B      -1.62196741      0.59506936     -2.11690243
C       0.83550109     -0.17279569      0.20618332
N       2.15206173      0.50616964      2.17495511
C       2.11347405      1.82668034      2.78770987
C      -0.20885019     -2.96760755     -1.54985536
C      -0.20991553     -2.40900318     -0.12578979
C       1.02970570      2.60046055      2.03056877
C      -1.10172646     -2.00049805     -2.31799400
C      -0.40691775     -0.87733421     -0.28201708
C      -0.02867243      1.51989309      1.81989237
C      -0.65799876     -0.63329864     -1.78263399
C       0.81234906      0.21954516      1.67447629
H      -2.45231260      2.24039909     -1.37124386
H      -2.68095869      1.44499390     -3.57041532
H       2.77912579      0.51812796      1.37115087
H       1.81842915      1.70509784      3.83634445
H       3.09335072      2.30160430      2.75522873
H       0.80074152     -2.93629937     -1.96050500
H      -0.56608397     -3.99624752     -1.58495489
H       0.71526360     -2.64329443      0.40150523
H      -1.03849294     -2.82768011      0.44578016
H       0.65247395      3.45801478      2.58415691
H       1.41902792      2.94018165      1.06927565
H      -2.15010043     -2.17839926     -2.07283576
H      -0.98383190     -2.07094447     -3.39684319
H      -1.25864892     -0.54853957      0.31468977
H      -0.64513573      1.69865916      0.94068144
H      -0.67390671      1.44606942      2.69550747
H       0.32052773     -0.41835756     -2.22992319
H       0.36579740     -0.59569253      2.25582202
