47
charge=0
O       4.22188311     -2.59113452      2.95135347
O      -3.18153475      5.91105388     -2.76954592
O       1.08465229     -1.22746746      0.71941448
O       3.28041842      2.94622261     -0.04277048
O      -2.52160521     -3.44798762      2.17087513
C       2.11014107     -2.96113022      1.98455274
C       3.29202852     -2.18515227      2.26867332
C       1.07960195     -2.48188835      1.23713783
C       4.31198211      1.29046380      1.23392308
C       2.12539468      0.83265961      0.33171828
C       4.34591909      0.04498580      1.80534734
C      -1.16392528      3.70781201     -0.89482259
C      -0.11931909      5.82984772     -1.02006976
C       3.19598308      1.69978931      0.48790216
C       2.17549888     -0.43214078      0.91422930
C       3.27627320     -0.84185951      1.65872788
C      -0.08320374      4.51718300     -0.55713349
C      -2.20429686      4.20072257     -1.64358165
C      -1.17931825      6.28200666     -1.76600769
N      -0.02887442     -3.18718731      0.85621027
N      -2.22391686      5.48052045     -2.08605119
C       2.18225319      3.49353475     -0.73429521
C      -1.38476265     -4.13495125      2.64510742
C      -2.16957300     -2.24163249      1.53307693
C       1.08091947      3.99038750      0.22111701
C      -0.40820590     -4.42945390      1.49875377
C      -1.20759125     -2.49599717      0.36449903
H       2.08769870     -3.95378335      2.39773062
H       5.13267727      1.98141215      1.33818258
H       1.24619368      1.08730943     -0.23748105
H       5.19420023     -0.28744868      2.38346417
H      -1.20399969      2.68117758     -0.56380188
H       0.68593940      6.51030814     -0.79092409
H      -3.06124243      3.60692984     -1.92178304
H      -1.24669286      7.29208108     -2.13938044
H       2.59399076      4.33935391     -1.29155994
H       1.76987145      2.77645696     -1.45460952
H      -1.75335263     -5.05882938      3.09222342
H      -0.87207741     -3.53555033      3.41327398
H      -1.69209183     -1.55912580      2.25416828
H      -3.10343821     -1.80058105      1.18150600
H       1.50411040      4.77165757      0.85429395
H       0.76599377      3.16498119      0.86183264
H      -0.91121920     -5.04617984      0.74746118
H       0.46539712     -4.96342065      1.86205044
H      -0.92494618     -1.56023732     -0.11241525
H      -1.69250446     -3.14439013     -0.37124518
