18
charge=-1
O       3.29656678      0.44015385      1.71285551
O      -0.69124455      0.68195559      1.56896173
O      -2.32675917     -0.53854505     -1.10967506
O       2.25805312      1.69509665      3.71590123
O      -1.00508384      1.64900872     -1.20419915
O      -0.14298905     -1.78102741     -0.89070228
C       2.17323706      0.90093564      1.52941588
C      -0.11724115      0.41346849      0.53515229
N       1.58523903      1.67289775      2.47799113
C       1.35040480      0.72855114      0.29027016
P      -0.89471492     -0.19657410     -1.03816155
H       3.06502999      1.17087347      3.51261014
H      -1.86882326      1.92870482     -0.90702892
H      -0.75227968     -2.37604773     -0.45870143
H       0.56413431      1.60218104      2.55794056
H       1.76679794     -0.06448016     -0.33393742
H       1.33909615      1.64918747     -0.29665813
H      -0.07423390     -0.05115010     -2.13684493
