16
charge=0
N       2.73926875      1.77304533     -1.24268042
N       0.51094882     -0.87609724      4.22092712
S       2.09329488      0.49549072     -0.47829391
S       0.76724636     -2.04572387      3.11838577
S      -0.86081945     -0.28997840     -0.86920971
S      -0.04514496     -1.81212976      0.21691437
C       1.86432275      2.36955383     -2.00817898
C      -0.08720303      0.15626309      3.69149851
C       0.53575523      0.71718353     -1.20384239
C       0.03555565     -1.14133745      1.83715217
C       0.57486831      1.81166123     -2.02961701
C      -0.38832335      0.06836775      2.32078058
H       2.17625314      3.23299658     -2.56953168
H      -0.31329578      1.00089801      4.31854223
H      -0.25537342      2.17556362     -2.60334949
H      -0.88051852      0.83107822      1.74733846
