45
charge=1
O       4.91121137      5.52354678     -0.43876682
C       1.66171602      3.02880839     -2.53379018
C       2.28586694      3.92295330     -3.04887563
O       0.50724900      0.37559444      1.14686366
O      -2.10912762     -3.90282595      3.44599320
S      -0.57504149      0.00981186     -1.32678533
C       4.70282591      5.11026874     -1.55535695
C       0.03599540      1.15347411     -2.47478139
C       0.95184143      1.98397040     -1.92183284
C       0.42815282      0.69684334     -0.10036116
C      -0.75395829     -0.53241629      2.94915235
C      -0.23408111     -1.96476464      1.07698738
C      -1.40783405     -1.57359191      3.57527354
C      -0.88634540     -3.00006592      1.70397618
C      -0.17999936     -0.72452854      1.70184996
C      -1.49337179     -2.82853309      2.95958098
N       3.69672267      5.64537523     -2.30837416
N       1.16090370      1.70433126     -0.58046136
C       5.52012598      4.02509778     -2.21444223
C       2.22381858      6.09068046     -4.21143447
C      -3.69912050     -5.07429254      4.73939997
C      -1.67439974     -4.04831965      5.83433365
C       3.08645057      5.05976294     -3.48397413
C      -2.72785822     -3.90045731      4.73974963
H      -0.30935030      1.14348330     -3.48815626
H      -0.68455440      0.43373811      3.42264647
H       0.25734179     -2.13760549      0.13208427
H      -1.84761326     -1.39691472      4.54261449
H      -0.93732934     -3.97408784      1.24591982
H       3.15322318      6.35571272     -1.83452258
H       1.80914319      2.23238976     -0.00679170
H       6.29894048      3.71253152     -1.52505539
H       4.89876041      3.16900370     -2.47038064
H       5.98617729      4.40814951     -3.11962413
H       1.42056521      6.44093927     -3.56717004
H       2.84014705      6.93796004     -4.49872428
H       1.78819248      5.65344564     -5.10559564
H      -3.15752411     -6.00162861      4.57599461
H      -4.21523379     -5.12762607      5.69281882
H      -4.43249521     -4.95644729      3.94637693
H      -0.94609366     -3.24140873      5.79579468
H      -2.15424656     -4.03985059      6.80836334
H      -1.14878900     -4.99178002      5.71090984
H       3.87005776      4.69933602     -4.16191413
H      -3.28935990     -2.96565969      4.87068738
