36
charge=0
O       1.79955076     -0.48836639      4.02123778
Br      0.26577998     -0.29851754     -2.41002508
N       3.60073867     -4.64259792     -1.72313185
N       3.53498637     -3.44201597     -2.09195411
N       3.26416335     -3.18523660      2.48072797
S       3.32092912     -4.85362046     -0.10568276
C       2.19790559     -1.30171055      3.20344564
C       2.80867075     -2.59944624      1.40788686
C       3.24533505     -2.56827454     -1.12460266
C       3.07420873     -3.16102891      0.11487918
C       0.61109453      0.53270922      1.02132480
C       0.44206532      1.24613048      2.20392835
C       1.37100524     -0.64309646      0.83175491
C       2.07649151     -1.38481348      1.73500513
C      -1.23138881      2.05029738     -1.97090937
C      -1.53852550      3.29277914      0.05919353
C      -0.42703436      1.12624797     -1.33727427
C      -0.14850872      1.25305817      0.02348750
C      -0.72902792      2.35999315      0.69138943
C      -1.79298878      3.13506188     -1.29021749
N       2.90012067     -2.43143650      3.53691857
N      -0.34370774      2.31436667      2.00996916
C      -2.65692894      4.10038520     -2.04030325
C      -0.72772692      3.26448226      3.01371998
H       3.20345806     -1.52166377     -1.35740798
H       0.85542958      1.00743601      3.16618775
H       1.38735001     -1.02510720     -0.17880119
H      -1.43515289      1.93538254     -3.02479401
H      -1.95992819      4.12144866      0.60681337
H       3.18976109     -2.69860988      4.46413945
H      -3.51217928      3.58430043     -2.47410253
H      -2.09619730      4.55527207     -2.85553944
H      -3.02068101      4.88784505     -1.38585370
H      -1.81458340      3.28929259      3.11821202
H      -0.37852257      4.26420257      2.74597015
H      -0.28558346      2.97523097      3.96478714
