30
charge=1
O       2.11799313     -1.20921168     -1.36863866
C       1.55238838     -0.51532060     -0.40611790
N       1.53146899      0.79375962     -0.48246830
N       1.07106148     -1.27184780      0.56503023
C       2.04912430     -2.60958007     -1.05193262
C       1.34163372     -2.67700374      0.31492140
C       0.18215230      0.68251503      2.80384130
C       0.46358339      2.14360775      2.98320513
C      -1.42929354      3.01717633      0.18389264
C      -1.07697944      2.49022638     -1.16917867
C       0.82210417      1.71922390      0.42511314
C       1.13705737      1.39085284      1.87621342
C      -0.64706822      1.74135861      0.06215031
H       1.90343757      1.18446079     -1.33825776
H       0.66134893     -0.91017363      1.41716700
H       3.06836078     -3.00000793     -1.03060486
H       1.49183315     -3.10571453     -1.84912676
H       1.98073849     -3.09381144      1.09712529
H       0.41107757     -3.24773004      0.27724135
H      -0.80589776      0.41813998      2.45848054
H       0.59028546      0.00037445      3.53620503
H       1.06213084      2.45632486      3.82329349
H      -0.31934645      2.83628400      2.72308952
H      -0.91419427      3.89953541      0.53035601
H      -2.45349355      2.95470757      0.51509657
H      -0.32709979      3.01860913     -1.73760752
H      -1.85841073      2.06404339     -1.77759750
H       1.24882068      2.70442796      0.20803338
H       2.19231747      1.18355053      2.01972149
H      -1.17181828      0.81653950      0.26666981
