44
charge=0
F       4.83347355      4.54422002      6.67941836
Cl      5.53324928      5.09334075      3.86309066
N       1.21438923     -2.60072839     -6.72705900
O       0.24878830      1.59608616      3.61938836
S      -0.96253415     -1.26973578     -4.93774888
C       1.57347982     -2.19726713     -5.57595574
C       0.68120182     -1.69933368     -4.51784949
C       0.93663439     -1.53543753     -3.19262595
C      -2.84386316     -0.12847048      2.91980236
C       2.97188805      3.17080247      6.25693196
C      -1.83235514      0.54010404      3.57667190
C      -2.50593394     -0.38650363     -2.77427005
C      -2.74092089     -0.40545952      1.56730035
C      -2.58445584     -0.12087378     -1.42553870
C      -0.58407860      0.65838298      1.52538287
C      -0.28772989     -0.77085778     -1.09683376
C       2.12781542      2.55213054      5.35242664
C       3.37318808      3.50067305      3.53285028
C       4.01638650      3.94861333      5.79434102
C       4.22714605      4.11946470      4.43035154
C      -0.69139172      0.94041320      2.87960159
C      -1.30520137     -0.85485845     -3.28723706
C      -0.18300052     -1.05292081     -2.45911920
C      -1.60897785     -0.01461187      0.86195136
C      -1.48295864     -0.30790567     -0.57477556
C       2.32188241      2.71455074      3.98811437
N       2.89685787     -2.28421284     -5.23503582
C       1.42506972      2.03562772      2.98477224
H       0.21292901     -2.58214904     -6.89034206
H       1.87936094     -1.76891464     -2.72974932
H      -3.72171266     -0.43824681      3.46676048
H       2.83390505      3.05845716      7.32051554
H      -1.89930448      0.76766712      4.62846204
H      -3.35502383     -0.23538176     -3.42261797
H      -3.52820414     -0.94444827      1.06289165
H      -3.50619555      0.25813447     -1.01097938
H       0.27767491      0.97245874      0.95721750
H       0.56277825     -0.94120389     -0.45321850
H       1.30872724      1.94483186      5.70033783
H       3.53515262      3.63710638      2.47485895
H       3.26289094     -1.63208642     -4.56340599
H       3.50206527     -2.51618131     -6.00645155
H       1.96501408      1.17976206      2.54765731
H       1.18569046      2.73875810      2.17351382
