36
charge=0
Br     -3.22310434      2.80608494      1.44070818
O      -1.44029155      1.28167839      3.52329047
O       0.31992487      0.22065466     -1.54803891
C      -1.72772942      1.67043968      1.13930296
C      -1.09938473      1.10114900      2.22514520
C      -0.18354283      0.54722580     -0.31763458
C      -0.00328539      0.26120935      2.04243231
C      -1.26996818      1.40689379     -0.15349189
C       0.47164063     -0.03522063      0.78357921
N       3.18559615      0.73359891      1.54225994
C       4.14244519     -1.00285145      0.14292090
C      -0.50592024      0.56623231      4.33244374
C      -0.49179493      0.53683425     -2.65880732
C       0.45320868     -0.19764299      3.39719795
C      -1.92797765      2.05299380     -1.34196966
C       1.66784115     -0.91301484      0.57497164
C      -1.02582231      1.95957731     -2.56673758
C       2.94535536     -0.08235150      0.35671615
H       4.06169193      1.23607555      1.44603841
H       2.44571258      1.42053309      1.64504874
H       4.31246673     -1.59645834      1.03737616
H       3.96456762     -1.66762937     -0.69778061
H       5.03872872     -0.42029122     -0.06006864
H      -1.07577095     -0.10068025      4.98530646
H       0.02216370      1.29582600      4.95512842
H      -1.32880903     -0.17344732     -2.71801958
H       0.15089547      0.39979685     -3.53170406
H       0.34231895     -1.27845555      3.50372092
H       1.49769000      0.05780730      3.57517440
H      -2.14963801      3.09798171     -1.11434646
H      -2.88415125      1.55739341     -1.53985650
H       1.81462642     -1.55005641      1.44635141
H       1.50802805     -1.53154086     -0.30864383
H      -1.57329069      2.21523392     -3.47324019
H      -0.18287454      2.64589959     -2.46269994
H       2.79883248      0.52890128     -0.55169395
