50
charge=0
O      -5.08993797      2.24404744     -0.75635946
O       1.55303566      3.24235940      2.20710958
N       3.19650604      0.57649479     -0.38312426
S       0.78916267     -0.08312296     -1.41679674
S      -2.33122315     -0.82155909     -2.09729773
C      -4.23403405      1.47438594     -1.13035955
C       1.98295578      2.43537237      1.40690061
C       3.89990085      1.28163217      0.44670328
C       1.86775052      0.76307241     -0.37002526
C      -1.92470411      0.60476422     -1.11397667
C      -0.56002314      0.77996720     -0.72340051
C       1.20625089      1.65510916      0.47539378
C      -2.83458717      1.53943709     -0.73695606
C      -0.18822248      1.66469565      0.26266228
N       3.36637416      2.18598924      1.31186868
C      -2.91473820     -3.39121028     -1.58112320
C      -1.47296185     -2.26215236      0.12942947
C      -3.92046062     -1.71728916     -0.00500898
C      -2.39209452      2.74873513      0.04874414
C      -1.23130208      2.44433637      0.99301636
C       5.38572864      1.10405829      0.40667941
C       4.22734909      2.88884427      2.24269607
C       5.99544433      0.55525561      1.71564348
C       4.67762219      1.97173303      3.38395961
C       5.03297979      0.56490710      2.90260635
C      -2.67789578     -2.11366430     -0.78562243
H      -4.47067812      0.65302578     -1.82892176
H      -3.74361018     -3.26144670     -2.27307459
H      -2.02775486     -3.65233276     -2.15349101
H      -3.14981692     -4.21060524     -0.90469530
H      -0.57451101     -2.46555818     -0.44887247
H      -1.63890183     -3.09223247      0.81451266
H      -1.31385695     -1.36139732      0.71933717
H      -4.77770452     -1.62245804     -0.66723153
H      -4.14312487     -2.48029389      0.73921224
H      -3.77598999     -0.76950997      0.51093980
H      -3.25081501      3.13682671      0.59826904
H      -2.08911036      3.51872029     -0.67021227
H      -1.57879039      1.84714191      1.84431384
H      -0.79903550      3.36069476      1.39438020
H       5.58921346      0.41980053     -0.41638594
H       5.83746404      2.06601593      0.15221812
H       5.08758796      3.28838478      1.70293332
H       3.64383465      3.72216298      2.64185692
H       6.30639224     -0.47622350      1.54651539
H       6.88773285      1.12785418      1.97354717
H       5.54105868      2.42967992      3.86848208
H       3.87767707      1.89748686      4.12266415
H       4.12281572      0.02625386      2.62785349
H       5.48991111      0.02067098      3.73134775
