49
charge=0
O       1.32041784     -1.79076121      5.99869882
O      -1.04084890     -1.12205261      5.82309602
N      -0.95205877      0.55912693      0.73023382
C      -0.13550240      1.08518555     -0.15165091
C      -0.18885360      0.23313070      1.80765966
C       1.11394646      0.56920105      1.57412967
N       1.15198294      1.10732065      0.31024160
N       0.51630696     -0.88246745      3.78705258
C      -0.65372306     -0.40401062      3.07143664
C       0.28071158     -0.59295783     -2.51766906
C      -2.15113958     -0.31555906     -2.00929577
C      -1.10303641      0.98798004     -3.86796406
C       2.22744856      0.33481041      2.53060614
C      -0.56035067      1.55585938     -1.49622144
C       1.57903705      0.09899680      3.90069259
C       2.33773537      1.64751075     -0.30576188
C       3.60034348      3.90280886     -0.62432365
C       2.14380644      4.22078280     -0.76926924
C       2.57873062      3.08637878      0.10790494
C      -0.88294796      0.39929466     -2.47247578
C      -0.27846196     -3.32974468      4.58017003
S       0.12874310     -1.68293332      5.20879945
H      -1.22644648      0.30842864      3.68421983
H      -1.30380602     -1.25451726      2.85859941
H       1.19889729     -0.10415784     -2.83927622
H       0.44435245     -1.03336138     -1.53701007
H       0.06345653     -1.39473199     -3.21989614
H      -2.32914654     -1.20564859     -2.60841072
H      -3.01213653      0.34164566     -2.10396914
H      -2.05641350     -0.59911161     -0.96477699
H      -1.38606618      0.20410979     -4.56667973
H      -0.19659188      1.46308857     -4.23911519
H      -1.89654036      1.73153677     -3.84946409
H       2.90948078      1.18576814      2.58952112
H       2.80510062     -0.54753355      2.23714497
H      -1.46098812      2.15968528     -1.37316939
H       0.21489495      2.18759515     -1.92883643
H       2.29678619     -0.30007036      4.61671811
H       1.18587878      1.05118025      4.28489445
H       3.18616160      1.02732575      0.00449124
H       2.24669629      1.57906272     -1.39170122
H       4.10563728      3.44557191     -1.46166698
H       4.22473959      4.57624845     -0.05833565
H       1.66831901      3.99300595     -1.71102130
H       1.76017447      5.11358393     -0.30071467
H       2.49948717      3.23968583      1.17735461
H      -1.23955232     -3.29083439      4.08705298
H       0.50967398     -3.61595890      3.89800877
H      -0.31465329     -3.99981391      5.42962959
