49
charge=0
O      -0.20878365     -2.27287029     -1.78701798
O      -2.95978764     -1.09612377      0.41301902
O       2.23188079     -0.57580772      2.34567332
O       0.52710235      0.02526536      3.99137470
O       0.51483343     -0.27840068     -2.57098656
O      -2.11449791     -1.04708858      3.39216236
S      -1.04143373      3.41090808      1.13752654
S       0.40204799      2.94343260      3.57372872
C       0.09284014     -1.11397581     -1.62764884
C      -1.95842890     -1.37358075      0.99959938
C      -0.00864144      2.28993265      2.01881591
C       0.02026593     -0.48193042     -0.28782140
C       0.46586461      0.73269881      0.11976948
C       0.36274222      1.08974482      1.51920973
N      -0.63474573     -1.28452613      0.66973201
C      -1.95487002     -1.51004806      4.72113679
C      -2.21355625      2.30902999      0.28938920
C       2.10529927      2.38720972      3.87523736
C       1.15027802      1.71169570     -0.78536904
C       1.14734237      0.52812748     -4.68509527
C      -0.70697320     -1.15773726     -4.49730731
C       1.67760621     -1.84313162     -4.04609274
C       0.64959538     -0.71720459     -3.95048351
C      -0.12837847     -1.66534893      1.95891503
C      -1.59992762     -1.88169117      2.41619419
S       0.85687934     -0.24961264      2.62133859
H      -0.90413767     -1.48800339      5.01878492
H      -2.52101973     -0.81919494      5.34099834
H      -2.35728105     -2.52295306      4.83025098
H      -2.52862881      1.52771181      0.97306040
H      -1.77479492      1.88003576     -0.60472387
H      -3.06070374      2.93343945      0.02387764
H       2.67598214      3.27131558      4.14571395
H       2.50093706      1.92970254      2.97480243
H       2.10668263      1.66454843      4.68399645
H       0.53410477      1.94073017     -1.65115865
H       1.38293380      2.62985717     -0.25315766
H       2.07519547      1.27283600     -1.15485443
H       1.28834847      0.30441676     -5.73810385
H       2.09303728      0.85908814     -4.26419204
H       0.42435632      1.33402436     -4.59002153
H      -0.61435402     -1.39423391     -5.55350256
H      -1.43679652     -0.35989050     -4.37673619
H      -1.06141179     -2.03797266     -3.96853740
H       1.32071973     -2.72675575     -3.52471481
H       1.84628318     -2.09423478     -5.08941195
H       2.61996451     -1.52890662     -3.60212595
H       0.55428974     -2.51649298      1.95211931
H      -1.83826030     -2.93803375      2.60263774
