39
charge=1
O       2.40567739      2.57459701      2.44356904
O      -2.11103345     -1.44568516     -3.15117669
O       3.10934156     -0.91823532      1.88616428
S       2.69119511      0.34397519     -2.18694174
C       2.12814388      1.69297889      1.68646528
C       2.53743797      1.57048286      0.28424175
C      -4.02462534      0.80402223      0.03325422
C      -2.90798641      0.86813647      0.82574855
C       2.32738615      0.48777129     -0.50633189
C       1.15910390      0.54259501      1.85898811
C      -1.61274667     -1.00425966     -1.97786735
C      -1.93692125      0.11206521      0.14931212
C      -2.46084319     -0.36563187     -1.06386626
C      -0.24092035     -1.09850355     -1.64075602
C      -0.61765010     -0.07233680      0.51580581
C       0.22731031     -0.69898830     -0.38737319
N      -3.75961926      0.05650697     -1.08596812
N       0.69869078     -1.57358170     -2.57049129
N      -0.10811422      0.70216453      1.55317249
C      -2.42311525      1.52538459      2.08186839
C      -0.92248550      1.86530758      1.92471502
C       2.32169983     -1.92392560     -0.80924982
C       1.77782752     -0.79366111      1.50791831
C       2.07492096     -1.46424500     -2.23565934
C       1.68975149     -0.78764090     -0.02185035
H      -1.49911634     -2.04085035     -3.60246194
H       3.20174344     -0.90867913      2.84600132
H       3.01746687      2.45423657     -0.11134161
H      -4.99352974      1.24021001      0.17656175
H      -4.41638706     -0.12463975     -1.82768504
H       0.48784800     -1.35646584     -3.53631562
H      -2.56297548      0.85163019      2.93144519
H      -2.95963250      2.44920685      2.29340426
H      -0.52774719      2.27409464      2.85513346
H      -0.81314705      2.61957421      1.13713793
H       3.38375924     -2.00784949     -0.58622875
H       1.82852981     -2.87600394     -0.61665258
H       1.15095401     -1.60462925      1.91365681
H       2.67980793     -1.96912759     -2.98634606
