36
charge=0
N       0.70775130      1.95672040     -2.16247282
N       1.16940018     -0.81304782      1.20568211
N       2.35325347     -1.05304962      1.44185857
N       2.16402920     -4.01208705      5.38538364
N      -2.61940189      5.35832280     -2.02688003
N      -0.40775706      0.67541698      2.01903392
N      -1.32688694      2.41793120      0.68300477
C       1.16482268      1.01193493     -1.38501893
C      -1.22933001      1.68164850      1.77011365
C      -2.27734184      5.73318312     -3.24787001
C       1.17664640     -3.40669281      4.75089079
C       3.32807501     -4.11492235      4.77341195
C      -1.97799878      4.35330892     -1.46510568
C       0.47631856      0.31665879      1.08180194
C      -0.46440222      2.06463789     -0.27235277
C      -1.26867998      5.11797938     -3.97578850
C      -0.58825241      4.06215100     -3.39778858
C       1.30375465     -2.87829470      3.47546356
C       3.57056751     -3.61758646      3.50046103
C       0.47391600      1.01149301     -0.15367975
C      -0.94841994      3.66685041     -2.11145352
C       2.52938186     -2.99010631      2.83261142
N      -0.27850484      2.60471808     -1.50483194
C       2.70832345     -2.44423125      1.42785671
H       1.95909672      0.37088521     -1.71225514
H      -1.90717542      1.93097048      2.57550854
H      -2.83886990      6.56280768     -3.65570155
H       0.24147593     -3.33898629      5.28952507
H       4.10918144     -4.61561267      5.32973179
H      -2.28536985      4.07683659     -0.46711207
H      -1.02034305      5.45512842     -4.97005497
H       0.20560903      3.54162829     -3.91020754
H       0.47277878     -2.37528432      3.00160796
H       4.54363330     -3.72204620      3.04610601
H       3.75624426     -2.51146959      1.13213169
H       2.07485383     -3.02741416      0.74676762
