46
charge=0
O      -0.73580991      4.83192904      0.65371508
O      -1.23437622      1.30245292      4.20337709
O       1.26041734     -5.15180006      3.40223553
O       2.75613625      2.04089381     -1.87005878
O       0.38725967      1.27936092     -4.17823585
O      -0.95105688      1.08165171     -2.12882989
N      -1.27061561      4.55801564     -2.10264208
O      -0.90285579     -1.63156819      4.75165981
C      -0.32277807      3.92837992     -0.02533297
C      -0.52777420      0.55758499      3.56218944
C       1.30732647     -4.00410638      3.02950079
C       1.65685371      2.33398747     -1.46583672
C      -0.31793316      3.95766920     -1.52767651
C      -0.42662584     -2.86250691      4.60822150
C      -0.23924913     -0.83186766      3.87740436
C       0.56465022     -2.90594280      3.64937562
C       0.68642279     -1.57415706      3.19288983
C      -0.29884400      2.18633527      1.74103572
C       1.55854222      0.67594987      0.36748617
C       0.16157651      2.63812455      0.51340881
C       1.10075887      1.86506916     -0.18105057
C       0.11879320      0.96726340      2.26875323
C       1.06263246      0.19231924      1.57041511
C      -1.43076770      4.42323438     -3.52417906
C       2.16947197     -3.56174699      1.85492239
C       2.97116237     -0.71859046      2.80699076
C       1.77672075     -2.25115751      1.16042379
C       0.69934658      3.16046542     -2.26459320
C      -1.67061198      2.96419573     -3.89199829
C       1.62008150     -1.08572716      2.15672519
S      -0.37043010      1.91126895     -3.14346052
H      -0.85286872     -3.64153982      5.21048593
H      -1.01042945      2.77863118      2.29890787
H       2.30454111      0.12556356     -0.18451279
H      -2.29445916      5.03060671     -3.80907678
H      -0.55057388      4.80348536     -4.05939417
H       2.17384669     -4.37439751      1.12583371
H       3.19039846     -3.48774047      2.24100204
H       3.68983544     -0.44264624      2.03988003
H       2.84066069      0.12479842      3.48133744
H       3.36192223     -1.55511552      3.37926227
H       0.82628703     -2.38711730      0.63929695
H       2.53775114     -2.01992163      0.41518754
H       1.19890362      3.71024288     -3.06365920
H      -2.60821456      2.60618919     -3.47662877
H      -1.62387389      2.79413234     -4.96260602
