30
charge=0
O       1.23118253     -1.70278539     -3.23256348
O      -1.14539601      1.64736403      3.05125433
O       2.80185303      3.12774668     -2.49740540
O      -2.71248545     -3.19756773      2.30132509
O       1.69079006      3.85979846     -0.13918163
O      -1.59524126     -3.90800581     -0.05359286
O       2.39906075      0.65740201     -3.54036370
O      -2.31894162     -0.71822566      3.36573113
O       0.09588077      2.07645370      1.28002947
O      -0.00965572     -2.12839459     -1.46128514
C       0.77133291     -1.29339417     -2.18265234
C      -0.68589411      1.23584934      1.99989888
C       2.03260247      2.24351486     -1.82975109
C      -1.93846648     -2.28083159      1.64736808
C       1.45081609      2.60526471     -0.60977173
C      -1.37147808     -2.67672834      0.42778972
C       1.82740877      0.95902038     -2.37908429
C      -1.73330032     -1.00751363      2.18889371
C       0.65418853      1.69254824      0.08391746
C      -0.57066243     -1.76328056     -0.27301805
C       1.02384079      0.04983275     -1.67141747
C      -0.93239830     -0.09899629      1.48458973
C       0.44770011      0.42846739     -0.44910780
C      -0.36463568     -0.49676237      0.26237131
H       2.83803423      3.94990799     -1.98725318
H      -3.02935522     -2.78383367      3.11646052
H       1.22941848      3.96766798      0.70349814
H      -2.16676838     -4.38253552      0.56965605
H       2.15553729     -0.26887380     -3.77728628
H      -2.07496747      0.20689102      3.60095043
