30
charge=0
O      -1.75276057      3.75991149     -1.02018150
O       0.59221505      4.32706303     -1.51394400
F       1.36100277      0.40606853      3.62200060
N      -0.02036545      0.01871907     -0.82120297
N       1.78820532      0.75747053     -1.88551257
O       2.15121385     -0.23620561     -1.03172950
S       2.55918523     -2.29553234      1.17555000
C       1.03239887     -0.64006676     -0.41062679
C       0.49730307      0.88879023     -1.73308581
C       1.72329482     -3.22154266      2.34615343
C       0.37384053     -3.02834325      2.30727516
C      -0.00976153     -2.11213054      1.31759911
C       1.06542583     -1.62581120      0.61301732
C      -0.40378780      1.23903602      2.31235718
C       1.90751239      1.79492198      1.80572809
C      -0.81328454      1.96436279      1.20755599
C       1.48419107      2.52715493      0.70958090
C       0.95300247      1.15329418      2.57871827
C       0.13391102      2.59021508      0.41986120
C      -0.30668439      1.94446945     -2.34651695
S      -0.38117623      3.34931134     -1.12418353
H       2.27746571     -3.86036237      3.00490182
H      -0.31577087     -3.52231076      2.96687525
H      -1.01788261     -1.80595895      1.10987394
H      -1.10833677      0.73086095      2.95065642
H       2.95277753      1.70456409      2.05536662
H      -1.85372284      2.05121947      0.94030002
H       2.18285536      3.03931621      0.06679650
H       0.15608283      2.34467081     -3.24202295
H      -1.33303339      1.63216056     -2.50584470
