34
charge=0
O      -1.07950137      0.72198159      0.54226236
O       0.32155186      0.77331595     -1.34540028
O       0.28728310     -1.13697954      0.08109610
B      -0.14381992      0.11676620     -0.24504975
C      -2.94035400      2.14780937      0.95463136
C      -0.60533944      3.08469358      0.74710375
C       2.61866273      0.00212612     -1.58485717
C       0.76015818     -0.99696794     -2.96109105
C       0.04509373     -3.31131740      1.01930456
C       0.53906161     -1.31239983      2.48053689
C      -1.58629510      2.01887190      0.26186497
C       1.27531371      0.26014351     -2.26396353
C      -0.18626407     -1.81783949      1.23496355
H      -3.37694243      3.11966723      0.74176595
H      -3.61416384      1.37048118      0.60447741
H      -2.81550743      2.03862057      2.02893834
H      -0.99392928      4.07669118      0.53294351
H       0.34661926      2.95634538      0.23919977
H      -0.44969598      2.98573254      1.81904273
H       3.35655687     -0.30197856     -2.32265033
H       2.96544600      0.90476798     -1.08738171
H       2.50043220     -0.78312797     -0.84396076
H      -0.20198709     -0.79746432     -3.42667437
H       0.63768108     -1.78915687     -2.22823071
H       1.46524748     -1.31410909     -3.72507617
H      -0.32665350     -3.87265584      1.87196368
H       1.10794076     -3.50642277      0.89944666
H      -0.47131664     -3.64457807      0.12289177
H       0.35869894     -0.24702525      2.59388151
H       1.60923835     -1.47995405      2.38165832
H       0.17599036     -1.83287279      3.36273634
H      -1.71026428      2.11950650     -0.82491841
H       1.39154953      1.06451004     -3.00505763
H      -1.26049127     -1.61718049      1.34360213
