12
charge=0
O       0.63551345      0.43700159     -2.09772589
O       2.66692578      1.19576846      1.90975088
O      -1.71600401     -0.04249255      1.77557354
Cl      3.13602132      1.19499996     -0.91833066
Cl     -1.95420876     -0.24270301     -1.07434076
Cl      0.40601177      0.63600712      3.57991888
C       0.58763557      0.47828536     -0.90903691
C       1.69981301      0.89357903      1.28500182
C      -0.69993757      0.21537357      1.21163719
N       1.66490620      0.81857463     -0.10132797
N      -0.55214827      0.19122253     -0.16910165
N       0.47559775      0.57450977      1.85810799
