15
charge=0
O       3.14900015     -1.57418480      3.81838021
O      -1.03876942      3.24923557     -1.78975671
O       0.30005512     -0.01875133      0.41872410
C       2.69962561     -0.69484872      3.12899551
C      -1.46574203      2.13595552     -1.97719025
C       1.23345074      0.14799689      1.36918714
C      -0.12173115      1.04004285     -0.28498458
C       1.68852438     -0.87729201      2.10026964
C      -1.05012846      0.94488432     -1.24825030
H       3.04337888      0.35303217      3.24020502
H      -2.23336688      1.94287824     -2.74844513
H       1.60290841      1.16094438      1.51615544
H       0.31821190      2.00679226     -0.05067998
H       1.31195739     -1.87674259      1.94243055
H      -1.49971656     -0.00228449     -1.49738284
