44
charge=0
O       2.44231986     -2.29277064      0.71368625
O       0.80585054     -1.91918299      2.50079627
O       0.12226378     -2.81583998      0.29467784
C      -0.58317021     -0.04325288     -0.02348997
C      -0.22759584      2.39032100      0.16775400
C      -0.97400257      1.26392245     -0.21725034
C       0.99600608      2.19109962      0.72379403
C       1.46102951      0.86093135      0.85755043
C       0.69891611     -0.23960619      0.53545569
C      -2.13230246     -3.59235969      0.09934915
C      -3.45426176      1.92454619      0.05707540
C       3.01658197      3.77967918      0.62668763
C       4.59504612     -0.12804486      0.29882253
C      -1.47825291     -1.19193721     -0.39668720
C      -1.30470176      3.35501524     -0.24664998
C       3.50833253      0.64056227      2.57594830
C      -1.23175946     -2.42305642      0.47355815
C      -2.14053704      2.11255098     -0.68390287
C       2.19873622      2.77741303      1.42407824
C       4.16413838      0.94197987      1.26359587
C       2.72368805      1.32001123      1.49090965
S       1.13523061     -1.87628975      1.10522178
H      -1.88983576     -4.45308200      0.71544962
H      -1.97870477     -3.85809601     -0.94329891
H      -3.17353790     -3.32306429      0.25463491
H      -3.27951808      1.88014516      1.12966910
H      -4.12314054      2.75645449     -0.15417729
H      -3.94674430      1.00549703     -0.25235359
H       2.42711659      4.67590638      0.44494035
H       3.30489534      3.35298456     -0.33094384
H       3.91470253      4.06377417      1.17024632
H       4.58460361      0.25739133     -0.72011180
H       5.61003090     -0.44552186      0.53209421
H       3.94063413     -0.99109669      0.35471589
H      -1.28787265     -1.46861040     -1.43928785
H      -2.52046843     -0.88178224     -0.31437673
H      -1.74202514      3.92484974      0.57083668
H      -1.02654422      4.03337699     -1.05094579
H       3.78505601      1.21549100      3.44755815
H       3.23445238     -0.38418661      2.78033033
H      -1.36484241     -2.16385027      1.53345589
H      -2.30608097      2.06589605     -1.76258784
H       1.94719319      3.18756658      2.40561103
H       4.83287169      1.79806133      1.27135774
