19
charge=0
Cl      0.53516167     -0.44285822      4.10952457
Cl      1.25648151     -2.40088039      2.11395782
Cl     -1.49895932     -1.57561959      2.38680148
Cl     -0.58131161      4.58349451     -0.09924974
Cl     -1.54814916      3.61523626      2.44455349
Cl      1.26084974      4.21728269      2.09950497
N       0.75345902     -0.29696402      0.27443050
N       0.51785927      1.97073908     -0.32208739
N       0.01116360      1.26578790      1.85707247
S       1.35714232      0.36038428     -2.19530566
C       0.82977783      0.70386173     -0.60656724
C       0.34710216      0.04619089      1.47391015
C       0.11729333      2.18556147      0.90559341
C       1.63492883     -1.42945268     -2.05852932
C       0.19962645     -1.04599506      2.48977014
C      -0.20563615      3.59334337      1.30346779
H       2.37397721     -1.61843789     -1.28755733
H       1.99409075     -1.75964406     -3.02728209
H       0.69950945     -1.91766285     -1.80764068
