16
charge=0
O       1.92373689      0.77993909     -1.96445020
O       1.73539733     -2.61016856      1.04455006
O       0.12607399      3.21512667     -0.94812356
C       1.46345849      0.41581662     -0.91937699
C       1.38714343     -1.50159696      0.73359380
C       0.15579712      0.49599454      1.17151767
C       0.57629290      1.09944994     -0.00288024
C      -0.74039237      2.49659842      1.05323798
N       1.77666637     -0.86878746     -0.41697425
N       0.53525227     -0.75541443      1.54408051
N      -0.65211408      1.35417460      1.81938066
N      -0.00882268      2.36880549     -0.05072211
H      -1.31411250      3.36064917      1.30970347
H       2.39757636     -1.41052177     -1.00899526
H       0.22380138     -1.18592968      2.40285547
H      -1.11891943      1.21269970      2.69943839
