34
charge=0
Cl      0.84468704     -4.36946383     -3.85253307
Cl     -1.27153929     -2.12302029     -4.08281726
N       2.99060655     -1.42172108     -0.16235514
O       2.42559508      3.66582817      2.87378010
O       1.07959136      2.74529120      4.42943291
O      -1.62036952      1.50771420      2.70699797
O       1.42119202      2.18992554      0.90851159
O      -1.60703236      1.51059174     -0.50784815
S      -0.43089323      2.64153398      5.11045180
C       2.59832383     -0.27069270      0.28021311
C       2.01395234     -2.90306058     -1.93360437
C       0.06070827     -0.83300975     -2.14941388
C       0.97080327     -2.98387666     -2.83360351
C       0.00831900     -1.96519744     -2.94096664
C       2.08393936     -1.77210514     -1.12831242
C       1.10790024     -0.75303924     -1.24600335
N       1.46439644      0.19963821     -0.32174269
P      -1.09680602      0.85712638      4.15497968
C       1.15489890      3.21574862      3.09473107
C       0.74661119      2.06262912      2.13878773
C      -0.73637934      2.00738081      1.74779210
C       0.75325761      1.42883314     -0.06026824
C      -0.67748912      1.15203849      0.46645104
H       3.05889085      2.94658011      2.99368436
H      -2.49872177      1.38649579     -0.16079811
H       3.10805754      0.29048547      1.03792045
H       2.74908650     -3.68609793     -1.85733350
H      -0.68237176     -0.05723027     -2.23800461
H      -2.36865794      1.02002658      4.70883976
H       0.49184977      4.07975532      2.95276328
H       1.01539537      1.10269058      2.62976166
H      -1.08202555      3.01478491      1.47527925
H       0.69591056      2.01448691     -0.98889730
H      -0.77966183      0.09095462      0.74614936
