14
charge=0
I       1.23557970      4.65296670      0.68534341
I      -0.97301579      2.66966913     -1.20442003
I       3.30062351      1.76925358      1.31401160
N      -1.27790518     -0.56416421      1.88471408
N      -0.71321791      0.27756473      1.09709830
N       0.46653207     -1.55988986      0.99167827
C      -0.55513055     -1.68909526      1.81802377
C       0.79884264      2.74993342     -0.07010803
C       1.55726829      1.67635067      0.12661780
N       0.32315808     -0.32554769      0.56923192
C       1.21037441      0.30264628     -0.36959930
H      -0.77439073     -2.57861315      2.36680585
H       2.09369353     -0.33369289     -0.45336675
H       0.71606867      0.36109951     -1.34755007
