16
charge=0
Cl     -0.39261952      2.02441601     -2.66135268
Cl     -2.16284898     -2.08617259      1.28922605
Cl      0.06311416     -1.82528429      3.40547346
Cl     -2.14754415     -0.31207394     -1.25414696
Cl      2.37939660      0.23170605      3.03009810
Cl      2.16140028      3.29324448      1.38450036
Cl      3.71995609      1.28705951     -0.00556797
N       1.56295373      2.39361387     -1.00433266
C       0.49024933      1.74463223     -1.26894226
C      -0.90624467     -0.94962450      1.05594606
C       0.10159135     -0.83421223      2.01793771
C      -0.90562759     -0.15087288     -0.09631534
C       1.14866624      0.08844824      1.85859654
C       0.13202532      0.75791133     -0.24604122
C       1.13920534      0.86850484      0.72216848
C       2.08316215      1.93553948      0.23958767
