24
charge=0
S      -1.47196076      2.01674809      2.40431842
S       0.97852252     -0.52112358     -0.61789915
C      -2.74542961      2.47250005      1.28386740
C       1.58102679     -2.17229598     -0.70285198
C      -0.16829361      1.67354703      1.23053430
C       1.53781448     -0.11438032      1.02390374
C      -2.51996513      2.95588710      0.07425947
C       2.63852964     -2.60397969     -0.03740476
C      -0.12784323      2.24855479      0.03136960
C       2.59968434     -0.71463620      1.56462515
N       0.73239462      0.75582478      1.73301340
C      -1.15263737      3.21699453     -0.48016327
C       3.45885188     -1.71284210      0.84734013
H      -3.72866031      2.30695281      1.69124218
H       0.99484242     -2.78688089     -1.36501122
H      -3.35913188      3.18331087     -0.56709500
H       2.93795188     -3.63859193     -0.11805061
H       0.68709148      2.01774532     -0.63677187
H       2.86238092     -0.48553368      2.58718697
H       0.78807124      0.69267749      2.73871585
H      -1.18046960      3.16743864     -1.57058513
H      -0.85447953      4.24187182     -0.21428133
H       4.01180130     -2.31006156      1.57389928
H       4.20016026     -1.18947440      0.22609151
