18
charge=0
O       1.56533149     -0.94864482     -2.56712726
O       2.61582390      0.92364997     -1.77046225
O      -0.81340261     -2.43822421     -1.14265299
O       2.20552154      3.64108711      1.97402247
O      -1.76173345     -1.81517574      0.85279847
O       0.48882464      2.71248123      3.17382429
N       1.62746322     -0.13390442     -1.69246253
N       2.52034343      1.71168151     -0.71679186
N      -0.80694005     -1.65827861     -0.23538923
N       1.39132846      2.77070172      2.03785689
N      -1.59003431     -0.86413109      1.74285517
N      -0.32407463      1.68474516      3.05185444
C       0.97443235      0.08958427     -0.55701331
C       1.56085672      1.26246097      0.03791610
C      -0.09923339     -0.58154732      0.08964244
C       1.04721524      1.73608633      1.28107406
C      -0.61668130     -0.10074336      1.34339823
C      -0.03729433      1.06791327      1.94373658
