26
charge=0
O      -0.75575031     -0.43999197     -1.25027421
C      -1.43812242      1.93419555      1.44406272
C      -1.94822874      1.98430760      2.63251173
C      -0.88144854      1.85220070      0.27774930
N       0.46267650     -0.56394350      1.03713443
N       1.37065226      1.03790404     -1.00013119
C      -0.20251904     -1.81931028      1.29459705
C       1.11840985      0.01132584      2.18583293
C       2.14704186      2.09509273     -0.40318841
C       2.11942316      0.18201982     -1.89197385
P       0.00529797      0.36090060     -0.29301776
H      -2.92269973      1.57536922      2.84358014
H      -1.43102196      2.44969759      3.45625711
H      -1.03225996      2.59948506     -0.48992792
H      -0.92695944     -1.73326846      2.11224689
H      -0.72199294     -2.12296336      0.38924617
H       0.53382537     -2.58307244      1.56028758
H       0.44010527      0.06995652      3.04454821
H       1.46375889      1.01418891      1.95116490
H       1.97854680     -0.60380414      2.47046229
H       3.00630899      1.71386808      0.16293004
H       2.52766482      2.75006646     -1.19319444
H       1.51440611      2.68424032      0.25943772
H       2.50262904      0.76950484     -2.73046481
H       1.44531156     -0.58267521     -2.27223039
H       2.96498965     -0.30219718     -1.38948984
