31
charge=0
P       2.36228109     -0.76602782     -0.88528548
P       2.40033743      1.05470542      0.27882077
P       1.64991077      1.08328101     -1.74791150
P      -1.08549875     -0.23220388      0.39864833
C      -0.21026175     -3.02452323     -1.43189114
C       1.01114897     -2.83849940      1.41985635
C      -0.06647939      2.81482438      1.77966753
C       0.81351173      0.21953333      3.24553824
C      -1.44578064      2.62478525     -1.50422500
C      -1.24295382     -0.04019563     -3.09008751
Si      0.46875925     -1.82067986     -0.10624761
Si      0.46701370      0.99498380      1.52907507
Si     -0.63500908      0.89003033     -1.53309365
H      -1.22277228     -2.76503042     -1.72075090
H      -0.22597800     -4.03212942     -1.03236797
H       0.41209167     -3.02951419     -2.32113807
H       1.69279641     -2.28545763      2.05721015
H       0.15058330     -3.13609996      2.00962484
H       1.52044732     -3.73906652      1.09200175
H       0.55306145      3.27171359      2.54472691
H      -1.09929540      2.87154476      2.10682232
H       0.04169595      3.39974080      0.87252468
H       1.85948744     -0.04781938      3.35768126
H       0.21128438     -0.66751872      3.40805326
H       0.56889199      0.93490895      4.02240944
H      -1.99398733      2.79029183     -0.58334129
H      -2.14500840      2.71164629     -2.32803850
H      -0.70603260      3.41170909     -1.61202820
H      -2.24832829     -0.42050955     -2.94329917
H      -1.26234355      0.64139035     -3.93445233
H      -0.59357412     -0.86981416     -3.34850247
