38
charge=0
N      -1.69204914     -1.10969087      0.56676307
N       0.47506026      1.66732549     -0.52917756
N       1.68740094     -0.34255419     -0.17131918
O      -1.77342064      1.86823319     -0.23189247
C      -1.06303980     -2.22105273      0.77110256
C       1.57288610      0.92792124     -0.49959165
C      -0.69374797      1.12486224     -0.19836791
C       0.52380113     -0.89488289      0.16137310
C      -0.71747989     -0.22447750      0.17301206
N       0.28730058     -2.17889332      0.54821777
C      -0.77599755      4.52250044      0.53682313
C      -3.68550942      3.82148594     -0.46398245
C      -1.24628722      3.70492169     -2.46310376
C       2.78355571     -2.77461078      1.98168096
C       0.65045210     -4.99893043      1.26018206
C       2.31260853     -3.59830337     -1.04087336
Si     -1.82709449      3.48368862     -0.66352105
Si      1.54957186     -3.42215504      0.69023813
H      -1.54404886     -3.12318727      1.09215704
H       2.48741903      1.43380046     -0.78066812
H       0.27288292      4.25301375      0.45837479
H      -0.86493276      5.58427049      0.33130632
H      -1.08230780      4.35948646      1.56675129
H      -4.27730624      3.18579163     -1.11488419
H      -3.91484874      4.85259726     -0.70955517
H      -4.01521629      3.64161068      0.55431765
H      -1.35305393      4.73247847     -2.79514744
H      -1.82159740      3.07864429     -3.13982137
H      -0.20158581      3.42710146     -2.56475306
H       3.15733385     -1.80042726      1.68004680
H       3.63380717     -3.44058468      2.08851444
H       2.32422958     -2.66519346      2.96074131
H       0.16017097     -4.86161731      2.21953527
H      -0.10147194     -5.31798301      0.54435727
H       1.35852681     -5.81328784      1.37146229
H       1.58769229     -3.95487403     -1.76809915
H       3.14711555     -4.29217228     -1.03910604
H       2.67918028     -2.63485606     -1.38309358
