36
charge=0
O       0.23513090      1.41633326      3.08327452
O      -1.27597386     -1.13453594      3.03439150
O       0.37218838     -0.58987158     -5.74670789
O      -2.13536533      0.28928472     -1.40500623
O       2.23253134     -0.52555130     -0.75507931
O      -1.38057524      3.15200107      2.18125613
O      -2.33872565      1.22299871      3.40107227
O       1.12196441     -0.86217392      4.00328010
O       0.49248737     -2.94058437      2.81574186
O       2.17594301      0.60562687     -4.38826078
O      -1.40819016      0.93630944      1.11552469
O       0.84257215     -0.86941977      1.53580767
O      -0.20246873      0.79560210     -3.57963454
O       0.95822269     -1.32514079     -3.28912975
C      -0.95006033      1.00456351     -1.21037151
C       1.02465164     -1.22865094     -0.80033738
C      -0.36550708      0.69965187      0.18971679
C       0.09083736     -0.76367219      0.34213499
C       0.10134585      0.57013951     -2.22103963
C       0.29582958     -0.94209835     -2.10899316
P      -1.11167477      1.62472896      2.52044218
P       0.16840275     -1.38821548      2.88215604
P       0.77912780     -0.17143014     -4.41898800
H      -2.71639677      0.47959997     -0.65547708
H       2.58164069     -0.60538483      0.14327096
H      -1.04237332      3.72822005      2.86473222
H      -2.28566614      0.26049852      3.52706430
H       1.05166303      0.10741285      3.99339995
H      -0.03958688     -3.43683236      3.43558333
H       2.60280049      0.53264158     -5.24121324
H      -1.13761936      2.08587892     -1.28820034
H       1.20626500     -2.30820114     -0.69029073
H       0.48767348      1.34982225      0.40650876
H      -0.80036093     -1.39627325      0.39800032
H       1.05466426      1.05860655     -1.98725070
H      -0.68539794     -1.43188378     -2.08737790
