12
charge=0
Cl     -3.09035550     -0.53022068      1.12622322
Cl     -2.66759129      1.28636923     -1.52889340
Cl      0.01638015     -1.47394492     -2.98818114
Cl     -0.40934986     -3.28994675     -0.33338947
Cl     -0.01520866      1.47525378      2.98803751
Cl      0.40871776      3.28994132      0.33196786
Cl      2.66645816     -1.28642779      1.52984355
Cl      3.09127101      0.52867115     -1.12564446
Si     -1.67924243      0.22065305     -0.11811320
Si     -0.11456525     -1.38918691     -0.96854684
Si      0.11446888      1.38951457      0.96842007
Si      1.67901720     -0.22067626      0.11827635
