18
charge=0
B      -0.63637735     -0.29960952      0.35951604
C      -1.90758870      0.52985014      0.26147049
C      -0.43581862     -1.63332125      1.06290182
C      -1.88669424      1.70699420     -0.41801235
C       0.78840550     -2.22395370      1.03874938
C      -0.69188353      2.15879030     -1.02959410
C       1.86877621     -1.60456758      0.36445103
C       0.45612893      1.44038168     -0.95829284
C       1.71870757     -0.41588397     -0.27119624
N       0.53107250      0.25010001     -0.30023254
H      -2.84016581      0.21952682      0.71506940
H      -1.23482534     -2.13982497      1.58899324
H      -2.76773394      2.32950198     -0.51351419
H       0.97655383     -3.17262417      1.52610675
H      -0.69074648      3.09571934     -1.56583763
H       2.83488081     -2.08605162      0.35388401
H       1.36600718      1.79436184     -1.42923981
H       2.55130125      0.05061041     -0.78522233
