48
charge=0
O       1.99699444     -0.75544017     -1.74705319
O      -0.02155694     -3.90878874      2.37622777
O      -1.04748445     -2.12174462      3.69583298
O       2.59572857     -2.65322910      0.54267262
O       2.41839098     -3.64612961     -1.70127604
N      -0.66383892      3.87784481      0.31554589
N       3.57043779      1.58880404      0.07848642
O       2.47200819      2.98260146     -2.09114541
O      -1.45764233     -0.00048053      1.02552289
O      -1.25641391      1.05213602      3.01123518
O      -0.14002602     -0.11174148     -1.37871128
O      -1.74322004     -2.58520047      1.38204832
O       0.43025393     -1.60627257      1.79854008
O       0.98225387     -4.43938039      0.05298401
C       0.90073635     -1.00288895     -1.34904174
C      -0.09387753      4.07019172      1.44531081
C       2.33341220      1.77206012     -0.06304375
N       0.09200986      5.28675064      2.01778918
N       0.34390141      2.92973976      2.08664210
N       1.43605439      1.18438256      0.80371174
N       1.68910384      2.59933370     -0.98864350
N       0.51951680     -2.19835297     -0.85312290
C       1.88952186      0.27802397      1.83539609
C      -0.55690954      0.63636293      1.89907865
C       0.05936445      1.08432542     -2.14336139
C       0.58722448     -0.32276241      2.36820727
C       0.20031167      1.80488644      1.17331750
C      -0.52706765      2.48223865     -0.03104490
C       0.30273235      2.36728467     -1.32272037
S      -0.59072235     -2.60620605      2.44803593
S       1.82195144     -3.24967606     -0.48571573
H       4.13602671      1.96365066     -0.67368869
H       2.67815262      3.92355789     -1.97492095
H      -1.03949535     -0.07821486      0.14230387
H      -2.02605204      1.56729560      2.73451061
H      -2.04626758     -1.65777848      1.31492088
H       0.66563886     -4.32970646      0.98452267
H      -0.44517625      6.02985753      1.60233180
H       0.17764997      5.31335270      3.02038502
H       1.09739356      2.94413014      2.75241625
H      -0.39833310     -2.34884399     -0.46838307
H       2.52045824     -0.49616660      1.39184401
H       2.44954333      0.79493437      2.62258789
H      -0.85282205      1.20176621     -2.73335541
H       0.91932394      0.93613986     -2.80456229
H       0.53727749     -0.41293479      3.45547799
H      -1.52047899      2.05448023     -0.20407968
H       0.00451789      3.20631363     -1.96350959
