26
charge=0
O      -2.60581867      0.85040917      1.60920074
C       0.05120688     -0.85091423     -1.46480764
C       2.99415815      0.62905890      1.34521755
C      -0.78268905      0.33011041     -1.54302072
C       2.78732812      1.76425253      0.47050458
C       0.77503600     -1.10090887     -0.37597715
C       2.02804656     -0.26550166      1.54546269
C      -0.66976599      1.30558582     -0.64417097
C       1.57014919      2.05664689      0.01816427
S      -1.40082428      0.72236790      2.42830445
C      -0.44538415     -0.70210614      1.72160848
C      -0.17293709      1.90468721      1.73092792
C       0.70627867     -0.19386707      0.83180242
C       0.36189658      1.26047817      0.44818610
H       0.06414599     -1.52326667     -2.30970287
H       3.95764260      0.52305769      1.82122141
H      -1.49301285      0.39915066     -2.35252459
H       3.64520152      2.36019785      0.19762893
H       1.38811225     -1.98438623     -0.28208750
H       2.19150513     -1.13685264      2.16365361
H      -1.26613952      2.20291270     -0.70679948
H       1.38493352      2.90653442     -0.62087839
H      -0.08577441     -1.30530339      2.55329924
H      -1.17392065     -1.27382730      1.14879991
H      -0.66816988      2.85657215      1.55385644
H       0.61740292      2.02351867      2.47073783
