30
charge=0
Cl      0.33118786      2.11301770      2.80284692
N      -0.19517328      0.73869940      0.37934931
P       1.19769720      1.31889727      1.14852685
C      -0.84678957      2.91523190     -0.46390163
C       0.18375501      1.23377060     -2.00967139
C      -2.11328378      0.84272846     -1.07399139
C       0.77543463     -1.12222631      2.62390156
C       2.95761908      0.07372297      2.84955769
C       2.42749446     -1.11982857      0.72763184
C      -0.72768302      1.43037037     -0.79398873
C       1.83668749     -0.31335545      1.88458090
H      -0.21102195     -0.26466110      0.24578448
H       0.13794252      3.32783087     -0.24568417
H      -1.47880632      3.05282270      0.40982206
H      -1.27525355      3.45866737     -1.30178765
H       1.17504203      1.62766878     -1.79140995
H      -0.21631133      1.75251750     -2.87687435
H       0.27676638      0.17619779     -2.25179861
H      -2.58479075      1.36574351     -1.90142908
H      -2.03909420     -0.21246704     -1.33158223
H      -2.74289533      0.94068220     -0.19320489
H       1.23716064     -2.00159165      3.07217798
H      -0.01787959     -1.46348800      1.96130497
H       0.32610394     -0.53126205      3.41891146
H       3.44228794     -0.81698312      3.24736158
H       3.70851339      0.67560552      2.33921094
H       2.56522083      0.65204972      3.68373821
H       2.92460541     -2.01147001      1.10758903
H       3.16053076     -0.52409074      0.18513291
H       1.66024936     -1.43948436      0.02321159
