34
charge=0
N      -1.33883149      0.99092450      2.69916964
N       1.66558433      0.91211898     -2.40086339
C       0.50603173     -1.05323768      3.62565194
C      -0.59491179      1.49658815     -1.55706728
C       1.38780080      2.98995517     -1.23905941
C       1.32191516     -1.36202298      1.27501807
C       1.21489119     -0.73195029     -0.10960116
C       0.59065452      1.28391434      1.25962843
C      -0.51096232      0.32287288      1.70787945
C       0.10308347     -1.03283087      2.15098896
C       1.33095241      0.79608722      0.00059251
C       0.92023485      1.53165225     -1.30332154
H      -2.07141828      0.36993573      3.02536826
H      -0.78047307      1.26320672      3.50091459
H       1.29675060     -0.00975563     -2.60427822
H       1.56443469      1.47115536     -3.24148727
H      -0.36013266     -0.96120591      4.27872607
H       1.19976746     -0.24451147      3.84923815
H       0.99887177     -1.99530766      3.85681613
H      -0.95149646      0.47237754     -1.64751181
H      -1.14135087      1.98533222     -0.75645366
H      -0.82123465      2.01362617     -2.48929717
H       2.47141041      3.02135944     -1.16286281
H       1.09214871      3.51837695     -2.14353205
H       0.95943166      3.50889311     -0.38757892
H       1.42431149     -2.44562710      1.18548325
H       2.22841155     -0.98775675      1.75543277
H       2.01954633     -1.10772443     -0.74222849
H       0.26593398     -1.02470362     -0.56134857
H       0.13711961      2.26035359      1.09955575
H       1.30224725      1.39567139      2.08010706
H      -1.17376018      0.13098170      0.85776291
H      -0.66020340     -1.80681976      2.00330267
H       2.39526693      1.02009526      0.12688207
