23
charge=0
Cl     -1.35641079      3.23405707      2.29202571
Cl      3.18657836      3.01552774      1.68358388
Br      3.52302778     -1.09791642     -0.99466792
O       0.76199691     -0.51726341      0.33284240
N       0.08370853      0.73997353      0.41439248
C      -1.91412085      1.79069680      1.39815512
C       1.94887312      1.73996636      1.77041410
C       1.82582327     -2.03875765     -1.12688565
C       0.67675046     -1.06309679     -0.96702457
C      -0.91491063      0.64494721      1.46798986
C       1.06447640      1.80533607      0.52627092
H      -2.85637406      1.49834435      1.85944977
H      -2.07993600      2.09223182      0.36471214
H       1.37970588      1.91760326      2.68216363
H       2.46821060      0.78296604      1.82362979
H       1.80150489     -2.52634915     -2.09921183
H       1.81851131     -2.77540911     -0.32571721
H       0.73619309     -0.26228737     -1.71326970
H      -0.27613451     -1.59746408     -1.10333985
H      -1.45612419     -0.28712219      1.27827364
H      -0.47636395      0.58029701      2.47215445
H       1.70125411      1.74267537     -0.36088974
H       0.52483591      2.75211943      0.49602443
