45
charge=0
O       1.08836850      0.11254190      3.25016809
O       0.67641583     -0.11324454      0.19968205
O      -2.72394422      0.88545234     -0.52451920
O       3.60771635     -0.24388091      0.83477532
S       0.61183384      2.39910781      1.15889733
C       1.78032020      0.08450293      2.27412258
C      -0.55739837      0.42400979      0.02038642
C      -0.79399499      1.66719781      0.41727631
C       4.02959801     -0.50118530      3.22441731
C       2.67504561     -2.18465279      1.91798463
C      -1.53616673     -0.55829858     -2.07187216
C      -2.27500894     -1.39261184      0.19274966
C      -2.99780396      2.35816568      1.38930157
C      -2.27242025      3.24641646     -0.85604615
C       2.90560648      0.81781963     -1.19336479
C       3.59859868      2.18000685      0.80806419
C       1.49813577      0.78506218      0.93620132
C       3.05580566     -0.70419653      2.06136948
C      -1.77329262     -0.18595185     -0.60571439
C      -2.20177159      2.06603389      0.11532402
C       2.91223201      0.89643961      0.32885467
H       4.90245553     -1.13162876      3.08003027
H       3.53772023     -0.76393584      4.15692238
H       4.35233023      0.53551612      3.27282230
H       2.22330059     -2.54206581      2.83902698
H       1.97011872     -2.30408296      1.09852434
H       3.56978367     -2.76075827      1.69853498
H      -1.19820609      0.31303702     -2.62736142
H      -0.78259260     -1.33822962     -2.13734151
H      -2.46552927     -0.91174509     -2.50908192
H      -2.42628399     -1.11473786      1.23290449
H      -3.22132245     -1.72983164     -0.22051947
H      -1.54716734     -2.19781945      0.14191658
H      -2.59992768      3.24365109      1.87738527
H      -4.04123912      2.51955253      1.13447468
H      -2.92978320      1.51582657      2.07306691
H      -3.30861737      3.43466268     -1.12121062
H      -1.71608234      3.01800093     -1.76175214
H      -1.84843657      4.13218631     -0.39096940
H       3.92767763      0.86287185     -1.55664496
H       2.45984431     -0.11984260     -1.51305185
H       2.33638062      1.64787188     -1.60390206
H       3.18528567      3.04652048      0.30015917
H       3.46437827      2.31034778      1.88030142
H       4.66101260      2.10887236      0.59068201
