12
charge=0
O      -1.44330217     -2.37360212      0.61712901
O       3.79060317      1.08386974      0.69498448
S       0.42514715     -0.14961506      1.47729973
S       1.18909219      0.01052935     -0.40411154
S      -3.92738469     -1.52826150      0.71289768
S       4.05078534      3.59562349     -0.06042994
S      -1.59036045      0.16997690      1.33742074
S       1.70875657      1.97817095     -0.67749056
C      -2.17593838     -1.46827820      0.83901277
C       3.31121409      2.00767401      0.11849109
H      -4.14027408     -0.25870700      1.06933104
H       5.15178757      3.28274566      0.62559213
