20
charge=0
C      -1.02914467     -0.12707333     -1.45368293
C      -1.41970686     -0.51747275      0.95113201
C      -0.59477498      1.67445633      0.17535880
C       0.17351796     -0.65263309     -1.66011829
C      -0.31481727     -1.14091163      1.34576675
C       0.71639056      1.59900376      0.37633465
C      -1.47447593      0.49881163     -0.15860455
C       1.26909842     -0.72210145     -0.69067887
C       1.02846678     -0.96282178      0.79020150
C       1.53657187      0.38738800      0.31268699
H      -1.75304342     -0.13883619     -2.25683879
H      -2.35456229     -0.73994600      1.44690414
H      -1.08392071      2.63576302      0.25179991
H       0.39811393     -1.08023531     -2.62963689
H      -0.37935364     -1.85728551      2.15564355
H       1.26236392      2.50428353      0.61218001
H      -2.50398749      0.84688616     -0.26938249
H       2.16009680     -1.19692776     -1.08548466
H       1.77694752     -1.58039615      1.27352646
H       2.58621947      0.57004863      0.51289269
