22
charge=0
C       0.54120391     -0.49284641     -1.53343377
C      -1.83596967      1.31985641      0.58278699
C      -1.82461623      0.05892623      1.20773877
C       2.87860597      1.36466902      0.58774393
C       2.88994778      0.10367793      1.21255180
C       1.77461788      2.09603648      0.19844421
C       1.79946028     -0.66492585      1.56658572
C      -0.74525195      2.07205336      0.19577485
C      -0.72041920     -0.68873740      1.56406590
C       0.53427929      0.09108219     -0.35493742
C       0.52035434      1.51071434     -0.00952132
C       0.53836233     -0.49396170      0.98398454
H       0.53677478      0.08083247     -2.44480412
H       0.55154417     -1.56544783     -1.62903903
H      -2.79088678      1.83092640      0.60532475
H      -2.77222263     -0.24634380      1.63485018
H       3.82358062      1.89381014      0.61225842
H       3.84227062     -0.18371884      1.64158032
H       1.86616292      3.17229662      0.13119328
H       1.90711438     -1.36888613      2.38149705
H      -0.85698438      3.14639568      0.12833137
H      -0.81603020     -1.39451095      2.37892249
