38
charge=0
C      -0.34999229     -1.68868326     -0.14455202
C       0.95103771     -1.44583950     -0.01222463
N      -1.15042824     -0.54534128     -0.12957186
N       1.27099248     -0.09338749      0.11685731
C      -2.77390147     -1.14584751     -1.84817495
C      -3.22285441     -1.64462779      0.57935229
C      -3.23683590      0.69908254     -0.23865966
C       3.41963621     -0.40517467      1.25362682
C       3.30223607     -0.01099209     -1.23113420
C       2.75380481      1.81722494      0.37063044
C      -2.56710882     -0.66335158     -0.40456590
C       2.66084598      0.31252425      0.12661785
C      -0.52523020      2.03478701      1.43028206
Si     -0.15899198      0.86742020     -0.02853083
H      -0.79186499     -2.66166814     -0.23727320
H       1.72026982     -2.19277399      0.01821688
H      -3.83379277     -1.24415869     -2.06997518
H      -2.29527448     -2.10917078     -2.00321430
H      -2.33256988     -0.43063506     -2.53830110
H      -4.30350686     -1.62576155      0.46083176
H      -2.97667474     -1.36034437      1.59974730
H      -2.88139020     -2.66237253      0.41399976
H      -4.29227429      0.62638981     -0.49081414
H      -2.77410062      1.43383286     -0.89029074
H      -3.14877982      1.03720918      0.78899080
H       3.50296371     -1.47103187      1.06192771
H       4.42337857      0.00242955      1.34625573
H       2.89549097     -0.26478244      2.19606454
H       3.23928437     -1.07537619     -1.44148453
H       4.34872347      0.28402221     -1.23924770
H       2.77734042      0.52410733     -2.01899320
H       2.19525109      2.36165564     -0.38449179
H       2.35283972      2.06362633      1.34872598
H       3.79300442      2.13555120      0.33138748
H      -1.49137874      2.51252195      1.31186354
H       0.20996733      2.82989006      1.48499435
H      -0.52578620      1.51674535      2.38547655
H      -0.18432993      1.68230007     -1.27434920
