27
charge=0
C       0.54137801      0.52314363      0.53591298
C       1.51370609      0.59418926     -0.32082552
C      -0.43011178      0.45238196      1.39362265
C       2.62454524     -0.35448401     -0.55864897
C       1.80686568      1.64509569     -1.32108013
C      -0.49131409      0.95620809      2.78403521
C      -1.77176999     -0.15391233      1.24255933
C       3.01128231     -0.32057132     -2.01869944
C       3.84910956      0.40738872     -1.00879733
C       2.46318017      1.01976007     -2.52980433
C       3.30104023      1.74747383     -1.51997769
C      -1.37408754      0.04937456      3.60917618
C      -1.91023465      1.35933829      3.11097524
C      -2.23241263     -0.69474381      2.57597630
C      -2.76845742      0.61523164      2.07784478
H       2.71879071     -1.26084411      0.01663185
H       1.17550689      2.51246570     -1.42262723
H       0.34493155      1.46848629      3.23073947
H      -2.07145148     -0.62689112      0.32180340
H       3.22898483     -1.18583010     -2.61840214
H       4.85038226      0.22291068     -0.66358947
H       2.22855326      1.25989378     -3.55108786
H       3.84998812      2.66867001     -1.59629373
H      -1.15254336     -0.28469216      4.60669850
H      -2.18955843      2.25102460      3.64259174
H      -2.71852247     -1.64250641      2.72148696
H      -3.75625281      0.89264143      1.75684021
