43
charge=0
F      -1.26487643     -0.87129212      6.08961347
F      -3.25428341     -0.65530449      6.87238531
F      -2.03486520      1.08523055      6.55298797
F       2.52129207     -2.35186770     -0.27175577
F       3.69527394     -0.68992109      0.41237094
F      -4.16790662      0.48981720      4.67620956
F      -2.99479817     -1.23425951      4.09592286
F       5.50171938     -1.75586381     -0.90257813
F       4.13778539     -2.93365585     -2.09505919
F      -0.74901301      0.70793748      3.95138816
F      -2.30881958      2.20268145      4.04231776
F      -1.72205525     -0.44107678      1.81829083
F      -3.64236869      0.53766722      1.98283503
F      -2.71612423      2.89214310      1.43107356
F      -0.66013330      2.35673885      1.79005388
F      -2.55900794      0.53814242     -0.49989445
F      -2.05906024      2.57911160     -0.93539699
F       0.35628287      0.46784195      0.43341113
F      -0.37054650      0.12350575     -1.56774645
F       5.80619729     -0.69978109     -3.22900205
F       3.76860747     -1.09996413     -3.82490902
F       0.41840705      3.32990538     -0.41997243
F       0.21318508      2.51749313     -2.40660830
F       4.85627139      1.08453624     -1.28320964
F       4.33101910      1.61146917     -3.31298807
F       2.75344015      3.04248004     -1.68656434
F       2.58735109      1.84041370      0.09607491
F       1.91301454      0.66006339     -3.14123977
O       2.24508925     -0.46216321     -1.27355334
C      -2.35073466     -0.11040439      6.07149169
C       3.18434773     -1.27931629     -0.67839538
C      -2.92099433     -0.00117843      4.61926469
C       4.36859984     -1.70470306     -1.61586733
C      -2.05096584      0.92856986      3.71454079
C      -2.32859679      0.69544609      2.19244059
C      -1.82978111      1.89554009      1.31908400
C      -1.69698109      1.51931683     -0.20075039
C      -0.25276729      1.05369622     -0.61214857
C       4.53998895     -0.70486864     -2.79946885
C       0.61855966      2.22891049     -1.16384449
C       4.11424628      0.71953245     -2.34312301
C       2.15999996      1.95697008     -1.16891763
C       2.59862233      0.68507987     -1.97414438
