18
charge=0
N      -1.29510806     -0.27198595     -0.72823582
O      -1.90374464      2.66549305      1.00232508
O      -2.05846265      0.79885037     -0.34161992
C      -0.14762498     -0.14870570     -0.11935631
C      -1.34300635      1.56107206      0.50724275
C      -0.10506090      1.01347376      0.69231876
N       1.94982033     -0.78517379      0.82801807
C       1.01882618     -1.06101809     -0.25339940
C       1.08589062      1.38885167      1.50024791
C       2.28919044      0.62445620      0.93582969
H      -2.80209718      2.74645761      0.65579355
H       2.78610589     -1.34597409      0.71002498
H       1.46135027     -0.90403403     -1.25546093
H       0.69460888     -2.10216655     -0.19051037
H       1.25697419      2.46571972      1.46754672
H       0.92854414      1.09627244      2.54104173
H       3.13907108      0.72374065      1.61327086
H       2.56991301      1.05985993     -0.03988778
