13
charge=0
O      -2.01772253      1.37617390     -0.38566247
O      -1.94125537     -0.84866668      0.71677142
C       0.45642693      0.21807216     -0.09561148
C       0.22133665      0.80140159      1.09799340
C       1.57252350     -0.17759217     -0.96879360
C       0.94132533      1.38988085      2.23817640
S      -1.26100161      0.33975276      0.26915128
H       2.52958373      0.07955258     -0.51695736
H       1.48664878      0.32396243     -1.93265192
H       1.54046411     -1.25220082     -1.14860172
H       0.64740972      2.43177862      2.36526437
H       2.01861223      1.33965711      2.08614540
H       0.68495216      0.85753134      3.15408031
