15
charge=0
N       3.14443408      3.72210802      3.69045992
N       0.17040138     -2.92107637      0.47736261
O      -1.80696655     -1.31281115     -2.39326074
C       2.62784549      2.89783457      3.09164239
C      -0.10974110     -1.93063074     -0.02217451
N       2.06430606      0.60936805      2.60753185
N       1.20123297      2.15257084      1.25267353
N      -0.55067455      1.49267676     -1.03718656
O       1.32026125      0.00087222      1.67527008
O      -1.27008044      0.86292100     -1.93317204
C       1.97997686      1.89050643      2.33762897
C       0.82140109      0.96648284      0.88324034
C      -0.02877130      0.61965670     -0.22431981
C      -0.43304775     -0.69911375     -0.60974697
N      -1.21272751     -0.56221453     -1.68129725
