10
charge=0
S       2.00476062     -0.44322967     -1.27447692
S      -0.60325897      1.74686324     -1.55689265
S      -1.20738828     -1.60999051     -1.33758261
S       1.20791646      1.60859116      1.33868694
S       0.60418600     -1.74645695      1.55693306
S      -2.00518202      0.44359608      1.27378913
P       1.38158967      1.54324577     -0.79195604
P       0.74221914     -2.01367054     -0.55910976
P      -2.02210023      0.30762968     -0.85872993
P      -0.10274256      0.16342177      2.20933892
