28
charge=0
B      -0.93576354     -0.18905200     -0.25119596
B       1.16573615      1.15740991      0.25270621
N       0.19609553      0.67503362     -0.62751437
N      -0.70613744     -1.46942391      0.24442354
C      -2.42270365      0.35492610     -0.47468375
C       2.34668116      2.08687496     -0.28110580
C       1.09114757      0.84689333      1.81335046
C       0.20164525      1.09668913     -2.02424197
C      -1.74129413     -2.37238706      0.69517381
C       0.60172504     -2.07305758      0.37267624
H      -2.42853157      1.35427156     -0.90217878
H      -3.00735351     -0.28503195     -1.13415972
H      -2.96237433      0.41478384      0.46916380
H       2.88305331      1.63162440     -1.11311551
H       3.07764953      2.31713507      0.49037345
H       1.96155814      3.03744880     -0.65008296
H       0.19623816      0.30551746      2.10697407
H       1.11167805      1.77645576      2.38101343
H       1.95374955      0.27118143      2.14675907
H       1.08649499      0.70739512     -2.53484125
H      -0.68009576      0.71915609     -2.53885399
H       0.21682525      2.18532290     -2.10943057
H      -1.73612371     -3.28982150      0.09705713
H      -2.71738146     -1.90680406      0.61189621
H      -1.57313921     -2.65095127      1.74073478
H       1.35523996     -1.40481756     -0.03190828
H       0.83623745     -2.27371437      1.42235193
H       0.62914308     -3.02305811     -0.17134140
