42
charge=0
C      -0.33149004      0.88872325      0.72100093
C       0.28144788     -0.25016606      0.36298884
C      -1.17428369      2.55757232     -1.91208378
C      -3.36805658      1.43705934      0.05470569
C      -1.44734248      3.67218958      0.91803285
C       0.54111407     -2.97011778     -1.22201877
C       1.19418446     -0.29113820     -2.59740432
C      -1.75666188     -1.18604828     -1.94369458
C       3.25887429     -1.13088939      0.74239068
C       0.99067147     -2.67703936      2.27471410
C       1.79109164      0.16517716      3.10264563
Si     -1.56963046      2.06248251     -0.11059396
Si      0.04683382     -1.12627582     -1.31714442
Si      1.55524489     -0.98384806      1.59355773
H      -0.07754886      1.27559592      1.70507977
H      -0.17693195      2.98129472     -1.98422660
H      -1.87337200      3.31292668     -2.26096761
H      -1.22567188      1.72151531     -2.59936746
H      -4.07162522      2.17743726     -0.31577463
H      -3.61328783      1.24572637      1.09519271
H      -3.53809281      0.51818539     -0.49377882
H      -0.44084817      4.07977264      0.89865219
H      -1.70782186      3.49767190      1.95770891
H      -2.11599717      4.44055033      0.54128330
H       1.56280905     -3.10893293     -0.88847935
H      -0.10546792     -3.51922572     -0.54557847
H       0.45451912     -3.43490500     -2.20025015
H       1.02383528     -0.68103392     -3.59669913
H       1.04335053      0.78189089     -2.62982497
H       2.23679705     -0.46540592     -2.35075780
H      -2.13035446     -0.21639598     -2.24667609
H      -1.83539963     -1.84946759     -2.80060091
H      -2.41862039     -1.57076168     -1.17419512
H       4.00535095     -1.52136260      1.42762847
H       3.22648772     -1.79123025     -0.11692905
H       3.60596058     -0.16218725      0.39633011
H       1.15369409     -3.47553942      1.56065210
H       1.53698024     -2.93080418      3.17848237
H      -0.06618913     -2.66785363      2.52273508
H       0.88043766      0.25313538      3.68686669
H       2.56169748     -0.22215412      3.76272152
H       2.09331246      1.16387654      2.80367522
