11
charge=0
C       1.23260994     -0.25354304     -0.74176177
C       0.07764485     -0.13981054     -0.10200455
P      -0.38345428     -1.24724673      1.28459694
C      -0.99502606      0.82542204     -0.50312990
H       1.47209667      0.36846002     -1.58984258
H       1.98164530     -0.97132096     -0.45006744
H       0.92054789     -1.55628733      1.66233010
H      -0.48347168     -0.22509469      2.23085860
H      -1.20887416      1.51446406      0.31469740
H      -1.91577017      0.28611532     -0.72740542
H      -0.69794814      1.39884193     -1.37827148
