37
charge=0
Cl      1.83253361      4.60525499     -1.46100967
Cl      3.63148469     -1.21875018      2.91410739
O      -1.67406689     -0.66336966     -3.16083879
O       0.10806216     -0.99671352     -0.00584626
O      -0.40011463      2.77134146     -0.42544287
O       0.65039225     -1.56597054      3.47588522
O       1.21131194      0.26964397      2.18247000
C       1.85487263      2.82473442     -1.29302532
C       2.37075119     -1.70936610      1.77134881
C      -0.72507078     -0.39637118     -2.16066756
C      -0.93541867     -1.26749029     -0.91708825
C       0.05740787      1.08349182      2.35118248
C      -0.07688820     -1.60620351      1.24431444
C       0.49593630      2.54540237      2.35770069
C       1.43738919      2.87952004      1.19762646
C       0.92550694      2.38038124     -0.16072733
C       1.02338655     -1.11447917      2.20725478
H      -2.54571282     -0.39957810     -2.84525346
H      -0.40577641      3.73402704     -0.52103128
H       1.37115954     -1.35925435      4.09056373
H       2.88442607      2.53111899     -1.09789318
H       1.51850579      2.42117232     -2.24770676
H       2.32838138     -2.79724523      1.77609493
H       2.63393361     -1.32745760      0.78724427
H       0.24915442     -0.62490223     -2.59729429
H      -0.74381817      0.65897856     -1.86269208
H      -0.93499397     -2.33129890     -1.19725909
H      -1.90956830     -1.03372868     -0.45763628
H      -0.44605477      0.82855750      3.29280746
H      -0.63765527      0.92517191      1.52107725
H      -1.05443924     -1.35090956      1.67573396
H      -0.01720308     -2.70106759      1.17125555
H       1.00991379      2.77240301      3.29231164
H      -0.40507132      3.15757738      2.30006323
H       2.40224272      2.40808430      1.38123879
H       1.57860845      3.96196408      1.16022640
H       0.91604871      1.28488739     -0.15953881
