27
charge=0
Cl      3.90156795     -2.34702625      2.49538583
Cl      0.96685159     -1.53502263      4.19550888
Cl      3.31467408      1.74121518      3.17933424
Cl      2.22631036      2.54212540      0.66320956
Cl      4.57750800      0.08920056      0.42514541
Cl     -0.04640135      1.32121969      3.21052448
Br     -2.09975178      4.43621110     -0.17787672
Br     -3.58403270      2.86667906     -2.67480170
Br     -2.87486588     -0.28150003     -3.23270846
Br     -0.74623275     -1.84307369     -1.37296667
C       2.83027467     -1.06803969      2.23773048
C       1.70685651     -0.74942355      2.89409446
C      -0.78142620      1.96962078      0.25866501
C      -1.70607876      2.62670698     -0.53786751
C      -2.33592922      1.97152828     -1.58970559
C      -2.02722217      0.63296791     -1.82202922
C      -1.10039149     -0.01983100     -1.01367569
C      -0.45279760      0.64138663      0.03683065
C       1.86936489     -0.40227355      0.07477329
C       2.38459371      1.18992277      1.77808399
C       2.96964050     -0.07081362      1.10311551
C       1.08521476      0.45436615      2.18869929
C       0.54837482     -0.13775415      0.85210065
H      -0.32769650      2.52167703      1.06160049
H       1.96057127      0.26079691     -0.78499350
H       1.95887917     -1.43233804     -0.26250365
H       0.06992903     -1.09074367      1.10211202
