22
charge=0
O      -2.75867632      1.97655482     -0.92250368
O      -1.76578007      0.97256202      0.79989053
O      -1.00718252     -1.23196565      1.45389748
O       0.42499142      0.69987407      1.83392604
B      -0.67287836      0.10210453      1.17800549
C      -1.91370694      1.26232040     -0.46348726
N       0.09816087     -0.11238975     -0.48978428
C      -0.84123957      0.57365560     -1.35543965
C      -0.04121368     -2.07351760      0.88385628
C       1.17733295      1.47045514      0.94093366
C       0.15618994     -1.57132737     -0.56841514
C       1.37598841      0.57163647     -0.30072966
H      -0.35903427      1.33798095     -1.96895162
H      -1.36280915     -0.11689375     -2.02070457
H       0.90413778     -2.00680255      1.43814048
H      -0.41390031     -3.09838990      0.91637592
H       0.64240437      2.38931646      0.66288205
H       2.12351445      1.73144720      1.41809372
H       1.09512891     -1.92133013     -1.00126007
H      -0.67578669     -1.92889185     -1.17597374
H       1.67026767      1.14300789     -1.18320149
H       2.14409123     -0.16940681     -0.07555059
