35
charge=0
N       2.96601275     -2.64856385      1.12193309
O      -2.73211461      0.48329217     -0.50337194
O      -1.73867803      1.79649478      1.02699728
O       1.45621168      3.51142914      0.98006674
O      -0.25866086      0.59295825      3.31440286
O       2.93152594      0.24283774     -1.82284910
O      -1.54750831     -0.99028899      1.51896191
O      -0.78093029      1.45209617     -1.05215680
C       2.16470497     -1.73280416      0.76560065
N       1.96491501     -1.50952634     -0.58177541
N       1.35853447     -0.97818342      1.58576824
C      -0.52697445      2.28951162      1.57448856
C      -1.52928406      0.86298841     -0.00116143
C       0.25958985      2.99890933      0.46023182
C       0.32470943      1.16031868      2.18178452
C       1.78083593     -0.19587640     -1.15112564
C      -0.77442144     -0.37402586      0.52244939
C       0.48220328      1.93176123     -0.63211550
C       0.58770635      0.12367824      1.06537221
C       1.35712528      0.80932961     -0.06711081
H       2.98685337     -2.82428172      2.12008701
H      -3.24522643      1.27344080     -0.71896311
H       1.88324853      4.05643326      0.30890131
H      -1.11968742      0.22565668      3.04941452
H       3.68577759      0.21588593     -1.21899200
H      -1.11235791     -1.81799421      1.75974766
H       2.52641783     -2.12664427     -1.15305466
H       1.50031567     -1.01152924      2.58359403
H      -0.82227317      2.98990174      2.35989166
H      -0.37531396      3.79670019      0.04742834
H       1.27413471      1.59602473      2.51338598
H       1.01228840     -0.24756322     -1.93547281
H      -0.62315648     -1.05081539     -0.32715219
H       0.94215091      2.35784177     -1.53017859
H       2.26252776      1.26180869      0.35617466
