12
charge=0
O       2.48057249     -1.12040459      0.31487835
F       1.37181400     -0.44759934      2.94829334
F      -0.65850666      1.62431200      2.54751790
F       1.31238263      0.66635723     -1.64661455
F      -0.26101128     -0.68449765     -1.01287213
F      -1.40954749      1.48517266     -0.21369587
F       0.45551674      2.57233783     -0.10075374
C       1.54503710     -0.41418943      0.51204654
C       0.96947542      0.05057472      1.79601884
C       0.03919016      1.00367324      1.62224910
C       0.63126778      0.23374564     -0.57918357
C      -0.12606428      1.38064415      0.16224266
