50
charge=0
O       2.28113115      4.35075026      5.16153780
N       1.54855499      1.48568217     -3.00212146
N       0.80873423      0.26424630      1.70047116
N       0.03680198     -0.49623142     -0.41816076
N       2.36573435      2.26057532     -0.92426948
O      -2.05548516      0.99532715     -5.38603303
S      -0.16720287     -0.51758364     -3.31674981
C       2.29006010      2.27931500     -2.22617884
C       0.08350713     -0.54797733      0.90877368
C       0.81723159      0.58173849     -2.39737735
C       1.57746144      1.20002231      1.16437931
C       0.79687589      0.44199633     -0.98118540
C       1.61927396      1.34621199     -0.27012042
N      -2.72785250     -2.98557470      2.86000381
N      -0.64700535     -1.48440374      1.53166940
N       2.27858102      1.95476118      2.03024699
S       3.42467284      3.97450459      4.33183607
C      -0.68663725      1.29724628     -5.34636094
C       0.17477258      0.08465112     -5.01024855
C      -2.88713724     -2.40774410      1.52579295
C      -1.38201526     -2.85189775      3.39020024
C      -1.54703249     -2.34840967      0.80083514
C      -0.69668704     -1.54738355      2.97664806
C       2.13218162      1.68749883      3.45006255
C       3.11266249      3.07661923      1.66353582
C       3.35537490      2.11851424      4.22537970
C       2.85876784      4.26032295      2.57587317
H      -2.29652424      0.58039172     -4.54732864
H       2.88959441      3.01671327     -2.74297940
H      -3.40513936     -2.57310811      3.49065138
H      -0.42873942      1.65767404     -6.34576493
H      -0.47881754      2.09822031     -4.62262067
H      -0.05775187     -0.74910204     -5.67058777
H       1.23189580      0.33634516     -5.05647386
H      -3.30339421     -1.39026620      1.56254604
H      -3.58363336     -3.03693708      0.96224364
H      -1.41927186     -2.92108650      4.47815121
H      -0.78621336     -3.69455816      3.02323131
H      -1.66016237     -1.93725436     -0.20285366
H      -1.12396308     -3.35549138      0.71805362
H       0.32140085     -1.50147905      3.37212503
H      -1.24806622     -0.68345334      3.37265454
H       1.94448832      0.61624682      3.56265133
H       1.25722295      2.21797363      3.85046665
H       4.17262466      2.79283976      1.71063512
H       2.89312055      3.33721808      0.62499180
H       4.28304708      1.76582256      3.78201750
H       3.29159279      1.77428315      5.25601247
H       3.40152174      5.13422414      2.22018364
H       1.79870257      4.50086738      2.64241374
