18
charge=0
Cl     -1.99218897     -1.46745671     -1.65342536
Cl      0.27103645      0.15636555     -3.06148798
Cl     -1.72339349     -1.91679499      1.49671436
Cl      2.26210746      1.85919456     -1.34777113
Cl     -0.21091831      2.39762696      2.85336835
C      -0.78274825     -0.68382877     -0.70981037
C       0.19921164      0.16050880     -1.34858401
C      -0.68484020     -0.86823649      0.62860869
C       1.06187563      0.88890350     -0.61246651
N       0.16091640      2.16251650      1.16201046
N       0.29998518     -0.26272436      1.34935315
C       2.29829356      1.07919768      1.58754219
C       0.94410558      0.96141891      0.89655884
H      -0.72975280      2.12832385      0.67281978
H       0.28457682     -0.40107448      2.34980212
H       2.75810680      2.02530275      1.32154965
H       2.94024744      0.26143464      1.27506419
H       2.16856883      1.04451188      2.66534367
