25
charge=0
N      -1.09199090     -0.95044166      0.32060936
N       0.84284804      1.88316584      1.76063912
N      -0.22883449     -0.11930702     -1.63080114
C      -1.08825618     -0.89436344     -1.06750816
C       0.24865877      0.68229714      1.86594447
C       0.47415072      0.47688440     -0.60402350
C      -0.04832593      0.13593923      3.10089529
C      -0.18531451     -1.24744836      3.25159061
C       0.02231199     -2.11984686      2.21551267
C       1.35459776      2.29988658      0.62479077
C       1.18572720      1.63888666     -0.63919303
C       0.07444256     -1.67065229      0.86477920
N       2.05896649      3.46493796      0.68177958
C       1.58290814      2.28203059     -1.93052702
C       0.06110813     -0.12528298      0.66871840
H      -1.81535949     -1.45992521     -1.62200911
H       0.03355449      0.76434868      3.97274435
H      -0.28846106     -1.64203882      4.25209166
H       0.22233008     -3.16266064      2.40600243
H       0.59641501     -2.29185044      0.14006001
H       1.96256301      3.98739450      1.53627071
H       2.21514191      3.98171467     -0.16526799
H       1.24503731      1.65717536     -2.75242629
H       1.12904223      3.26849396     -2.03401105
H       2.66616884      2.39009238     -1.98723057
