38
charge=0
Cl     -3.65708581     -2.14339091      2.99692535
O       2.11948203      3.99853847     -2.33133064
O       0.57090343      1.26835512     -2.75693509
O       0.66457442      0.56692662      0.01242396
C       1.09201596      3.98280345     -1.36433495
C       1.88947441      3.15105702     -3.42503205
C       1.89265287      1.66002373     -3.06540770
C       0.42451794     -0.07395971     -2.37237486
C       0.98127992     -0.38933919     -0.96925151
C      -0.70922562      0.80838142      0.25483786
C      -1.46687250     -0.38838000      0.83638859
C      -1.34512679     -3.92219473      1.69093723
C      -0.96158000     -2.81171418      4.59659426
C      -0.85063914     -0.85238993      2.15559403
Si     -1.64080593     -2.44319589      2.85750783
H       0.12634172      4.23399474     -1.81843076
H       1.00896113      3.00914535     -0.87439373
H       1.35827980      4.73903617     -0.62816904
H       2.70151105      3.36203318     -4.12415480
H       0.92566076      3.38392091     -3.90145785
H       2.26030764      1.06749711     -3.91764101
H       2.56554549      1.50373663     -2.21326730
H       0.91401954     -0.74525623     -3.09496409
H      -0.65234459     -0.25988630     -2.40010679
H       0.63720064     -1.39447474     -0.68564411
H       2.07432534     -0.39871549     -0.99022474
H      -1.20352297      1.16061142     -0.65926050
H      -0.70433646      1.62646797      0.98044170
H      -1.46822060     -1.20665651      0.11384030
H      -2.50387971     -0.08900295      0.99314615
H      -0.28548913     -4.08231679      1.51676720
H      -1.75080420     -4.83901821      2.10894080
H      -1.82038977     -3.76996773      0.72594667
H      -1.15804880     -1.99146650      5.28057714
H       0.11130510     -2.97310474      4.57605050
H      -1.42068909     -3.70225555      5.01517585
H       0.21820155     -1.00532792      2.00019102
H      -0.93749952     -0.04051463      2.88009597
