16
charge=0
O       4.01866712     -1.29359225      0.62000265
Br      0.78081073     -2.35264558     -0.04683755
N       1.94423456      1.39266904      0.61871534
O       3.16063940      0.81996240      0.70762996
C       3.07332803     -0.55941842      0.56951351
C       1.66503696     -0.77440256      0.37299098
N      -0.22471123      0.71743366      0.19498129
N       1.09224678      0.43656194      0.41439544
C      -0.43779464      2.11510131     -0.12072631
C      -1.10022471      0.23600898      1.25113503
H      -1.46904415      2.22282355     -0.44769301
H       0.22780695      2.40243286     -0.93122534
H      -0.25237391      2.77007346      0.73549369
H      -0.90288529     -0.81160322      1.46138005
H      -0.98519570      0.82041221      2.17108797
H      -2.12370538      0.32501816      0.89599168
