13
charge=0
O       2.47443123      2.20454231      0.66659984
O       0.26479966      2.07967573     -0.45252771
F       2.50152533      1.00281376     -2.26733979
F       1.07733003     -0.47604054     -1.59435936
F       3.07321599     -0.44786668     -0.77632591
N      -1.82766964      0.65145029      3.33478225
N      -1.11885113     -1.11448697      1.72803947
N       0.81881582      0.34782473      1.18567867
S      -1.67431542      1.64188636      2.08965423
S      -1.49679622     -0.86836062      3.24572115
S      -0.69535008      0.09862385      0.76870378
C       2.08233826      0.32522851     -1.20688836
S       1.39982976      1.43401305      0.15756571
