47
charge=0
O       1.80944987     -3.05311629      0.54426749
O       1.63329348      0.19629094      4.45316582
O       1.60374905      3.37850238     -0.67631958
O       1.64141749     -4.59551118      2.91211539
O      -2.15811843      0.70844343     -0.45773427
O       3.19603633      1.30726670     -0.33451350
S       4.70474272     -2.03557664      2.28900504
S       4.40697290     -0.00159636      2.35668393
C       2.21052571     -2.22179830      1.33163581
C       2.11087610     -0.49654019      3.59046620
C       1.05025531      2.34328442     -0.34618680
C      -0.85282797      0.81113488     -0.23417051
C      -0.33539320      2.03775192     -0.47486699
N       2.36946751     -1.82507612      3.71224752
N       2.08444511     -0.89150149      1.19023575
C      -3.51932000      1.80479054     -2.11361235
C      -1.10944111      3.39757737     -2.41757799
C      -1.59562410      4.17750174     -0.09583765
C       2.93415147     -4.07408981      2.90061043
C      -0.11033471     -0.37481189      0.26138301
C       2.92620941     -2.56490349      2.63792596
C       2.52636442     -0.00390253      2.21183476
C       2.03997359      1.37225922      1.79181309
C      -2.66700109      1.99911096     -0.87003366
C       1.92631745      1.22743034      0.25370261
C       1.40970380     -0.21366312      0.09538968
C      -1.43348383      2.94821867     -0.99149719
H       1.29313991     -4.53708781      2.00952132
H       3.31791902      2.23264304     -0.60995933
H       2.22047002     -2.27803841      4.60420276
H      -2.92967067      1.39955511     -2.93015887
H      -4.32094742      1.10603991     -1.88854711
H      -3.95388947      2.75172457     -2.41786670
H      -0.95658388      2.54578230     -3.07524471
H      -1.90301843      4.02154974     -2.81881787
H      -0.19004675      3.97644340     -2.39553169
H      -2.42081541      4.79312717     -0.44629955
H      -1.78774697      3.88568698      0.93482874
H      -0.68345910      4.76734038     -0.12199453
H       3.37138433     -4.26941603      3.88307642
H       3.56149023     -4.54886541      2.13532003
H      -0.45611081     -1.27535455     -0.24940988
H      -0.34834978     -0.50127821      1.32385618
H       1.07442293      1.58272654      2.25430931
H       2.74498582      2.15456622      2.06606477
H      -3.31318877      2.34220038     -0.05181221
H       1.74893708     -0.63549433     -0.85433998
