39
charge=0
N      -1.65507635     -0.53464628      3.57221316
N      -1.38554349      0.47433741      2.81423312
N      -0.90242255     -1.99760688      1.90118390
O      -2.08591510     -2.75007015      3.71908954
C      -1.55587070     -1.74971080      3.02889393
C      -0.90770828      0.33291937      1.58548521
C      -0.47901164     -0.96063803      1.18872742
C      -1.02273955      1.46371490     -0.62412342
C      -0.60050240      2.77268777      1.34439709
C       1.47107583     -0.32905579     -0.22607468
C       0.36504356     -2.42775887     -0.60324597
C      -0.96759605      2.60974099     -1.38968681
C      -0.54050455      3.91319028      0.56745204
C       2.34759427     -0.61732711     -1.25109084
C       1.24077628     -2.70120424     -1.63486283
C      -0.82819377      1.53159112      0.75515762
C       0.45918350     -1.23065389      0.10390421
C      -0.71821917      3.84978950     -0.80879313
C       2.24167304     -1.80004921     -1.97748186
C      -1.95969187     -4.03917621      3.14763656
C      -0.65396406      5.08028928     -1.66046420
C       3.20615640     -2.09843151     -3.08301204
H      -1.23081216      0.51234658     -1.09234111
H      -0.46820007      2.82332861      2.41390639
H       1.57994550      0.58711513      0.33490675
H      -0.41055937     -3.12989218     -0.33805209
H      -1.12288869      2.54614609     -2.45738195
H      -0.35502481      4.86843501      1.03758192
H       3.13099393      0.08595305     -1.49476420
H       1.14798833     -3.62852253     -2.18209951
H      -2.48696853     -4.09306984      2.19190252
H      -0.90851245     -4.28713975      2.98456010
H      -2.40737451     -4.72544398      3.86273390
H       0.13064213      4.98247776     -2.41003423
H      -0.45174956      5.96198106     -1.05793398
H      -1.59708874      5.22654840     -2.18574614
H       4.15833421     -2.42841258     -2.66646962
H       2.82731974     -2.88527659     -3.73041235
H       3.39541155     -1.20850665     -3.67989462
