29
charge=0
O      -0.92658425     -0.91311971      0.07376373
O      -0.81118555      0.81211659      4.74084657
N       1.50465225      1.64107019      1.93396107
N       1.86697115      1.19603464      0.74102277
C      -0.14705362     -0.12382707      0.57586311
C       0.36411208      1.28894316      2.43351939
C       1.13701683      0.34964900      0.08213603
N      -1.77350626      0.21337144      2.28036582
N      -0.49772380      0.46407478      1.81233821
S       0.02425217      1.86792277      4.14734103
C      -1.14162750      3.17787084      3.58349026
C       2.99687959      0.48846184     -1.56526712
C       0.62943100      0.21871563     -2.33843932
C       1.79571372     -1.67542510     -1.17587581
C       1.64488775     -0.15027043     -1.24917352
H      -2.13814020     -0.58158681      1.75449017
H      -1.76996776      0.07557165      3.29412621
H      -1.54595069      3.65963076      4.46769402
H      -0.57093066      3.88671243      2.99511629
H      -1.94379351      2.73534083      3.00260328
H       3.72163576      0.24424259     -0.79436270
H       2.90520905      1.56963484     -1.60917414
H       3.36010885      0.12380078     -2.52273473
H       0.49966443      1.29806400     -2.38688737
H      -0.33288480     -0.24393023     -2.13830452
H       0.98745060     -0.13046893     -3.30362992
H       0.83737855     -2.14570486     -0.97437163
H       2.17316066     -2.05048172     -2.12381385
H       2.49696280     -1.95027438     -0.39050466
