10
charge=0
F      -0.01371601      2.89164121      0.44744251
F      -1.06939448      1.46892856     -1.03391337
F       0.23730806      0.14626174      2.90669124
F      -0.81893229     -1.27690205      1.42621916
F       2.94840374      0.68364816      0.45460704
F       1.89132911     -0.73826818     -1.02638862
N       0.52899820      0.52908764      0.52941572
P       0.46199873      1.75996750     -0.60451222
P      -0.72545522      0.32547862      1.62016488
P       1.85123240     -0.49807113      0.57204584
