46
charge=0
N       1.59329102     -1.06559792      1.15758529
O      -0.39942413      0.18938404      1.13655925
C       0.57454078     -0.56945362      1.71374984
C       3.14559636     -0.48854512     -2.65819007
C      -0.02942145     -1.22668366      5.86620229
C       0.23037481      5.08186252      1.02862364
C       2.97247246      0.59333078     -1.81182494
C       2.79260977     -1.75718888     -2.22734033
C      -1.00081247     -1.03413347     -2.25844245
C      -1.00176609     -0.57617041      5.12486750
C       1.13508112     -1.66080551      5.25106854
C       0.86352987      4.77132141     -0.16358838
C      -0.67506733      4.18983754      1.57765982
C      -0.98597320      0.15344521     -2.96897683
C       2.42852215      0.41979273     -0.55522886
C       2.26303966     -1.94631545     -0.96747581
C      -0.79856566     -1.02011608     -0.89180827
C      -0.81569080     -0.35909479      3.77220681
C       1.32874908     -1.44412569      3.90121783
C       0.59457584      3.57511709     -0.80157887
C      -0.94388282      2.99076012      0.94345785
C      -0.77480469      1.34948057     -2.30986122
C       2.05024799     -0.85392185     -0.12545527
C      -0.57408351      0.18081563     -0.23254437
C       0.35269394     -0.79125787      3.14991685
C      -0.30934077      2.66828115     -0.25254764
C      -0.56862657      1.39089780     -0.93474013
H       3.56175825     -0.34587558     -3.64423885
H      -0.17863299     -1.39584660      6.92251037
H       0.44244239      6.01604936      1.52758583
H       3.26197059      1.58366308     -2.13312782
H       2.93709951     -2.60757683     -2.87806084
H      -1.16903690     -1.97230529     -2.76450957
H      -1.90969446     -0.23842656      5.60279117
H       1.89311583     -2.16822608      5.82926531
H       1.57225307      5.46310962     -0.59555271
H      -1.17479475      4.42945769      2.50507814
H      -1.14162057      0.14743335     -4.03710492
H       2.29878361      1.26210047      0.11046896
H       1.98719966     -2.93239946     -0.62480468
H      -0.80426605     -1.93834955     -0.32208078
H      -1.57377853      0.14417579      3.19233675
H       2.22757220     -1.77235623      3.40384661
H       1.10174856      3.32501446     -1.72208463
H      -1.65959547      2.30386349      1.36825531
H      -0.77823861      2.27773076     -2.86193440
