15
charge=0
O       1.13910364     -0.30184466      2.69193141
O      -0.60124015      2.05174402     -0.02429960
O       1.61601215      1.21439375     -0.97150453
O      -0.43186803     -0.30886455     -0.97964324
P       0.01103357      1.23593562     -1.30855269
C      -0.35603264      1.65372656      1.30713362
C       2.11757762      0.78514760      0.27558467
C      -0.10797772     -0.94155862      0.23934614
P       0.76699625      0.20493400      1.37272337
H      -1.30523463      1.39805836      1.80284797
H       0.09843130      2.48698969      1.86456117
H       2.83493883     -0.03569032      0.12312509
H       2.65401698      1.61067906      0.76838626
H       0.53016520     -1.81829326      0.04898961
H      -1.02826435     -1.29769849      0.72702934
