14
charge=0
Cl      1.90837995      3.06810114      0.94092438
Cl     -0.17450411     -3.09411520      2.59892104
Cl     -1.90581488      0.72109259     -0.32745725
N       1.35085624     -1.09183449      2.02553549
N      -0.82327592     -1.08237687      1.13295810
C       0.64902963      2.31495042     -1.28531980
C       0.97886718      1.97836452     -0.04648258
C       0.15331452     -1.61448204      1.84513114
C       1.59039634      0.05507367      1.42148893
C      -0.58418548      0.06241367      0.52875182
C       0.65742730      0.71335705      0.61364103
H       0.93655308      3.26244612     -1.70371855
H       0.09629075      1.64273893     -1.91583095
H       2.57514633      0.47275159      1.57993811
