10
charge=0
Cl      2.81974416      0.85233819     -2.25778832
Cl      2.85243973      0.41677620      0.59644777
Cl      1.33596153     -1.35684843     -1.10941687
Cl     -2.37130597      0.53699336      2.69833162
Cl      0.31932847     -0.50639915      2.60212815
Cl     -0.12997460      2.33489034      2.31775858
S       0.41348686      1.48999758     -0.77378741
S      -1.04181066      0.48503718      0.12376761
C       1.87018067      0.30596603     -0.87375911
C      -0.77627803      0.73302068      1.96808977
