20
charge=0
F       3.52382991      3.62460263      0.02830947
F       3.69571191      1.10454033      1.48847624
S       1.13178765      2.86199307     -0.86420351
C       2.59830488      2.66387503      0.04799634
C       2.66336743      1.47338107      0.71704001
C       0.62339441      1.30559541     -0.34981388
C       1.51768749      0.69018357      0.47975689
C      -1.26597498      0.56025308      0.96810739
C      -0.26042143     -0.15054975      1.89660987
C       0.05654417     -0.93120229     -0.32238513
C      -0.60431524      0.45494188     -0.42762434
C       0.87153686     -0.58532925      0.93599757
H      -2.22766785      0.04945303      0.96036929
H      -1.43214506      1.59830010      1.25111343
H      -0.70630055     -1.02641740      2.36561821
H       0.11418088      0.50398217      2.68167338
H      -0.66144064     -1.73182698     -0.15741697
H       0.68198873     -1.16768685     -1.18126715
H      -1.27215056      0.63435407     -1.26474654
H       1.53562654     -1.34889897      1.32993354
