46
charge=0
Br      1.13236229      4.32913417      4.94710296
Br     -2.38528748      5.08749969     -3.41888797
Br     -0.84153056      1.77652219      4.47700288
Br     -0.22047042      5.21327678     -0.97526496
Br      4.18929979      4.25054063      3.67583786
Br     -4.54330056      2.55775293     -3.54039849
Br      0.47416379     -1.15243672      3.67848171
Br      0.49752955      2.45335986      0.64641642
Br      3.80046995     -0.15677623      5.23761802
Br     -1.96587992      0.32150410      1.07098612
O       3.29174597     -0.87945710      2.71285451
O      -0.91730162      0.51318239     -1.53728685
C       1.82437538      2.77734157      4.14012679
C      -2.30201857      3.65035751     -2.19866907
C       0.98261800      1.60128078      4.06476670
C      -1.24069401      3.64712476     -1.20695644
C       3.07101096      2.74213811      3.63931283
C      -3.16914493      2.62535714     -2.25404618
C       1.50019866      0.41369822      3.69773407
C      -0.98031994      2.54297047     -0.48637293
C       2.91879414     -0.86712098      1.33521313
C      -1.29536145     -0.81587505     -1.90398686
C       3.59169583      1.54039880      2.92234627
C      -3.14468000      1.52745735     -1.23745237
C       2.96711970      0.24420240      3.44026001
C      -1.72668988      1.25992552     -0.72986823
C       2.60732357     -2.29264231      0.88747783
C      -0.02598318     -1.66429631     -1.92737010
C       1.99231400     -2.32630336     -0.51258391
C       0.57684650     -1.75558400     -0.52628148
H       2.04084154     -0.22618306      1.20458467
H       3.74417453     -0.45447078      0.74055486
H      -1.77140914     -0.78944871     -2.89084964
H      -2.00071435     -1.22122423     -1.17077041
H       3.34437644      1.64675390      1.85700204
H       4.67879976      1.47895367      3.00630729
H      -3.78377063      1.82250081     -0.39662947
H      -3.56013225      0.60872696     -1.65604859
H       3.53078598     -2.87149306      0.90724925
H       1.91690154     -2.74055912      1.60291198
H       0.68868342     -1.19496269     -2.60541963
H      -0.26983670     -2.65404556     -2.31333321
H       1.96703361     -3.35975255     -0.86110113
H       2.62362701     -1.75796446     -1.19963570
H      -0.06647138     -2.36213112      0.11404928
H       0.60005692     -0.74708142     -0.11483169
