44
charge=0
C       2.59280258     -2.87806877     -2.19624148
C       2.14538654      1.02122060      3.51695369
C      -4.89189056     -0.94817907      0.45444335
C       1.58922099     -2.23902435     -2.32661350
C       1.99767546      1.30455899      2.36347519
C      -3.86252462     -0.39089552      0.70327799
O       0.44896576     -0.38375522     -1.47939545
O       0.46410990      1.13557200      0.60996589
O      -1.65309588     -0.25065866      0.04330662
C       0.36634608     -0.74247700     -3.82204434
C      -0.84934110     -2.29523808     -2.25128279
C       1.69459693      3.15448821      0.79629553
C       2.84487410      1.02507952      0.09100298
C      -2.16560955     -0.02549142      2.41664424
C      -2.72835976      1.77682016      0.75223242
C       0.38678404     -1.41563488     -2.44345759
C       1.74227708      1.62950389      0.96106041
C      -2.58525311      0.26707877      0.97400441
C       0.62225594     -1.77373744      1.10939653
Si     -0.03279818     -0.31273846      0.06681117
H       3.46344784     -3.45600172     -2.09769875
H       2.30372712      0.78021127      4.52620641
H      -5.80396512     -1.42534280      0.25011750
H      -0.53376743     -0.14009740     -3.91120514
H       0.38381740     -1.49152065     -4.60951143
H       1.23417347     -0.09601677     -3.92670989
H      -0.77345705     -2.83950493     -1.31434909
H      -0.93963287     -3.00313284     -3.07137906
H      -1.73086915     -1.66217692     -2.20766598
H       2.64022249      3.59715029      1.09838205
H       1.49523099      3.39493813     -0.24467228
H       0.89785852      3.56673540      1.41103894
H       3.80128814      1.48807835      0.32088084
H       2.59828903      1.18504170     -0.95456797
H       2.91198658     -0.04491091      0.26674713
H      -2.03618373     -1.09580984      2.55302771
H      -1.22309383      0.47420622      2.62247590
H      -2.92694458      0.33102215      3.10612592
H      -3.45850120      2.19528310      1.44030181
H      -1.75856713      2.23945434      0.90985999
H      -3.04718065      1.96783713     -0.26929021
H       0.97524239     -1.44548741      2.08344107
H       1.45305591     -2.26517660      0.60930394
H      -0.14112094     -2.52857350      1.27728650
