49
charge=0
O       3.21949045      1.32525815     -0.71514207
O      -2.06673177     -3.36708583      2.55788124
O       0.91323059      1.90345686      0.42044338
O      -2.23722742     -2.61711270      0.07518202
C       4.40436893      5.05040968      1.03411407
C       3.99677496      8.60107362      0.16719040
C       5.15334799      8.04053266      0.12043691
C       3.58845468      6.23904641      0.85079166
C       3.91368137      3.86222680      0.66958172
C       2.29953756      6.10962744      0.50904741
C       0.35791098     -0.16673640     -0.70906599
C      -0.82343361      0.55214688      1.25892838
C      -0.43621683     -1.29788097     -0.76794227
C      -1.62235304     -0.57371028      1.19451158
C       0.16851914      0.75950010      0.30606723
C      -1.43118095     -1.49834312      0.17746597
N       4.20670094      7.47531828      1.10427481
N       1.42488395      2.81387669     -1.97459155
N       2.61629268      3.70885648      0.22473800
N      -0.62557419     -4.56204354      0.63424452
N      -3.24029619     -4.82890574      0.60687393
C       1.64140173      4.76043681      0.47748191
C       0.61383775     -4.02290049      1.14958120
C       0.10854499     -5.32028080      1.61831754
C      -4.53586906     -4.68826346      1.23050540
C      -3.68136276     -5.84407082      1.53441593
P       2.15580561      2.31149246     -0.54631816
P      -2.03788629     -3.79266222      1.14840737
H       5.41357361      5.16053175      1.39070679
H       3.23452964      9.27555612     -0.12211915
H       6.13101477      7.85561344     -0.24105514
H       4.49685351      2.95446680      0.64859365
H       1.67118875      6.96444182      0.31348266
H       1.14706643     -0.01237671     -1.42831839
H      -0.95319083      1.27717359      2.04667415
H      -0.29218563     -2.03536625     -1.54183101
H      -2.38658761     -0.75319075      1.93362210
H       1.87566659      2.44039021     -2.79367267
H       0.42044778      2.78481959     -2.03879755
H       0.88870222      4.71900902     -0.31561819
H       1.12909001      4.56271201      1.43541950
H       1.42515093     -3.98687091      0.43460830
H       0.56614143     -3.17933174      1.83031145
H      -0.29313083     -5.37318922      2.62404344
H       0.54978316     -6.23556128      1.24698596
H      -5.37564997     -4.80301655      0.55829777
H      -4.65458812     -3.92762481      1.99421152
H      -3.21285934     -5.88712616      2.51179076
H      -3.89598557     -6.80463931      1.08492467
