23
charge=0
O      -0.25146324     -3.32780745     -0.20021242
O       1.38404540      3.54313328      0.40466803
Cl      2.07216729      1.86594171      3.40501366
Cl      1.05371720      4.56277316      3.04136601
C       0.46355871     -2.47864917     -0.67273583
C       0.92442706      2.67562216      1.11133900
N       0.36821910     -1.16195602     -0.41357106
N       0.48435370      1.49308178      0.63323894
C       0.81143661      2.86143273      2.63158181
C       1.29631026     -0.18133659     -0.93898508
C      -0.62639679     -0.67530783      0.51846617
C       0.70123021      1.21103960     -0.77660999
C      -0.02929879      0.39121614      1.43016590
H       1.27774287     -2.70316600     -1.38471952
H      -0.15097757      2.55228860      3.04110147
H       2.25090821     -0.23099371     -0.39823347
H       1.48895818     -0.38280226     -1.99619596
H      -1.48838199     -0.26843587     -0.02324323
H      -0.96689708     -1.53200387      1.10549503
H      -0.24268280      1.28780911     -1.32563619
H       1.38503436      1.97098710     -1.16005859
H      -0.80988005      0.74668415      2.10784855
H       0.77494507     -0.04847417      2.03099263
