13
charge=0
S       0.28610570      1.28385868     -3.14408561
N      -0.34981370      1.06896166     -0.52716808
S       0.90343528      0.95940195      3.12574834
C       0.50411945      0.88570240     -1.57930548
C       0.21436901      0.56250655      0.52125116
N       1.65329670      0.28898221     -1.08705823
N       1.41461718     -0.01560710      0.24260657
C      -0.38234298      0.54116818      1.87495247
H       0.09327754      0.88374381      4.17612837
H       2.31704868     -0.23068282     -1.63861416
H       2.17567909     -0.16416658      0.88930302
H      -1.18859046      1.27122110      1.91865119
H      -0.76189761     -0.45578621      2.10689380
