18
charge=0
O      -0.91954594      3.37537003     -2.93048234
N       1.31339380      1.14151460      0.21847568
O       0.41382904      2.38116335     -1.40560439
C      -0.77774473      2.57573465     -2.05079157
C      -1.75107716      1.64799908     -1.44855027
C       1.36289316     -1.39435578      2.65644106
C       2.63664173     -0.77281026      2.77342717
C      -1.11756908      0.94612368     -0.49827557
C       0.67824848     -0.74916484      1.67433464
C       2.68335148      0.22068187      1.85028704
C       0.26513997      1.40472573     -0.45999766
N       1.48407868      0.24685385      1.17394603
H      -2.77560047      1.59696569     -1.76026879
H       1.00857313     -2.22356972      3.23629017
H       3.41065513     -1.04666571      3.46151578
H      -1.53894153      0.19765466      0.14331206
H      -0.29814853     -0.95152597      1.28876152
H       3.44701229      0.92849463      1.60236933
