44
charge=0
O      -0.39913191      2.01505867      0.29252714
N       1.99139742     -0.01207224      1.74515060
C       2.69392681      0.75383808      2.75798478
C       2.63354475      0.05100522      4.10822118
C      -0.08496428      2.87478882     -2.39655230
C       1.17929640     -0.11424484      4.52701573
C      -1.43072569      2.21422246     -2.65833442
C       0.96169866      1.78267302     -2.18177061
C       2.13872881      0.63532662      0.44819004
C       0.44189797     -0.86740752      3.42779244
C       0.86558858     -1.44129895     -0.04499519
C      -1.88957789      1.48228821     -1.39758743
C      -1.23650562     -0.15582916      0.25510059
C       0.37717202      0.58206318     -1.42388238
C       1.47009643     -0.18995911     -0.66841225
C       0.57601406     -0.14581787      2.08521785
C      -0.14775935     -0.94748080      0.97906290
N      -0.74003442      1.02848328     -0.52206891
H       3.73620982      0.85297716      2.43967405
H       2.26910022      1.77016798      2.85429972
H       3.10183149     -0.93090181      4.02012437
H       3.18685608      0.63275416      4.84759270
H      -0.16375815      3.47210321     -1.48780469
H       0.20427672      3.51953996     -3.22684787
H       1.10911391     -0.65640003      5.47235462
H       0.72438189      0.86940549      4.66408205
H      -2.18166207      2.95755261     -2.92919116
H      -1.33727453      1.51579749     -3.49445236
H       1.33543340      1.42000955     -3.14245516
H       1.80317940      2.19501009     -1.62752298
H       3.21019166      0.73225183      0.25230210
H       1.68830787      1.63830361      0.48081209
H      -0.61646917     -0.96473336      3.67964291
H       0.86785470     -1.86887857      3.33061883
H       0.38495261     -2.06593562     -0.80222564
H       1.64271199     -2.02083455      0.45061041
H      -2.45320011      2.15926455     -0.75335979
H      -2.51937435      0.63145971     -1.66511669
H      -1.95115270      0.24923073      0.97449074
H      -1.75202371     -0.83714540     -0.42814113
H      -0.08621234     -0.11043947     -2.13842767
H       2.21823132     -0.47173109     -1.41761092
H       0.11526022      0.85389259      2.15893434
H      -0.65363167     -1.80456135      1.43875411
