24
charge=0
N      -3.66706468      0.83080540     -1.16817994
N       2.46722490      1.32403836     -0.32614338
N       1.94071733     -1.27158657      1.59221157
O       3.78672558      1.27033801      0.12044083
O       2.31922574     -1.96562302      2.73736420
C      -2.42725273      0.82243919     -0.86055200
C      -2.01010183      0.25588864      0.40582722
C      -1.32243737      1.33628687     -1.65811267
C      -0.72272347      0.22217105      0.77814815
C      -0.05348904      1.27700719     -1.23023072
C       1.60743767      0.70686707      0.39304730
C       1.96137522     -0.00681133      1.65265391
N       0.28832969      0.72409289     -0.01407405
C       2.36937731      0.84089150      2.81474444
H      -3.86526097      1.24901827     -2.07491904
H       4.28223397      1.73727004     -0.56656655
H       2.26144888     -2.89504869      2.47633046
H      -2.77881126     -0.14004649      1.04785606
H      -1.54246309      1.77300167     -2.62137029
H      -0.41373976     -0.19748022      1.72227884
H       0.78320281      1.64972370     -1.79926570
H       3.33719301      1.29205682      2.59877867
H       1.64640019      1.63978776      2.97344342
H       2.45270555      0.22516502      3.70654208
