47
charge=0
N       5.46290025      0.65799512     -0.83421920
O       5.69753707     -2.28199415      0.91125245
O       2.10387208      0.25977952     -0.73665787
O       3.85327541     -4.13706352      1.81569418
O      -0.81027859     -4.22870152      2.59472735
N       4.74813220     -0.07900256     -0.39424870
C       4.51053234     -2.08631241      0.79251559
C       2.48933292     -0.64979786     -0.03074842
C       3.49445302     -3.08253982      1.34233124
C      -0.14040984     -3.39149654      2.02994762
C       3.93474209     -0.92308976      0.12563481
C       1.59225875     -1.54826314      0.70949657
C       0.18835749     -1.27531889      0.79654167
C       2.07667643     -2.69309316      1.30704173
C      -0.64212493     -2.15758206      1.43416772
C      -0.37876789     -0.02679352      0.21492883
C      -0.40291988      1.06609583      0.97190829
N       1.23470181     -3.55211000      1.91947955
C      -2.11037359     -1.94159290      1.57004159
C      -0.89776960     -0.20456217     -1.18091701
C      -2.49645831      2.36067187      0.51582133
C       1.95397759      3.31091931      0.50743235
C       0.39607271      5.28670451      0.43748854
C      -0.31438310      3.06695789     -0.58851074
C      -0.96920342      2.42461224      0.64984566
C       0.85216428      4.01639996     -0.27796480
H       0.02220664      0.97619189      1.96553543
H       1.64738375     -4.38981864      2.32720084
H      -2.44334225     -2.34080559      2.52612030
H      -2.63848419     -2.49780513      0.79446999
H      -2.36605388     -0.88971500      1.48377755
H      -1.53615660     -1.08610130     -1.22996259
H      -0.05988924     -0.35967693     -1.86019467
H      -1.45783017      0.65868663     -1.51832251
H      -2.93226560      1.90103378      1.40137288
H      -2.90112969      3.36601581      0.42116294
H      -2.80379567      1.78510768     -0.35216845
H       2.22274253      2.38223890      0.01035205
H       1.62597981      3.07877602      1.51786900
H       2.83857330      3.94086058      0.57324966
H       1.23449403      5.96865023      0.56085054
H      -0.37527229      5.79403405     -0.13804936
H      -0.00278645      5.06565187      1.42471408
H       0.06766955      2.28413102     -1.24172811
H      -1.07129622      3.62837088     -1.14098897
H      -0.76713026      3.06445127      1.51295544
H       1.27243050      4.31605297     -1.24558947
