37
charge=0
O      -4.16744596     -0.96006934      3.27804462
O       4.97621365      1.77410555     -4.01646913
O      -0.86394882     -0.03021278     -0.19681602
O       4.21842676      1.87658676      0.85079267
N       0.27900307      0.64747939      3.14960110
N      -3.10144640     -0.40825053      5.22141296
N       3.00207913      1.01254228     -4.86750531
C      -3.18183109     -0.54836707      3.85975750
C       3.83835709      1.38791043     -3.84090216
C      -0.80304430      0.08998543      1.03819093
C       3.52817495      1.55987045     -0.09501889
C       0.35232912      0.56909804      1.82500518
C      -2.03593267      0.03117203      5.80628821
C       1.79898943      0.60430077     -4.66490360
C      -0.83784880      0.29521613      3.78254181
C      -1.96315013     -0.16366878      3.12928258
C       3.25346554      1.28142460     -2.49434044
C       1.97280233      0.83617679     -2.32239476
C       1.61137164      0.98114646      1.30892466
C       2.12404198      1.06834504      0.04247722
N      -2.05480283      0.19440759      7.14794473
N       1.00887240      0.31371597     -5.72519960
N      -0.88424865      0.38419116      5.15594434
N      -1.89342822     -0.24633760      1.77028508
N       3.98606082      1.62741192     -1.37920984
N       1.22672449      0.48033147     -3.41913859
N       1.43630715      0.73730022     -1.08252740
H       2.29910975      1.28764065      2.08590235
H      -2.86301298     -0.16562974      7.62464602
H      -1.20385370      0.32003131      7.66644472
H       0.18178435     -0.24529429     -5.61031632
H       1.47215325      0.29675655     -6.61743993
H      -0.06811030      0.74297618      5.63069929
H      -2.72550863     -0.58543643      1.29168039
H       4.93242892      1.95237722     -1.55221313
H       0.27004529      0.18258204     -3.28687469
H       0.45843000      0.39774080     -0.91504092
