41
charge=0
N      -2.63173177      0.40055535      2.62233539
C      -1.84398286     -0.28686775      3.08643134
N       0.44313065     -1.63124290      1.64483390
N      -1.85173410     -0.94623214     -0.10947435
C       0.58275257      2.34634104     -2.12958784
C      -1.14733758      2.49665381     -0.36941782
C       2.48271266     -0.43924196     -1.34740524
C      -0.82843653     -1.12418656      3.66724782
C       0.50423469     -0.95575048      2.92342921
C       1.56061901     -1.35781997      0.75365359
C      -1.16938580      0.55624915     -1.97228526
C       0.18838958     -1.45492564     -1.36552057
C       0.59050123      0.75497540     -0.14536540
C      -1.22663692     -0.87064866     -1.42850179
C      -0.27259495      1.51722448     -1.16578915
C       1.18563445     -0.60553753     -0.54817966
H      -0.42780737     -1.39694780      1.16304622
H      -2.28314627     -1.85436239      0.02291194
H      -2.57346908     -0.24321536     -0.00097789
H       1.20701520      1.71633654     -2.75589255
H       1.22809661      3.02701153     -1.57833790
H      -0.05805285      2.93885267     -2.78045085
H      -0.52264482      3.17541083      0.20813604
H      -1.76403974      3.09267823     -1.03969964
H      -1.79769333      1.96686640      0.32261721
H       2.94502705     -1.41073606     -1.51433683
H       2.29469147      0.01414154     -2.31572637
H       3.19152178      0.18604642     -0.80845144
H      -0.71432893     -0.84860116      4.71902770
H      -1.14662937     -2.16749200      3.60342691
H       1.29997579     -1.42349657      3.51689220
H       0.73790287      0.12262717      2.84788795
H       2.01563324     -2.31872833      0.47804545
H       2.32374543     -0.77962362      1.28647014
H      -2.18333122      0.95959783     -2.02686313
H      -0.79693679      0.48734356     -2.99658017
H       0.54899332     -1.55060443     -2.39130240
H       0.13345970     -2.45928675     -0.94252310
H      -0.05415692      0.58549693      0.71573132
H       1.40636781      1.40690436      0.17710664
H      -1.79811080     -1.46882700     -2.16283240
