35
charge=0
O       2.11569959      1.33416590      2.32719144
C       3.28809658      2.01029942      2.31598790
C       3.78802233      2.69020585      1.29392597
C       3.02978824      2.80526686      0.00853006
C      -2.70897670     -0.78136634     -0.53126279
C      -1.45784700     -1.65548289     -0.59805789
C      -2.34329474      0.28924646      0.49507433
C       0.25799898     -0.71917440      1.83659856
C       1.56055175      2.46159545      0.25610014
C       1.97661023     -0.08071023      0.33672727
C       0.83130211     -1.09207413      0.47053312
C      -0.29201154     -0.66457221     -0.48365853
C      -0.86815296      0.59923376      0.20577262
C       0.00641519      0.74171658      1.45557177
C       1.44197296      1.17463880      1.07430402
H       3.78156798      1.93247667      3.27502987
H       4.74133271      3.18312501      1.37980091
H       3.11064611      3.82130704     -0.38512896
H       3.45631003      2.13263405     -0.74363519
H      -2.88768086     -0.31668330     -1.50255195
H      -3.59880625     -1.34393214     -0.25123198
H      -1.44657679     -2.35038029      0.24247210
H      -1.41122142     -2.23957646     -1.51648805
H      -2.97126085      1.17533657      0.40887868
H      -2.46050846     -0.10785130      1.50360133
H       0.98147919     -0.81600744      2.64231479
H      -0.64704332     -1.26296733      2.09337582
H       1.04221233      2.35444502     -0.69536853
H       1.08965837      3.26949888      0.82138871
H       2.87900595     -0.43992610      0.83242189
H       2.21678751      0.12792674     -0.70540612
H       1.14523171     -2.12697741      0.34031583
H       0.10334139     -0.44086073     -1.47687211
H      -0.81032409      1.47886443     -0.43458687
H      -0.41912480      1.37776173      2.22953384
