26
charge=0
O      -0.12857953     -4.04019677      1.26574708
O       1.61228503     -3.89009209     -0.46021832
Cl      1.55313693      3.70825775      1.89153186
N       0.83195925     -1.75928145      0.68569178
N      -0.50459709      1.33749437     -0.39309694
S      -2.50597064     -2.06991694     -2.70911191
C       0.13057923     -0.89168256      0.05389211
C      -0.17977520      2.53013645      0.03882352
C      -1.71559155     -0.84312621     -1.80455508
C      -1.61408685     -3.32978395     -1.91891327
C       0.82348045      2.41545434      1.04187162
C      -0.81178226     -1.38873367     -0.94010516
C       1.08439354      1.07575873      1.18861889
C      -0.76334830     -2.80715415     -1.01479804
N       0.24944403      0.44838663      0.29073515
C      -0.79276426      3.77740690     -0.47153280
C       2.02710223      0.37163206      2.07887099
S       0.47175119     -3.32370484      0.18611035
H      -1.94737735      0.19254403     -1.94808275
H      -1.78476741     -4.35391534     -2.18038136
H      -0.02376848      4.42274628     -0.89321049
H      -1.52928784      3.54315060     -1.23344585
H      -1.27058668      4.31675791      0.34477409
H       2.73461742     -0.21397675      1.49466293
H       2.56042335      1.09894724      2.68590876
H       1.49311102     -0.32710845      2.72021274
