29
charge=0
O      -2.36799893     -1.72414253     -5.42098203
N      -2.45271760      0.27309331     -4.31951044
N      -2.15031001      1.01814895     -3.38302555
N       1.09453524     -3.24999280     -0.91903562
S       1.52266022     -2.30411194      0.33950550
S      -0.42551215     -3.10113105     -3.21831682
S       0.56238926      0.60960921      0.63135844
C      -2.02355669     -1.06365340     -4.47114017
C       0.31633596     -2.59085671     -1.73562714
C       0.63192064     -0.90558406     -0.19689639
C      -1.15742988     -1.51302836     -3.38707316
C       0.00664601     -1.23738722     -1.38549544
C      -0.84304780     -0.64800410     -2.35740746
C       1.85404007      3.69870525      4.57271074
C       2.77863320      3.51306422      3.55871928
C       0.85870928      2.75855939      4.77966846
C       2.70959265      2.39015136      2.75428551
C       0.78812293      1.63503129      3.97619731
C       1.71728400      1.43960127      2.96149898
N      -1.36218411      0.61522779     -2.39245487
C       1.63208323      0.23493474      2.08298788
H       1.90871319      4.57537165      5.20011882
H       3.55524867      4.24435786      3.39298194
H       0.13496981      2.90014986      5.56805209
H       3.43044888      2.24747085      1.96209923
H       0.00977905      0.90305703      4.13726171
H      -1.16283738      1.28838414     -1.66265809
H       1.17342203     -0.61177170      2.59450250
H       2.60619909     -0.04911492      1.68381318
