15
charge=0
O       2.76070592      0.10385831     -0.76610875
O       1.70580594     -2.10688950     -0.94697138
N      -0.63355464      2.18662489      1.40123507
N       0.30745062     -0.01453056     -1.14369876
N       1.25502681      0.50511242      3.06062752
O      -1.37474755      2.62219879      0.39543777
C       0.07900787      1.18324062      1.01834698
C      -0.18644231      0.89287591     -0.39340459
C       0.95243301      0.33309110      1.84475023
N      -1.10934539      1.81949290     -0.72317663
N       1.34262721     -0.78024806      1.15165775
S       1.64302768     -0.75257263     -0.53719623
H       0.85258406      1.33373301      3.48431781
H      -1.60010048      2.01667610     -1.57737543
H       1.94317939     -1.40500504      1.66921660
