20
charge=0
O      -1.77667770      0.81449568     -2.71989243
O      -2.04676585     -0.35792366     -0.57902866
F       1.35411993      0.05130920      3.76552303
Cl     -0.49702139     -1.67098100     -2.51563249
C       0.51650635      0.85357111      3.02753055
C       1.29637001      1.53427738      1.90971433
C       1.89546810      0.53566882      0.91598038
C       0.86344722     -0.13747368      0.00416576
C       0.30130444      0.79125374     -1.04638238
S      -1.21120761      0.03599830     -1.66679999
H      -0.28094435      0.20848690      2.64736213
H       0.09707676      1.58873718      3.72157933
H       2.10992511      2.10337337      2.36355600
H       0.63046950      2.23884369      1.41102214
H       2.41451012     -0.23664639      1.48508828
H       2.63590216      1.04657083      0.29801101
H       0.02928464     -0.51367877      0.59785800
H       1.32997385     -0.99216568     -0.48802658
H      -0.02697236      1.74592727     -0.64503922
H       0.94877509      0.94389978     -1.90304478
