11
charge=-2
O       2.29987744     -2.30627156      0.67727118
O      -1.42086794      2.96286355     -0.52006252
O       1.07761647     -0.96817911     -0.95594533
O       0.53100842     -0.80950471      1.44022704
O      -0.29936579      0.98235954     -1.39856336
O      -0.84638806      1.14073862      0.99720749
O      -1.14997181     -0.85878165     -0.20561329
B       1.38104051     -1.48416518      0.41295299
B      -0.94498351      1.80994045     -0.33532111
B      -0.09863493     -0.29695519     -1.00001705
B      -0.52933077     -0.17204493      0.88786383
