43
charge=0
O      -0.22988852      5.85963983      6.28639566
O       2.07005155      5.05145300      6.71270452
Br      2.83639691      0.67723301      3.33019234
N      -0.61827053      0.89534466      1.10384875
N       0.45817221      1.26758226      1.66975487
C       0.87894142      3.21663888      8.65136176
C       0.06255689      3.67675657      7.73100323
C       2.59220139     -3.43509971     -6.00403210
C       2.67267921     -3.42266562     -4.62158293
C       1.48331336     -2.88877594     -6.62928872
C      -1.69154315     -0.20498694     -0.67988520
C       0.70792342      0.08932062     -0.79922187
C      -0.60054787      2.97966249      3.05022042
C       1.66667773     -2.85449992     -3.86270933
C       0.47487138     -2.31476050     -5.88042351
C      -1.66699990     -0.84714149     -1.88968427
C       0.73163927     -0.55980635     -2.00450105
C      -0.50583180      3.81852977      4.13943369
C       1.58869120      2.79086923      4.77333943
C       1.49819908      1.96588879      3.67485639
C      -0.50190599      0.26634463     -0.10089542
C       0.40148572      2.02703822      2.79689603
C       0.56568815     -2.27302283     -4.48919760
C      -0.45402321     -1.06320130     -2.56678584
C       0.58322526      3.71788646      4.98878770
N      -0.48562820     -1.70872016     -3.77009314
S       0.68819945      4.76301656      6.44059034
H       0.56436761      2.56086102      9.44728960
H       1.91593518      3.51068820      8.62714308
H      -0.99077228      3.47268483      7.65705224
H       3.38189854     -3.87905728     -6.59013415
H       3.52126825     -3.86949395     -4.12567203
H       1.40354827     -2.90843127     -7.70586771
H      -2.61866589     -0.05235634     -0.14968783
H       1.61409866      0.48138791     -0.36311546
H      -1.42845867      3.03554149      2.35994008
H       1.71826278     -2.88796086     -2.78568186
H      -0.39038193     -1.88904750     -6.36897265
H      -2.58539211     -1.20610529     -2.33317806
H       1.65968113     -0.65704606     -2.54567604
H      -1.25532124      4.56608506      4.34719305
H       2.43026678      2.75141238      5.44695897
H      -1.39198994     -1.76506619     -4.21405363
