10
charge=0
B      -1.97901268     -0.83541290      0.95774541
B      -0.44722947     -0.04526100      1.05706293
B       1.79691646     -0.12398383     -1.07574578
B       1.13457025      1.19732979     -1.29884144
B      -1.16470986     -0.63296193     -0.28743988
B       0.21961640      0.02715499     -0.51092780
H      -2.83573435     -1.14640617      1.68330733
H       0.12337420      0.39819637      1.98160015
H       2.41820461     -1.10140654     -0.96865387
H       0.73400431      2.26275121     -1.53810693
