16
charge=0
O       0.79201452     -0.33373229     -1.56395416
O      -0.01397151      1.89624192     -2.21768054
S       2.03652431      1.87082216     -0.18713252
C       2.14101882      0.44178759      0.94636056
C       0.93457602      0.35676031      1.86912895
C      -0.34306331     -0.08371622      1.15327252
C      -0.81426972      0.92614463      0.13019071
S       0.43359139      1.00604184     -1.19039124
H       3.05827987      0.58744355      1.51365128
H       2.23250263     -0.44591175      0.32101037
H       0.77944100      1.32651262      2.34779416
H       1.16064570     -0.36950400      2.65360672
H      -0.16003065     -1.02761223      0.63493126
H      -1.13050457     -0.25008989      1.89298190
H      -1.73886808      0.62927044     -0.35685353
H      -0.90105084      1.93637672      0.51991924
