14
charge=0
N      -0.53052580     -0.99988990      3.18577179
N       3.30330646      1.11533654     -1.33735678
C      -1.06145023     -0.88279501      2.17603533
C       2.17851009      1.06875208     -1.14312168
C      -1.73244905     -0.73008786      0.94604958
C      -1.10168224     -0.51118792     -0.20747389
C       0.75980710      0.98849032     -0.90348165
C       0.37823825     -0.39935336     -0.35643976
H      -2.81046973     -0.80408089      1.00181919
H      -1.68036237     -0.39348585     -1.11479946
H       0.48235369      1.76516829     -0.18495625
H       0.23922067      1.18309620     -1.84628683
H       0.72500268     -1.16194257     -1.06100316
H       0.87297216     -0.56677024      0.60247489
