40
charge=0
N       2.51721027     -1.38855782      1.80431641
N      -1.34134806     -1.31101485      0.58180219
N       0.58603023     -0.22857120      1.46159597
N       2.65306073     -3.68618291      1.31290733
C       1.25831280     -1.35252963      1.41180300
C      -0.67378646     -2.45635845      0.52623598
C      -0.68998718     -0.24498632      1.05171321
C       3.16185242     -2.55017101      1.74180883
C      -1.27161574     -3.63001382      0.05137944
C      -0.55030513     -4.80338503      0.00785706
C       0.76922214     -4.84438767      0.42771592
C       1.38001889     -3.68744295      0.90084582
N       0.64092957     -2.52347868      0.93769718
N      -1.38866056      0.89005201      1.13420057
N       0.36286006      5.33258186     -0.33011164
C       4.57871847     -2.55793068      2.20065652
C       1.41827285      4.88739059     -1.21284996
C      -0.78449354      5.81554280     -1.06518454
C      -0.82212164      2.16033747      1.51056323
C       0.04137382      4.39806211      0.72664567
C      -0.56370803      3.05065630      0.29495752
H      -2.29721360     -3.56929959     -0.26771683
H      -1.01932834     -5.70427956     -0.35855287
H       1.35497857     -5.74612131      0.40441323
H      -2.32393630      0.85807999      0.75781675
H       4.61341929     -2.31531421      3.26071861
H       5.01560450     -3.53621422      2.02863299
H       5.13637099     -1.79084647      1.66897402
H       2.25620443      4.52874501     -0.61823771
H       1.75346514      5.73657379     -1.80880427
H       1.10594006      4.08866932     -1.90234117
H      -1.55028428      6.14128239     -0.36316516
H      -1.22004918      5.06570921     -1.74323285
H      -0.47735155      6.67323159     -1.66392395
H      -1.50804919      2.66027447      2.20164941
H       0.11706540      1.94515718      2.02228001
H      -0.65798924      4.90064345      1.40223120
H       0.96317462      4.20589470      1.28262555
H       0.12542427      2.53475130     -0.37500036
H      -1.50219286      3.22053851     -0.23783401
