22
charge=0
N       4.33816309     -2.31830713     -0.72304418
N       1.66469930     -1.35885945     -3.88046251
Br     -1.77175052      4.71284988      2.43969234
Br      1.02939125      2.27569270     -1.81000863
C       3.28473475     -1.97626192     -0.99448559
C       1.79483621     -1.43954979     -2.75073160
N       0.74904433     -0.24339704      0.11524192
N       1.69296167     -0.24318033     -0.70431400
C      -0.35828941      3.25903299      0.44942326
C      -0.88599823      2.00582796      2.44814646
C      -0.92484484      3.18079982      1.71102739
C       0.27651032      2.14681749     -0.07018454
C       0.30966060      0.93482618      0.64626220
C      -0.28795766      0.87591171      1.92437267
C       1.92951618     -1.54844412     -1.30555476
C      -0.21196828     -0.39308239      2.70600115
H      -0.39870314      4.17563864     -0.11778322
H      -1.33279352      1.97220503      3.42979040
H       1.21840967     -2.31272430     -0.93791822
H      -0.96209696     -0.40945854      3.49138661
H      -0.35072079     -1.24577457      2.04449302
H       0.77158464     -0.48989959      3.16623781
