15
charge=0
N       1.42117566      2.34434413      3.51951446
N       0.21393165     -2.04126726      2.77967657
C       1.15440536      1.80300719      2.54267897
C       0.34190159     -1.18316303      2.02723213
S       1.14302023      3.50386395     -0.33027817
C       0.83525447      1.20611375      1.32058026
C       0.46775308     -0.16548089      1.08005493
C       0.80964730      1.84097077      0.09728245
C       0.23890549     -0.28817959     -0.28113148
N      -0.04739703     -1.40609238     -1.01539102
N       0.44557170      0.93006088     -0.85783453
H       1.41374269      3.88283098      0.91475034
H      -0.53841434     -1.27190020     -1.88508642
H      -0.35588156     -2.20008145     -0.47631046
H       0.37709489      1.13436931     -1.84146989
