50
charge=0
C       1.67308142      5.99970383      2.25101832
O       2.23545174      0.05708103     -1.65998108
C       1.78553917      7.18868880      1.75213618
C       1.54063433      4.80959318      2.74755843
C       3.62678649     -3.72001273      1.54301547
C       2.35870141     -4.07390916      1.36189058
C       1.38886011     -3.38635386      0.52772869
C       1.51820383     -2.15423415      0.03656804
N       0.54408555      0.61116565      0.44068623
C       0.43169388      3.86081139      2.38670668
C      -0.62397711      0.81877301     -2.28233341
C       0.23069455     -0.21254458     -3.00860974
C      -1.33787322      0.17513659     -1.09945201
C      -1.11708542     -1.11207284      1.06297423
C      -1.80845957     -0.09829378      1.97344414
C       1.24220156     -0.85337305     -2.04920109
C      -0.34886886     -0.42435529     -0.08551701
C       0.99622754      2.58609195      1.75657162
C      -0.80732403      0.93631372      2.48310890
C       0.50861243     -1.48321124     -0.83908948
C      -0.08864101      1.60307137      1.30330192
H       1.80797513      0.68320072     -1.04953443
H       2.34466935      7.37505902      0.84874197
H       1.33483050      8.04852247      2.22248718
H       2.26604309      4.43707212      3.46015437
H       4.28340064     -4.28606796      2.18114456
H       4.06009409     -2.86501393      1.05311361
H       1.98555878     -4.96187624      1.85790112
H       0.48071290     -3.94067875      0.32104309
H       2.41487690     -1.58253956      0.23058126
H       1.26320887      0.14413563      0.98956741
H      -0.25282544      4.34632591      1.68878566
H      -0.12370304      3.60908731      3.29399871
H       0.00533827      1.63637818     -1.92713162
H      -1.36079486      1.23808057     -2.97074810
H       0.77866421      0.25957220     -3.82562997
H      -0.40557224     -0.99406795     -3.42878343
H      -1.97672863      0.91346772     -0.61615319
H      -1.98223098     -0.62957823     -1.46099881
H      -0.40503008     -1.69033773      1.65808384
H      -1.85190684     -1.80705927      0.65288564
H      -2.26236445     -0.62155319      2.81833651
H      -2.61106253      0.40715512      1.43271867
H       1.77704742     -1.65314840     -2.57835893
H       1.65924675      2.08904385      2.46983022
H       1.59342746      2.85943162      0.88330716
H      -1.32484438      1.68426879      3.08490589
H      -0.06545743      0.44148209      3.11726384
H      -0.18648276     -2.23758761     -1.22268387
H      -0.82035115      2.15227517      0.70031634
