44
charge=0
O       2.64432225     -2.70764615     -1.72179273
O      -2.98998953      3.33149135      1.93212434
O      -1.73939335      5.07557751      3.12023883
O       2.17603224     -1.27824300      3.09236509
O       1.89625725      2.20089093     -1.20160907
O       0.39835275     -2.91795903     -1.72447260
C       1.55119865     -2.35094494     -1.34834740
C       1.30220224      0.67745117      2.10306788
C      -0.30513678      2.05393412      3.42506384
C       1.18418058      1.58349266      0.98619833
C       1.92278227     -0.52145213      1.98033533
C       1.76212190      1.27408717     -0.20281136
C      -0.40877569      2.86878380      2.39015767
C      -1.28652921      2.02424075      4.54550696
C       0.86290969      1.11440822      3.47667911
C       0.57844768     -3.50010686     -4.08656218
C       0.48052911     -4.00122314     -2.65297827
C       0.52470199      2.92780275      1.22605009
C      -0.32404788      3.43642089      0.04441731
C       1.31316561     -1.24107096     -0.40650853
C       2.35418564     -1.03071090      0.68361851
C       2.28054680     -0.06544541     -0.47138388
C      -1.11258099      4.63371008      0.52908842
S      -1.74583622      4.02941753      2.12931969
H       2.55629564     -2.12480114      2.83190765
H       2.30035704      1.78805482     -1.97375210
H      -1.80981882      1.06858229      4.55606057
H      -2.01335059      2.82317669      4.43116876
H      -0.77134319      2.13611004      5.49870305
H       1.70110229      1.61553183      3.97428536
H       0.62186176      0.23207184      4.07074494
H       0.56755317     -4.34521769     -4.76858369
H      -0.26060222     -2.84728445     -4.31466496
H       1.50534286     -2.94884869     -4.22472809
H       1.35383516     -4.61377759     -2.40602037
H      -0.43483946     -4.57529255     -2.49753675
H       1.31175454      3.66907037      1.42818596
H      -1.01921393      2.64757075     -0.25034946
H       0.30511352      3.68674466     -0.80697523
H       0.28007633     -1.03496703     -0.16893435
H       3.16150285     -1.75684060      0.68256573
H       3.03994155     -0.15044346     -1.24304609
H      -0.48812025      5.49884639      0.73236919
H      -1.94329743      4.89860304     -0.11536819
