26
charge=1
N       0.94925806     -1.09074913      0.58093238
N      -1.05249390      0.13495690      0.14675472
P       1.05995550      0.64286229     -1.59747688
C      -0.50038613     -1.15374217      0.52492246
C       1.55013476     -0.94864049     -0.72983831
C      -0.77458651      0.47467205     -1.23401307
C       1.18296331      2.21106341      2.26283918
C       1.37786527     -0.12056903      1.51195421
C      -0.67520490      1.13659333      1.06663167
C       1.40486662      1.73830832     -0.09430712
N       0.84013759      1.27149365      1.19095970
H      -0.88570924     -1.43433161      1.50917597
H      -0.80489925     -1.90774006     -0.20016631
H       2.63912758     -0.98479706     -0.63395320
H       1.24635674     -1.79344686     -1.35204900
H      -1.27767962      1.41327667     -1.48365972
H      -1.18877124     -0.30254295     -1.88017720
H       0.77872108      3.19753411      2.03870861
H       0.76934756      1.86967494      3.21084204
H       2.26522379      2.28885209      2.35977428
H       1.01207407     -0.38132676      2.50985757
H       2.46974957     -0.06033663      1.52737499
H      -1.07184218      2.10827741      0.75904176
H      -1.05548983      0.88476864      2.06139164
H       1.00920832      2.73618043     -0.30906059
H       2.49068095      1.82831583      0.01214806
