20
charge=0
F       2.67289850      3.77467940     -0.80074356
F       0.58471653      3.96910609     -0.36124532
F       1.01574256     -2.65418033      1.69788944
F       1.20894339     -0.65970142      2.43652343
F      -0.85839242      1.85343998     -0.29512081
F       0.15286993      1.38747433      1.52929163
F       2.56197752      1.12364328      0.18423813
F      -1.63887503     -0.36317331      1.57496339
F       1.21837624     -0.92443221     -0.35405634
Cl      1.54267041      1.55789200     -2.13687101
Cl     -1.46106723     -2.62336891      0.41947928
Cl     -0.93572033     -0.48709331     -1.63182261
Br      2.13818206      3.60386767      1.80572114
Br     -0.64907148     -2.10390839      3.71946664
C       1.68218613      3.28159739     -0.05598386
C       0.31888823     -1.60128939      2.12295657
C       0.18819000      1.17498607      0.19894015
C       1.51104634      1.77084314     -0.36582916
C      -0.68191257     -1.14121462      1.02555198
C       0.01189578     -0.35562314     -0.12980462
