18
charge=0
S       3.25697531      0.91905898     -1.84226898
S       2.89599476     -2.36702774      2.80507245
S       0.35978166      1.54874012     -2.73378884
S      -2.42198645      2.85596440      1.39950963
S       3.15180630     -1.21618122      0.09590675
C       2.37063271      0.17968265     -0.69576789
C       2.35073181     -1.35934534      1.64024498
C       0.20784425      1.38226366     -1.11025379
C      -1.28524753      1.87671561      0.75421516
C       1.05103169      0.55592269     -0.25351768
C       0.57308042      0.20462987      0.98573658
N      -0.82044511      2.05755945     -0.49893421
N       1.24051959     -0.59522684      1.85893250
C      -0.75399542      0.68031895      1.48654365
H      -1.28271455      2.75954600     -1.07062526
H       0.82831430     -0.73558281      2.77733751
H      -1.48920788     -0.12899633      1.37150406
H      -0.70792602      0.90714730      2.55534300
