27
charge=0
N       0.26777391     -0.39598832      1.42694646
O       1.24963576      0.51068844     -1.84782777
C      -0.85795409     -0.26318312      0.87003610
N       0.62482288      0.63401041     -0.61108720
C      -2.13532839     -0.60983344      1.53879783
C       2.18833862      1.08367537      1.20953529
C       2.17512806     -1.20664819      0.17609064
C      -1.63769196      1.52575166     -0.75885263
C      -1.20909814     -0.82093666     -1.55572066
C       1.32257389      0.01807942      0.53627045
C      -0.79318994      0.26641177     -0.55208169
H       1.31508626     -0.42747381     -2.10278433
H      -2.68360782     -1.34474101      0.95203851
H      -1.93063169     -1.01240585      2.52626834
H      -2.75485892      0.28030971      1.63263319
H       2.94623797      1.42577639      0.51096486
H       1.56577720      1.92696686      1.49385381
H       2.66059956      0.67206295      2.09618414
H       2.57406217     -1.62906295      1.09299686
H       1.57132956     -1.97080426     -0.31316060
H       2.99937819     -0.91683410     -0.47133978
H      -2.69850537      1.29474522     -0.70346640
H      -1.41565249      1.94643872     -1.73633599
H      -1.38768652      2.26575144     -0.00319134
H      -1.02723989     -0.47643959     -2.57232810
H      -0.65917615     -1.74655218     -1.38421407
H      -2.27012216     -1.02976494     -1.45022580
