48
charge=0
O       3.81325010      2.22315793     -4.15909641
O       2.13513601      3.69299134     -4.68809853
O       0.30027214     -2.90601187      4.86609316
O      -0.48160907     -0.73965946      4.85550752
O      -1.42098811      2.16168594      1.16440845
C       0.60608876     -3.38396655      6.09165392
C      -0.25509063     -3.44745041      7.11247780
C      -1.09478966      0.10389411     -0.88810866
C      -1.58272388     -0.62398373      0.14318321
C       0.71268301      1.06159844     -3.02437669
C      -1.60437329     -2.99254890      6.89180117
C       1.75235768      3.20047224     -0.08093474
C      -0.61391448     -0.11697639      3.67118140
C       1.67348715      2.66139161     -1.42219859
C       0.68991503      1.62404052     -1.69320399
C       1.51815619      1.50528130     -3.99027785
C       2.50794034      3.10856590     -2.38134052
C      -1.14702205     -0.98283807      2.64174218
C      -1.92218008     -2.41540165      5.73121223
C       0.90387781      2.83136849      0.87803764
C      -0.36394203      1.11848768      3.19906027
C      -0.17381125      1.19516527     -0.71354258
C      -1.24697648     -0.28769868      1.48203166
C       2.49114225      2.62928670     -3.79838455
C       4.15710337      2.84629656     -5.37443179
C       3.29694248      4.11168862     -5.36344668
C      -1.35290944     -2.32697688      3.23215236
C      -0.86949874     -2.13494918      4.70163653
C      -0.15906999      1.85670090      0.61595064
C      -0.76841851      1.09169687      1.77360131
H       1.62081303     -3.75248528      6.12214530
H       0.03633595     -3.85583398      8.06313638
H      -1.34460165     -0.19486468     -1.89324362
H      -2.18888362     -1.49918808     -0.03853879
H       0.04479527      0.24451256     -3.24677426
H      -2.34592785     -3.15583258      7.65811466
H       2.52219320      3.93214954      0.11363591
H       1.50746721      1.06977094     -4.97776841
H       3.24200035      3.86936044     -2.16032054
H      -2.91079565     -2.05232694      5.50330478
H       0.93125683      3.26246535      1.86610140
H      -0.01466792      1.98372952      3.72274609
H       3.89720739      2.20189579     -6.22562672
H       5.23009461      3.03905472     -5.36972580
H       3.00881277      4.46072310     -6.35512283
H       3.79511131      4.92133663     -4.81243790
H      -2.39524409     -2.64789459      3.20118969
H      -0.73649551     -3.09137395      2.75539925
