31
charge=0
N       3.85310997      3.39596963      0.03462840
N       1.46866794      1.57877178     -2.88618400
N       0.79166346      4.76209044      1.04565243
N      -1.50616400      2.04750773     -1.09498954
C       2.96420968      2.69948243     -0.12807564
C       1.62688247      1.67648467     -1.76053472
C       0.72051154      3.66104846      0.75437679
C      -0.57882771      2.13051759     -0.43561335
O       0.18677676     -2.48039491     -0.78489460
C       1.35068387     -1.79424715     -0.87522617
C       2.55760681      0.50470420      1.66942419
C       1.34668436     -0.67812300     -0.10303354
C       1.59083035      1.04221597      2.39874081
C      -2.46142832     -1.18114632      1.39843020
C      -1.89858317     -2.07534649      0.50833856
C      -1.79267979     -0.03642625      1.84528888
C      -0.60979390     -1.79995720      0.07196760
C       0.06571387     -0.66022366      0.52572630
C      -0.51654611      0.24437423      1.40920392
C       2.37336316      0.36867569      0.18034952
C       0.30006417      1.46725415      1.75807205
C       1.87042769      1.75969308     -0.33008695
C       0.58979687      2.24943483      0.42711382
H       2.10084557     -2.20368475     -1.52344273
H       3.48620461      0.16954226      2.10047802
H       1.67986746      1.16290652      3.46602348
H      -3.46200606     -1.36307932      1.75860857
H      -2.43425272     -2.94404041      0.16334283
H      -2.29176985      0.63361516      2.52918554
H       3.31522826      0.13342939     -0.32367318
H      -0.27012558      2.12271005      2.42346127
