21
charge=0
F      -1.72350100      1.29374023      1.29865150
F      -0.71379547      3.18401262      1.49566802
F       0.16661877      0.06468956      2.66688198
Cl      1.32788669      2.22858721      3.29730337
Cl      2.93876699      1.86472601      0.72998501
O       2.44241942     -1.15483402      1.41041312
C      -0.57170813     -0.68446522     -0.49382683
C       0.39942631     -1.24212467      0.20917936
C      -0.40106827      0.68843092     -1.07318618
C       1.69845527     -0.51830582      0.41985496
C      -0.51470681      1.87893957      1.21851701
C       0.59406082      1.19667896      2.06669167
C       0.28688878      1.61648836     -0.07135777
C       1.41130594      0.95981179      0.76094731
H       3.25781155     -0.66251464      1.56939823
H      -1.50659291     -1.19163412     -0.66263730
H       0.32812682     -2.21181004      0.66952277
H      -1.36564072      1.11544862     -1.34834959
H       0.21849453      0.63442867     -1.97281270
H       2.25494715     -0.50272819     -0.53720517
H       0.58452587      2.55515559     -0.54091727
