46
charge=0
O      -4.31992111      1.60377746      0.29291657
O       1.36008945     -1.06855503      1.47807572
O       2.15671822      4.19553137      3.41163215
S       0.10525255      1.43798304     -0.49727449
S       2.89465787      2.54258552      0.90556378
C      -3.31163581      1.31718538     -0.31802303
C       2.06842933     -1.02657395      0.48365075
N      -2.37726009      0.47238318      0.21698781
N       3.07534812     -0.12697726      0.36593321
C      -3.01143851      1.85949793     -1.69337757
C       1.86051985     -1.97729642     -0.67113418
C      -1.17198304      0.09871866     -0.43419586
C       3.30287117      0.81834139      1.41497289
C      -3.39043366     -1.46074756      1.35406672
C       5.23413407     -0.80752501     -0.62328977
C       1.34140498      3.10209617      3.11041078
C       0.21358871      1.77847099      1.29200306
C      -2.66305122     -0.12957881      1.51291803
C       3.94598264     -0.00384650     -0.78623635
C       1.22438159      2.85894629      1.60183147
H       2.98458934      4.09891787      2.91899570
H      -3.78436498      2.57755332     -1.95243702
H      -3.02017338      1.05239471     -2.42396847
H      -2.03858493      2.34404990     -1.72121549
H       2.77968778     -2.49355571     -0.93107218
H       1.11270448     -2.70993309     -0.37782603
H       1.49836547     -1.43216438     -1.54092203
H      -1.32103275     -0.17183249     -1.48086577
H      -0.71373279     -0.72985222      0.10492690
H       2.70281647      0.55268831      2.28347249
H       4.36102603      0.84786082      1.67991438
H      -3.59729886     -1.88615703      2.33196283
H      -2.78527062     -2.16598534      0.78779074
H      -4.33202336     -1.30662986      0.83347707
H       5.79710865     -0.46234520      0.24022160
H       5.85402831     -0.68749910     -1.50722226
H       5.02008028     -1.86511179     -0.48908872
H       0.35504559      3.33294530      3.52202440
H       1.71250123      2.18797336      3.60189979
H      -0.77515467      2.10597596      1.61910824
H       0.47142252      0.83818347      1.78313272
H      -3.29615140      0.56989637      2.06352705
H      -1.72601804     -0.27435169      2.05400340
H       3.41431608     -0.31727099     -1.68401019
H       4.18416020      1.05812624     -0.89747710
H       0.94644862      3.79385890      1.10636787
