26
charge=0
Cl      0.76917067     -2.28049025     -1.36623355
Cl      3.49507131     -1.42856320      0.21630037
Cl      1.37733047      2.42461486     -1.91308641
Cl     -0.57534726      3.58467783      1.37004556
Cl     -0.58618740      0.93513292      3.59872491
Cl      2.27480344      0.18037883      2.88673731
C      -1.03494275     -0.70552289     -0.04988392
C       0.21808147     -1.01475007     -0.37706405
C       2.57144431      0.04508559     -0.18547099
C      -0.05736999      1.75288205     -1.10084188
C       0.75246986      2.41522733      1.13636120
C      -0.41898568     -0.14556569      2.19647504
C       1.03488503     -0.51526273      1.82191602
C      -0.96145289      0.47470907      0.88975148
C       1.15606462     -0.04649293      0.34060935
C       0.25940503      1.23458964      0.30618669
H      -1.93903426     -1.20756611     -0.33308395
H       3.09950695      0.88273491      0.26796135
H       2.58003953      0.13887470     -1.27008773
H      -0.78010522      2.56592657     -1.02675297
H      -0.44542197      0.97198199     -1.75044059
H       1.09201332      2.13545023      2.12766266
H       1.54675983      2.94228000      0.60761953
H      -0.98867666     -1.03732419      2.46233719
H       1.19282209     -1.59296014      1.88523408
H      -1.87373627      1.04855925      1.01763086
