35
charge=0
S       1.91239278      4.99479722     -0.54799831
S      -2.24048613      0.20072958     -1.08656102
N       1.09473583      1.30554673     -1.02474542
O       2.85318728      2.60402868     -1.24193941
O      -2.46221906      0.02059661      1.96647501
O      -0.33405979     -0.80348193      0.99837743
S      -0.81099777      2.13672194      1.43107975
C       1.83695461      3.39914230     -0.82342821
C       2.33702340      1.35319880     -1.33833344
N       0.74762858      2.57965606     -0.71455571
C      -0.53290278      2.90674997     -0.21166749
C      -4.41047180     -1.33001282      1.39438972
C      -0.43950611     -2.90841336     -0.19802459
C       4.16516325     -0.13363826     -0.59515473
C      -3.12208659     -1.22602653      2.19103435
C       0.26764975     -1.57389508     -0.03775203
C       3.21013592      0.22686829     -1.73671251
P      -1.49751557      0.27022576      0.72227646
H      -1.31034140      2.53310378     -0.88796166
H      -0.58726354      3.98795749     -0.08225495
H      -5.06469368     -0.49647606      1.63628250
H      -4.20088487     -1.30548075      0.32762309
H      -4.91510846     -2.26155445      1.63614437
H       0.07497477     -3.50528958     -0.94580140
H      -1.46464057     -2.74625584     -0.52525280
H      -0.44715368     -3.45158187      0.74438751
H       3.60694227     -0.42276923      0.29208079
H       4.80025811     -0.96247053     -0.89452029
H       4.79547682      0.71665781     -0.34723727
H      -2.44451120     -2.05056890      1.94642621
H      -3.32610885     -1.24166957      3.26538124
H       0.23403434     -1.00898700     -0.97400694
H       1.30710388     -1.71341140      0.26866359
H       2.57906013     -0.62283664     -1.99464219
H       3.78823010      0.52883778     -2.61207166
