40
charge=0
N       1.58239048      2.15546894      1.10753128
C       1.53777283      2.83350881      2.25976867
C       2.62733098      3.78833765      2.34489622
C       2.80127355      0.71306262     -2.85291384
C      -1.08293793     -3.01705035      0.11177029
C       1.69136726      0.00972863     -3.31508421
C      -0.90776822     -2.65011730     -1.22656160
C       3.37148991      3.61564790      1.23436170
C      -0.94771843      1.07215712      4.56208352
C      -1.44420039     -0.15669284      4.27134468
C       2.44298601      1.29899616     -1.63750288
C      -1.14774394     -1.85021786      0.86575731
C       0.66472078      0.19176414     -2.40178850
C      -0.90694123     -1.27238859     -1.28496536
C       3.14959846      2.15885955     -0.77695169
C       0.64899779      2.60617122      3.32862367
C      -1.35305278     -1.65254602      2.25328901
C       2.70353861      2.59994053      0.44528588
C      -0.17583735      1.51387782      3.44022919
C      -1.04741186     -0.50683583      2.93815305
N       1.14199426      0.95307258     -1.39147702
N      -1.02099093     -0.80481197     -0.01510735
N      -0.31656863      0.56475832      2.46304174
C      -0.73504200     -0.32954926     -2.42829829
H       2.79043747      4.45635687      3.16940582
H       3.75744899      0.79245836     -3.33101814
H      -1.13781871     -4.01515200      0.49854332
H       1.62416206     -0.55523595     -4.22408392
H      -0.80983086     -3.31429925     -2.06224726
H       4.26950502      4.12329556      0.93737513
H      -1.06962549      1.62858057      5.47126204
H      -2.05536035     -0.77866155      4.89695667
H       4.10707006      2.52110692     -1.12247587
H       0.70805106      3.28402959      4.16665568
H      -1.79918585     -2.46576933      2.80430929
H       0.69132498      1.28208367     -0.54578472
H      -1.16828165      0.15855819      0.23676163
H       0.34090473      0.56691512      1.69157909
H      -1.44994850      0.49677228     -2.34620527
H      -0.90901196     -0.84909282     -3.36943139
