40
charge=1
O       1.03460067     -0.21991182      0.06196353
O       5.79420464     -1.05781405     -2.70815884
N       3.22357894      2.73654229     -1.66580701
N       4.39861172      2.37444842     -2.14353240
O       6.80967672      0.50032830     -0.96180794
S       3.43672539      0.22702344     -1.14270694
C       0.62511409      0.91488606     -0.01579907
C       2.59021030      1.74857840     -1.11519358
C       4.68337190      1.13470704     -1.96502372
N       8.21561755      0.24829615     -0.94463568
N       1.33501561      1.92664445     -0.56131144
S       6.21596724      0.30768913     -2.54092003
C       0.11908730      0.98704082      3.21321232
C      -2.61876106     -1.91879952      1.12432673
C      -3.73891707      1.48635711      0.88857711
C      -0.76369740      1.36250410      0.47497043
C      -0.60575144     -0.10561393      2.44302142
C      -1.82684039     -0.81311906      0.44611878
C      -2.70238343      0.99838099      1.88904237
N      -1.47541649      0.36338962      1.31110805
H       8.34908696     -0.65914550     -0.50185643
H       8.61878925      0.96910289     -0.35139904
H       0.97970271      2.87095973     -0.64147819
H       0.89349453      1.46436968      2.61902858
H       0.61201219      0.51611756      4.06025915
H      -0.55020668      1.74487776      3.61164732
H      -2.77998776     -2.70108442      0.38649856
H      -2.08033695     -2.36658845      1.95364419
H      -3.59635447     -1.58961390      1.46463675
H      -4.56533512      1.91103056      1.45365567
H      -4.14417337      0.68181833      0.28254190
H      -3.35999591      2.26907508      0.23777220
H      -1.36879033      1.56813476     -0.41191584
H      -0.66030063      2.28846619      1.04399202
H       0.13648447     -0.78638774      2.02385117
H      -1.24363178     -0.66235849      3.12899974
H      -2.39402306     -0.43657167     -0.40600175
H      -0.88674191     -1.22439735      0.07485161
H      -2.37794195      1.84189886      2.49997987
H      -3.16467837      0.26582674      2.55093690
