23
charge=0
N       1.46679616      0.16845143      0.34901020
C       1.21799316      1.02500316      1.25470964
C       0.85696569     -1.28288319     -1.34064250
C       0.46228091     -0.38464518     -0.41937713
N       0.05996370     -1.88866658     -2.28872625
N       2.29800104      3.04525238      2.05496780
C       2.37191073      1.58735760      2.03680697
C      -0.15718503      1.52278666      1.61302377
C      -0.97327224      0.04397800     -0.21623791
C      -1.18891913      0.46317625      1.23737451
H       1.91016493     -1.50967128     -1.41430677
H       0.38774033     -2.77731254     -2.63189880
H      -0.93195427     -1.86523281     -2.10556042
H       3.06832313      3.42522876      2.59480608
H       2.38260439      3.40177667      1.10821139
H       3.30578849      1.19087396      1.60993218
H       2.29764370      1.24579082      3.07610389
H      -0.34955490      2.44837358      1.06281150
H      -0.19626436      1.76184638      2.67598229
H      -1.19999805      0.88755659     -0.87676447
H      -1.65520550     -0.77156758     -0.47247089
H      -2.20343009      0.84249658      1.37901424
H      -1.05931699     -0.40889431      1.88430679
