37
charge=0
O       1.21876296      1.93961772      0.94879247
O      -1.06435443     -0.42205763      3.31734795
O      -1.12064000      2.45771831     -0.20995513
O       3.36898141      3.61677666      0.14642335
O      -1.00356176      2.37025705      3.85321666
O       2.72622364     -1.33611577     -0.97761977
O       1.40609469     -2.10032962      1.41623872
O      -1.15324496      0.59476027     -2.29664676
C       1.76694787      1.20179116      0.12931193
C      -0.92716595      0.00796585      2.19649670
C      -0.82245203      1.51194565      0.47807264
N       3.07469135      1.29846171     -0.15416072
N      -1.23475129      1.28362802      1.77209792
N       1.02895660      0.24126897     -0.51781261
N      -0.48511979     -0.70233151      1.11034948
C       3.84792852      2.36183505      0.47351124
C      -1.73388163      2.30412791      2.68718696
C       1.62780289     -0.65176456     -1.49163934
C       0.01691068     -2.04316459      1.23773426
C      -1.32732032     -0.22832091     -1.19150236
C      -0.33790186      0.14090711     -0.06169171
H       2.46621036      3.69007061      0.49313247
H      -1.01750882      1.49462737      4.27104209
H       2.44836771     -1.82705498     -0.18387835
H       1.63200972     -1.71577510      2.27254377
H      -1.21047618      1.51847558     -1.99227148
H       3.51138243      0.64460832     -0.78280288
H       3.83333011      2.20426237      1.56487681
H       4.87275090      2.29813764      0.10404617
H      -2.79663571      2.07951789      2.88264431
H      -1.64227719      3.26283069      2.17031490
H       0.85413503     -1.34000079     -1.84427716
H       1.99052056     -0.07217035     -2.34945012
H      -0.51036962     -2.49745619      2.08559831
H      -0.19606068     -2.60139963      0.32245491
H      -2.34290815     -0.14729505     -0.77224495
H      -1.18582080     -1.25879907     -1.52792305
