38
charge=0
N       4.28277325     -3.81904727      5.31056809
N       3.85489337     -3.17583923      1.17076392
F      -0.65784640      4.48560225     -3.80211142
C       3.78703495     -3.16778189      4.50650731
C       3.51374276     -2.80047408      2.20034575
C       3.17338516     -2.38128451      3.50536452
C       2.39633891     -1.30191408      3.81021743
C      -0.55466536     -0.16263262     -1.47214608
C       1.52147177      0.87320792      2.98076013
C       1.72225200     -0.51765557      2.79010526
C      -0.73443291      1.23780322     -1.30201399
C       0.07207597     -0.91912187     -0.53023412
C       0.89279846      1.62914398      2.03896056
C       1.23556717     -1.09930588      1.63320829
C      -0.25004137      1.81341030     -0.13509882
C       0.57521596     -0.34386682      0.65719354
C       0.39592903      1.05238366      0.84656617
N      -1.38565010      1.96036459     -2.26530602
C       2.23997333     -0.88788536      5.23904101
C      -1.58929866      1.42659923     -3.59361308
C      -0.70798407      4.34758274     -2.43565371
C      -1.78457744      3.32612903     -2.04726048
H      -0.93838686     -0.64346070     -2.35663274
H       1.90360503      1.34427445      3.87352033
H       0.19643324     -1.98115194     -0.68344133
H       0.76529994      2.69145259      2.19341393
H       1.32580944     -2.16427580      1.47781514
H      -0.34289067      2.87322604      0.04569044
H       2.46643123     -1.71221813      5.91225696
H       2.93080416     -0.07455159      5.46827797
H       1.22770149     -0.53459316      5.42694626
H      -0.70101181      0.89562957     -3.93807336
H      -2.44704441      0.74636070     -3.62655890
H      -1.77200236      2.24703633     -4.28345128
H      -0.93875777      5.33781756     -2.03099860
H       0.28661103      4.02398627     -2.11575085
H      -2.67788432      3.52773285     -2.64597916
H      -2.04621451      3.47030293     -0.99693466
