49
charge=0
F       4.16013137      0.81002171      1.71529679
F       1.64786119      1.61750076      1.37212135
F       0.13493262      0.10520176      1.24067080
Cl      1.29107569     -1.87799416     -0.70375907
N      -4.24469224      2.30479951     -3.64106452
N       3.16748973      0.89961532     -2.09592165
N       4.35106693     -3.18353495      4.36270850
C      -2.96036992      2.19528942     -3.90676304
C       1.94714182      1.20465199     -2.41511880
C       1.42665391      1.82543938     -3.57549635
C       0.09227308      2.03577260     -3.66571535
C      -0.80083211      1.62684419     -2.62305011
C      -2.22921362      1.84589170     -2.75212422
C      -0.28549216      1.01737645     -1.51613544
C      -3.20277499      1.75797357     -1.76528611
C       2.23639935     -3.77064408      3.95360997
C       3.61478661     -0.30792798      2.24657028
C       2.26552911     -0.60997767      1.93701304
C       4.39975953     -1.08711343      3.04574448
C       1.68082806     -1.73725366      2.45609586
C       3.81715503     -2.24922804      3.57200244
C       2.45154975     -2.57283639      3.27287962
N       3.38902154     -4.06855820      4.56726762
N       3.08734244      0.36438234     -0.84843676
N       1.05648127      0.84608798     -1.39926663
N      -4.38101835      2.04259723     -2.34497898
C       3.65026807     -5.21729730      5.38637733
C       1.46425881      0.29918251      1.03881542
C       1.79737380      0.16355326     -0.44697000
C      -6.85474055      1.64061533     -2.50861741
C      -6.65842338      3.09074167     -2.19428056
C      -5.65571894      2.07972440     -1.71988768
H      -2.61079971      2.35369117     -4.90693337
H       2.11881729      2.10315588     -4.35189018
H      -0.32269129      2.51442028     -4.53796041
H      -0.89727517      0.64524684     -0.71335154
H      -3.12839609      1.53266320     -0.72112542
H       1.37091976     -4.39663365      4.02607371
H       5.42067405     -0.81883803      3.25767121
H       0.65549085     -1.97917533      2.22946467
H       3.90281127     -0.08041758     -0.46396050
H       3.51885378     -6.13480838      4.81097681
H       4.67936421     -5.14896553      5.73220193
H       2.97668639     -5.23649876      6.24429215
H      -7.62918693      1.09147702     -1.99645787
H      -6.67303928      1.32640579     -3.52408860
H      -6.34745813      3.73343729     -3.00247719
H      -7.29491447      3.56093565     -1.46117700
H      -5.59595991      1.84300810     -0.66556112
