45
charge=0
N      -2.66014650      2.00680359      0.74609283
S      -5.74238334      3.61890799      2.60715244
S       1.82963553      1.37373092      3.09411832
C      -6.63673354      4.51147990      1.44637604
C      -6.06215933      4.47031915      0.21549827
C      -4.87874650      3.70895139      0.19343332
C      -4.56097096      3.17386381      1.41195179
C      -3.41178046      2.34182645      1.72464505
C      -1.21534555      0.30110658     -0.08626663
C      -0.49065107      1.57577555      1.79221098
C      -0.01613966     -0.37337185     -0.08203983
C      -1.48327120      1.29858420      0.85418842
C       0.72023146      0.90221654      1.78829010
C       1.00390730     -0.09146165      0.83777365
N      -3.23124045      1.99109948      3.03674539
N       5.24514660     -1.94706058     -1.38485284
N       2.21098081     -0.76935448      0.80476302
C       6.56700037     -1.39252972     -1.58250453
C       2.98588214     -0.01808870      2.99258674
C       3.33616233     -0.23587085      1.52633116
C       4.18657657     -0.99414303     -1.66328501
C       2.41123492     -1.92522153     -0.03198766
C       2.80386680     -1.61885387     -1.48800176
H      -7.53432244      5.01186804      1.75147545
H      -6.47087222      4.96786821     -0.64579679
H      -4.26718373      3.54631034     -0.67387847
H      -1.97010697      0.05866576     -0.81805838
H      -0.63576530      2.35819744      2.52319081
H       0.13436520     -1.13465128     -0.82931185
H      -2.56359288      1.26194666      3.22926377
H      -4.00327871      2.08006177      3.67527298
H       5.16335066     -2.28542648     -0.43053388
H       6.67898835     -1.12494629     -2.63352776
H       7.30998560     -2.14874131     -1.33557052
H       6.76197566     -0.49283041     -0.97722484
H       2.51497754     -0.90472332      3.41837906
H       3.86004080      0.25601328      3.58053571
H       4.16559878     -0.94355280      1.45350306
H       3.66441322      0.72616737      1.10507734
H       4.26766035     -0.07901642     -1.05168671
H       4.30125668     -0.69448625     -2.71039319
H       1.49107588     -2.51733653     -0.03411110
H       3.18486148     -2.54651302      0.42994930
H       2.06916470     -0.93667463     -1.91698079
H       2.77932481     -2.55393566     -2.04981785
