15
charge=0
N       2.84026483      0.03616799      0.26200820
S       0.85202391     -1.46883953      1.43879545
C       1.62943216     -0.08704154      0.56623018
N       0.67838245      0.82030260      0.23730817
C       1.05676288      2.11012718     -0.27871416
C      -0.81379571     -0.79370284      1.14182574
C      -0.59334633      0.69163456      0.90562005
H       3.44664691     -0.73323641      0.50537671
H       0.35185789      2.41227396     -1.05492846
H       1.06563227      2.86837517      0.51138048
H       2.05513769      2.01942851     -0.69823023
H      -1.22288346     -1.28914782      0.26073494
H      -1.44017584     -1.00024069      2.00588597
H      -0.58793888      1.23967860      1.86199301
H      -1.38034274      1.11187822      0.27237242
