40
charge=0
N      -0.78359992     -2.99552088      2.26297866
C      -0.14279279     -2.55190212      1.41389583
N       3.31740068     -1.21275068     -2.55287159
O       2.51447334     -2.80929695     -1.04480399
O      -1.32083559      2.15460578      0.57984954
O      -2.51384300      1.18025333      2.22451175
C       2.49449717     -1.56977292     -1.58788448
C       1.58547004     -3.02815621     -0.08001492
C       1.98073085      0.52153163     -2.03287155
C       0.69924283     -2.10550049      0.38978187
C       1.62465296     -0.53013723     -1.20818784
N       1.61668514     -4.32810539      0.33508820
N       2.99022216      0.05963153     -2.81024158
C       1.48300288      1.91366203     -2.18925161
C      -2.55082134      2.84147131      0.58709862
C      -3.39269455      2.12742732      1.66631814
C      -1.89617973     -0.20124818      0.30835678
C      -0.21357299      0.54059104      1.99658945
C      -0.79958403     -0.40728933     -0.72959018
C       0.91689850      0.34020777      0.99548620
C      -1.50188075      0.92630955      1.27470078
C       0.59528224     -0.67405451     -0.12416021
H       1.13889101     -4.56058091      1.18893870
H       2.44013878     -4.85317849      0.09459983
H       3.49083528      0.56069811     -3.52562750
H       0.74218835      2.15304366     -1.43239053
H       2.30908063      2.61935585     -2.10406971
H       1.02942572      2.04256192     -3.17252803
H      -2.35288764      3.88805010      0.83241148
H      -3.02953790      2.78706644     -0.39879389
H      -4.27049508      1.63574912      1.22762664
H      -3.71755026      2.79610303      2.46534741
H      -2.82839268      0.05683827     -0.19888821
H      -2.06689822     -1.10240212      0.89604252
H      -0.41151156     -0.36373132      2.56977268
H       0.04825909      1.33887950      2.69220086
H      -1.06694279     -1.24043530     -1.38496640
H      -0.73915372      0.49393455     -1.34108944
H       1.13080280      1.30499283      0.53557669
H       1.81642140      0.01276224      1.52313977
