19
charge=0
O       3.41427311     -0.17030335      3.46088212
O      -2.35131605     -0.66592374     -2.24203986
Cl      5.07243799      1.91662321      1.71192132
Cl     -4.01906903      1.67825761     -0.87003503
Cl      3.04571550      1.94888284     -1.14164632
Cl     -1.99424153      2.19901705      1.93823137
O       1.92824964     -0.39988875      1.78703829
O      -0.86556480     -0.60455407     -0.55343974
O       0.52818254      0.91635496      0.49659908
C       3.04214080      0.12646745      2.37351211
C      -1.98123979     -0.18907754     -1.21998429
C       3.64829533      1.06925187      1.38897662
C      -2.59190301      0.90366240     -0.40827703
C       2.88161573      1.08014446      0.28681100
C      -1.82592601      1.10291488      0.67624574
C       1.70451813      0.15876420      0.51197642
C      -0.64490294      0.16178465      0.60929266
H       1.64102270     -0.65840531     -0.22344950
H      -0.57792102     -0.51960594      1.47175198
