42
charge=0
O       1.20422588     -2.59980129      3.29362465
O      -0.88673310      4.03731867      0.01419724
O       0.44164368     -1.61333574     -2.44353464
O       2.27949114      2.80775230      3.47137027
S      -3.06397233     -0.89266682      1.69889635
C      -1.66417111     -0.30202910      2.01015871
N      -0.69226616      0.25230786      2.43478842
O       0.46929540     -1.82788935      1.32163614
O      -1.07507470      1.80036556      0.01566165
O       1.11439536      0.46629046     -1.89373857
O       1.71151150     -0.33732164      0.13446827
O       2.27055936      2.08515756      1.34732970
C       0.49642854     -2.72603513      2.33473710
C      -1.57668622      3.05754879      0.02438339
C       0.98705002     -0.59227527     -2.74119792
C       2.85707989      2.63065221      2.43561396
C      -0.47252195     -3.83604236      2.07358457
C      -3.07432182      3.01981149      0.06334202
C       1.61130538     -0.26913711     -4.06519145
C       4.28533986      2.97935371      2.14316327
C       1.34627747     -0.71974715      1.41164333
C       0.33430402      1.66143453      0.02219392
C       0.66920840      0.28694658     -0.58306107
C       0.68272652      0.44832181      2.21945509
C       0.89555241      1.77032589      1.44931162
H      -1.48147175     -3.46921585      2.25668394
H      -0.40876354     -4.14221930      1.03328525
H      -0.26585242     -4.66835471      2.73900371
H      -3.47599681      3.96040759     -0.30074729
H      -3.44279603      2.18395184     -0.52327996
H      -3.38849213      2.87631700      1.09593422
H       1.22859051     -0.94250320     -4.82595820
H       2.68786826     -0.40297941     -3.97881458
H       1.41563689      0.76607844     -4.32691357
H       4.68760562      2.30321849      1.39569537
H       4.86705851      2.94307336      3.05938563
H       4.31781980      3.99436908      1.75084630
H       2.27148382     -1.03569233      1.91107463
H       0.79216881      2.45219437     -0.58651502
H      -0.22843326     -0.35451510     -0.57374713
H       1.15423390      0.53157327      3.20526717
H       0.37694329      2.57504923      1.98903604
