26
charge=1
C       2.16040596     -2.64553035     -1.35143814
C      -1.61178704      3.10658708      1.11521485
C       1.11242073     -3.45638770     -0.89834829
C      -2.60243917      2.20816428      1.53047045
C       2.10520793     -1.28693906     -1.19158020
C      -0.47773310      2.65182161      0.49754065
C       0.89053136      0.74591153     -0.37771894
C       0.02040724     -2.89442968     -0.29001663
C      -2.44381574      0.86305068      1.32093976
C       0.99721636     -0.66886720     -0.56952002
C      -0.27620888      1.27301016      0.26322786
C      -0.05370537     -1.50445922     -0.11780606
C      -1.28873458      0.37887245      0.68968781
N       1.85851353      1.55656697     -0.78759673
N      -1.13700207     -0.95353707      0.48478225
H       3.01452178     -3.09816656     -1.82878182
H      -1.74694615      4.16261500      1.28489630
H       1.16816421     -4.52515635     -1.03021625
H      -3.49103896      2.57903958      2.01585025
H       2.93016293     -0.69304634     -1.55271954
H       0.26435458      3.37213223      0.19069786
H      -0.79278536     -3.51052271      0.06264526
H      -3.20150406      0.16218651      1.63701406
H       1.79434039      2.55229041     -0.65769216
H       2.68290644      1.19738134     -1.23907049
H      -1.87545245     -1.57258651      0.79953814
