37
charge=0
O       0.87133839     -4.62611250     -3.97201687
O      -1.82894070     -0.04920436     -4.02720891
O       1.84864375     -5.11268000     -2.12031337
Cl     -0.17953023      1.85463759      5.40288135
Cl      3.87337738      0.65249444      2.04954470
N      -1.97522569      2.09128695      0.39865684
C      -0.97027114      1.29983075      0.33436712
C      -0.76255512      0.43755571     -0.81497852
C      -0.47985107      1.54282952      2.74406374
C       1.32298531      0.99474931      1.25291604
C       0.62178966     -1.70452389     -0.31037063
C       1.03760331     -2.85829974     -0.90769295
C      -0.07862473     -2.31683332     -3.01431869
C       0.39921474      1.52574612      3.80132552
C       2.19152984      0.98912825      2.32230448
C      -0.03042858      1.25971609      1.45446589
C      -0.15360775     -0.79669335     -1.06090574
C       1.76740967      1.24530684      3.63632339
C       0.69977929     -3.15713851     -2.24929915
C      -0.50350065     -1.14187799     -2.40524902
N       2.63184876      1.26761587      4.67607381
N      -1.44689158      0.75711474     -1.95245219
N       1.17377626     -4.38664689     -2.82146736
N      -1.29864297     -0.15969368     -2.91071193
C      -2.90847012      2.15836607     -0.68801361
C      -2.26642846      1.92770901     -2.06514990
H      -1.52246057      1.76958753      2.89393250
H       1.70566525      0.81769542      0.26027597
H       0.86885087     -1.48737988      0.71587640
H       1.63475914     -3.57920390     -0.37136131
H      -0.34945997     -2.55930173     -4.03018884
H       3.56519434      0.92304772      4.53379584
H       2.25841591      1.31925411      5.60791754
H      -3.37314788      3.14626270     -0.65875003
H      -3.69542415      1.41362506     -0.51046426
H      -3.00499015      1.75572227     -2.85208081
H      -1.64373025      2.78630852     -2.34172761
