21
charge=0
O       1.52174683      3.00771983      2.42031014
O       3.06460354      2.75086482     -0.40037824
N      -2.11442281     -0.64571703     -0.85163580
N      -0.95002976     -0.15849167     -0.45828344
O       0.42514592      1.69341144      3.84945318
O       3.65775783      1.38653273      1.26470713
S      -3.36675200     -2.47176417     -2.35033714
S      -0.35349526     -2.07433434     -2.06394306
S       1.72333155     -0.36094967     -0.66539335
C       1.02936337      1.94613492      2.68867944
C       2.79940832      1.87357733      0.36801635
C      -2.01408543     -1.63236737     -1.67400848
C       0.07039946     -0.75716492     -0.97335068
C       1.02628809      0.73609152      1.78357639
C       1.47343212      1.12641171      0.38370781
H       0.44136625      2.47619207      4.42342282
H       4.48796917      1.88780298      1.23797993
H      -4.26211825     -1.71576516     -1.71769634
H       1.70741455     -0.00277133      2.21251594
H       0.02247665      0.30978400      1.75604090
H       0.72292095      1.73752372     -0.12066126
