34
charge=0
S      -1.24410175     -4.48429861      1.17728627
Cl      3.76570306     -0.96807974     -1.91611218
N       0.84983100      0.65883839      0.08690997
N       1.59495645     -2.79154175     -0.76711649
C      -0.14547066     -3.50169447      0.46043161
C       1.47931627     -0.40770468     -0.40186430
C       1.02321078     -1.75742809     -0.21774579
C       2.62831926      0.01174632     -1.11007181
C       2.64352110      1.39172234     -1.01037259
N       0.88259690     -3.85802581     -0.35363122
N       1.55090772      1.71924898     -0.28211544
N      -0.04640406     -2.13526249      0.55427228
C       3.59983185      2.38670487     -1.54760028
C       1.12106444      3.03443987      0.09160129
C      -4.12739977      0.68866260      0.29195813
C      -0.96190752     -1.31261308      1.29553380
C      -3.03690240      0.11234674      1.18607173
C      -2.06219528     -0.75276779      0.39400991
H       1.12152315     -4.79084119     -0.64537126
H       3.10023315      3.07614025     -2.22764382
H       4.38536926      1.86572674     -2.08684912
H       4.04755506      2.96744170     -0.74166935
H       0.94242387      3.64542279     -0.79470100
H       0.19611467      2.93113092      0.65439442
H       1.87360006      3.52287228      0.71307631
H      -4.69795715     -0.11083260     -0.17461931
H      -4.81117833      1.30487562      0.87082081
H      -3.69233466      1.30206239     -0.49424990
H      -0.39985427     -0.49540154      1.75070492
H      -1.40062792     -1.94892111      2.07004641
H      -2.48669823      0.92630605      1.66344166
H      -3.49357081     -0.48924856      1.97428921
H      -1.59947799     -0.15754930     -0.39558897
H      -2.59999754     -1.58347854     -0.06752601
