46
charge=0
N       0.41729946     -0.79776493     -3.17557526
C       0.18106320     -0.56638988     -2.07281154
N       1.91028821     -1.16985409      0.37302867
S      -0.02066153     -0.07542458      1.83255396
C       0.71536518     -0.54688254      0.32696354
C      -0.12470635     -0.27127899     -0.74315318
C      -1.35786036      0.32256228     -0.33554330
C      -1.44204723      0.50013367      1.00429593
C       2.75870956     -1.12580711     -0.59333337
N       3.85711170     -1.87097589     -0.57056250
N      -3.61685057      1.50142392      0.74733793
C      -2.15938184      2.22706836      2.64765446
C      -3.26857686     -0.01540320      2.58551026
C      -2.36029243      3.18020910     -0.64172643
C      -4.52739768      2.16611982     -1.36596517
C      -2.46893469      0.74124115     -1.23766612
C       4.88960999     -1.85278156     -1.58351652
C       4.13759290     -2.81526090      0.49215664
C       5.70635211     -3.10788903     -1.28160140
C       5.58397246     -3.23009988      0.23747748
C      -2.61633205      1.08243452      1.72485194
C      -3.22974007      1.91075736     -0.59346149
H       2.65744958     -0.46980270     -1.46370181
H      -4.23477273      2.18758582      1.16397758
H      -3.01595884      2.64174899      3.17628376
H      -1.44766847      1.85152298      3.37911648
H      -1.68201442      3.02078197      2.07890841
H      -2.55898615     -0.39496608      3.31609995
H      -3.59536053     -0.83198329      1.94754405
H      -4.13505818      0.38675602      3.10421799
H      -2.83371407      3.98485851     -0.08149648
H      -2.23541223      3.50670981     -1.67158417
H      -1.37454739      2.99200821     -0.22272025
H      -4.31577424      2.32633652     -2.41980042
H      -5.03550719      3.04599988     -0.97687652
H      -5.19106725      1.31149827     -1.26525367
H      -3.15675838     -0.09755509     -1.37760893
H      -2.08002912      1.02609536     -2.21687753
H       5.50752383     -0.95147641     -1.47800043
H       4.45340641     -1.85771446     -2.58496811
H       3.97703855     -2.33974802      1.46161096
H       3.45306918     -3.66728905      0.41614723
H       5.25138874     -3.97359081     -1.76347309
H       6.73697150     -3.02147296     -1.61788102
H       6.26727541     -2.53337439      0.72416456
H       5.79594732     -4.23423289      0.59675349
