27
charge=0
S      -1.88364331     -3.48842341      1.49082829
N      -0.26342034      0.42386134     -1.17408876
N       1.21404533      1.84477529     -0.01594239
S       0.00024686     -1.27827307      2.29653884
C      -1.05953882     -2.11586672      1.16546842
C       0.52159815      1.48917461     -1.08052919
C      -0.32621403     -0.32418338     -0.07884005
C       1.17165068      1.10920365      1.10711542
C       0.36378539     -0.04526679      1.10217167
N      -1.09179551     -1.45408311     -0.01790596
N       1.90370805      1.53251831      2.15086033
C       0.64239004      2.35330682     -2.29128393
C      -1.88174062     -1.91971842     -1.12744007
C       1.92939274      0.82570465      3.40818701
C       2.70068825      2.73023544      2.04889239
H      -0.27745775      2.31227122     -2.86640274
H       0.86862341      3.37353641     -1.99770172
H       1.45514283      1.98320479     -2.91450674
H      -1.73005690     -1.22257101     -1.94808632
H      -2.93457018     -1.95699605     -0.84352740
H      -1.56531208     -2.92437218     -1.41193524
H       2.58438988      1.35839412      4.09302512
H       0.93307294      0.77061691      3.85256700
H       2.30929117     -0.19090350      3.28400059
H       2.37062219      3.46748137      2.78418040
H       3.75355911      2.49847338      2.22403510
H       2.57932732      3.13568401      1.04810470
