31
charge=0
O      -0.89259991      3.52444487     -0.79361933
Cl     -3.39147576     -4.80803412     -1.84468944
N      -0.45184831     -0.52234985     -1.88258446
N       2.36008451      1.95968527      0.47596453
N       2.42858736      1.65159061      2.78913867
O      -1.01606697      0.05274148      0.20251807
C      -0.43528079      2.65367065     -1.46639680
C      -0.30868717      0.32205131     -0.91901356
C       1.10871698      1.88224286      0.35685827
C       3.05209206      1.82062362      3.93967862
C       2.96410841      2.19325392      1.69776797
C       4.22739145      2.54285388      4.07548976
C       4.15097800      2.93058702      1.72235189
C       4.78170963      3.11303035      2.93722665
C      -3.04879488     -2.99775969      0.11123249
C      -1.84046887     -2.62183249     -1.97492290
C      -2.53417226     -1.85471054      0.69208709
C      -2.70414086     -3.36431483     -1.19257162
C      -1.32094622     -1.47230433     -1.39687276
C      -1.67048532     -1.10235277     -0.08129564
C       0.51868859      1.56241694     -0.97963915
H      -0.69164313      2.53023058     -2.53412118
H       0.40564788      2.05771299      1.17380182
H       2.58039153      1.35102517      4.79347182
H       4.69738131      2.65191516      5.04007878
H       4.53644056      3.34827610      0.80654018
H       5.69748769      3.68314308      2.99840631
H      -3.72878728     -3.62325703      0.66703065
H      -1.57980793     -2.91267375     -2.97808844
H      -2.79260815     -1.56272185      1.69629832
H       1.30260220      1.41530941     -1.72763327
