49
charge=1
N       0.54299251      2.00568353     -2.37437544
C       1.13320737      1.10843953     -1.61031003
C       2.34814746      0.50835180     -2.03000819
C       2.97751258     -0.41652572     -1.26561439
C       1.24503860     -0.25681332      0.42018600
C       0.59376903      0.69316087     -0.34487227
C       2.44924610     -0.84261170     -0.00288050
C      -2.22236015      0.17675467      3.75518693
C      -2.64333916     -0.45354665      2.59537036
C      -1.26212411      1.17393495      3.69721994
C      -1.22976431      3.51917608     -2.78854577
C      -2.38769112      4.10773333     -2.39550940
C      -2.10477207     -0.09146325      1.37236098
C      -0.71775080      1.54454444      2.47951602
C      -2.38220187      2.82868254     -0.32482848
C      -0.59152667      2.55570665     -1.96778230
C      -2.98982964      3.77475273     -1.14932795
C      -1.14299557      0.90746810      1.32222929
C      -1.20143958      2.21351743     -0.71251808
N      -4.13528322      4.37659602     -0.78589074
N      -0.57375530      1.27946984      0.06166435
N       3.07865717     -1.77977930      0.73117442
C       5.50678417     -1.25843345      0.66199927
C       2.82511132     -1.34813567      3.16727567
C       4.39851617     -2.27096301      0.37423074
C       2.51764969     -2.26024770      1.97969279
H       2.74771217      0.81779528     -2.98202211
H       3.89300891     -0.84432282     -1.63474290
H       0.80315294     -0.52809321      1.36294399
H      -2.64403587     -0.10902525      4.70593988
H      -3.39165926     -1.22920404      2.63999188
H      -0.93512626      1.66599912      4.59976112
H      -0.75750426      3.76000562     -3.72674187
H      -2.87208383      4.84125164     -3.02141960
H      -2.42300861     -0.57564005      0.46127561
H       0.03060912      2.32070327      2.42009497
H      -2.83950295      2.57789456      0.62034465
H      -4.57754544      4.15949886      0.08974534
H      -4.56663304      5.05812977     -1.38500949
H       5.33358326     -0.32289087      0.13671040
H       5.56804163     -1.04636575      1.72562381
H       6.46072014     -1.66609826      0.33984439
H       3.89121280     -1.33436949      3.37426360
H       2.31134224     -1.71647534      4.05072947
H       2.49926059     -0.32936374      2.97386405
H       4.58567248     -3.17563183      0.95402175
H       4.41219983     -2.55754033     -0.68049306
H       1.43754488     -2.38056665      1.86447702
H       2.93092420     -3.25145977      2.17483751
