37
charge=0
O      -2.09352455      0.35680560      1.36296263
O       2.27098718      2.88492736      3.21206232
F       3.75077497      0.52477081     -0.82846153
C       0.06105886      2.33871480      3.38952063
C      -1.06328719      1.68624551      2.90961144
C       2.49492915      1.38380667      0.92026867
C       0.23296095      0.09250712     -0.02706837
C       2.54778024      0.62859846     -0.21462897
C       1.29441659      1.51811444      1.62880602
C       1.41821616     -0.05075623     -0.75132976
C       0.15603497      0.85068803      1.13645141
N       1.24925098      2.28620437      2.78093085
N       1.46639687     -0.80155710     -1.87254223
N      -1.06440181      0.94576086      1.80052108
C      -0.24790680      3.09589630      4.63989133
C      -2.24454062      1.93754586      3.78901910
C       0.34359193     -1.60290612     -2.31984724
C       2.57793682     -0.86600284     -2.80441973
C      -1.61742829      2.53383260      5.06197036
C       0.92514175     -2.45948056     -3.44077404
C       1.98713102     -1.54244377     -4.03884093
H       3.37491081      1.88208582      1.29619318
H      -0.68372814     -0.37429021     -0.34621295
H      -0.29658916      4.16604235      4.42172138
H       0.52708203      2.95406372      5.39321847
H      -2.80541868      1.02091359      3.97190737
H      -2.92366654      2.64133721      3.30072239
H      -0.46096510     -0.95900413     -2.69760285
H      -0.05079895     -2.20680443     -1.49891944
H       3.39554182     -1.46450819     -2.38533204
H       2.96177139      0.13073129     -3.02996720
H      -1.47406741      1.74440046      5.79988083
H      -2.25035226      3.29889478      5.50548298
H       0.16993392     -2.76296676     -4.16189283
H       1.39304813     -3.35283864     -3.02602169
H       1.51809107     -0.80034082     -4.68584487
H       2.73924464     -2.07943052     -4.61187872
