45
charge=0
O      -0.61659083     -5.23739980      3.48140789
O       1.69438703      0.62695128      0.90484346
N      -1.46772830     -3.48195543      2.27416167
N       2.98785345     -0.80366354     -0.35049401
N       2.19174063     -1.75170751     -0.18196958
N       0.05973508      3.46386808      1.55017467
O       5.23827030      0.11181310     -1.30901452
S       1.07964803     -4.03647153      1.71746090
C      -0.57806276     -4.36022857      2.68839471
C       2.69166273      0.46111474      0.21833782
C      -1.08465342     -2.65783913      1.32623291
C      -1.81112145     -1.18832399     -0.43485027
C      -3.03245695     -1.30391075      1.60328435
C      -2.39912012     -0.03818212     -0.75596462
C      -3.60073336     -0.12739813      1.36318666
C       0.95077209     -1.70767918      0.24362733
C       0.30480388     -2.73969294      0.90344271
C      -0.71899619      3.74563988      0.52071974
C      -0.18078618      2.35395323      2.22168825
C       5.38169732      3.64073554     -0.59128091
C       4.19974510      3.85650066      0.11361581
C       5.70012211      2.38319278     -1.04972389
C       3.35396697      2.80143941      0.35264115
C      -1.76316401      2.93325903      0.11033714
C      -1.19483915      1.46501975      1.89370501
C       4.85161809      1.29319732     -0.82402733
C       3.65742317      1.50758205     -0.10180164
C      -2.00780919      1.75594721      0.80831216
N      -1.93992185     -1.73395386      0.84097822
C      -3.07536904      0.78942823      0.29864581
H       4.56049763     -0.56953532     -1.09532043
H      -1.29852793     -1.80781961     -1.15571784
H      -3.32965609     -1.98512899      2.38347271
H      -2.35636151      0.33908587     -1.76401311
H      -4.44070716      0.20489000      1.94950342
H       0.36127652     -0.81493759      0.02224864
H      -0.48993380      4.66363323     -0.00457907
H       0.47552236      2.15577677      3.05736831
H       6.05395418      4.46400602     -0.78184799
H       3.95069472      4.84279816      0.47190178
H       6.61042649      2.19957987     -1.59851257
H       2.43067374      2.94438362      0.89579394
H      -2.36621932      3.20816060     -0.74214735
H      -1.33296900      0.56839070      2.47659471
H      -3.88778797      1.37845700     -0.13784193
