40
charge=0
N       1.83113065     -2.69599958      0.67312158
C       1.12677720     -2.01435236      1.26271778
N       1.48615056      0.46947216      3.44148057
O       5.39683593      1.93079273      1.16760136
O      -2.94479209      1.76308485      2.89236221
O       1.28469727      0.97708567      1.29867037
C       1.04017675      0.14931484      2.31026027
C       5.00455573      0.64580750      1.19807209
C      -3.71282321      0.67451725      3.04736434
C       4.54125820      2.58216684      0.36723428
C      -1.87498590      1.39674806      2.17165197
C       3.89630795      0.46016240      0.43821051
C      -3.15179658     -0.39950937      2.43167779
C       3.57421945      1.73818196     -0.10994505
C       0.68727141      0.79098751      0.06561159
C      -1.94230484      0.07101130      1.85163370
C      -0.39968196      0.02414906     -0.09956047
C       2.50695248      2.06884859     -1.03309094
C       1.25112929      1.60307597     -1.00828795
C      -1.12025847     -0.08651856     -1.40776415
C       0.24907446     -1.12265671      1.97570199
C      -0.94842495     -0.74141558      1.07682114
C       0.27010973      1.86982876     -2.11635032
C      -0.32967134      0.53477061     -2.55523377
H       1.31869152     -0.19379975      4.18786658
H       5.58730586     -0.03312914      1.78814379
H      -4.62115363      0.78575913      3.60514484
H       4.69287490      3.63482542      0.23137895
H      -1.14428901      2.15042559      1.95421944
H       3.38692491     -0.46458919      0.25855995
H      -3.53900742     -1.39685878      2.38591436
H       2.78426001      2.74534125     -1.83246243
H      -1.32977539     -1.13796318     -1.62326491
H      -2.08771599      0.41879846     -1.30314113
H      -0.08487564     -1.60285801      2.90161049
H      -1.44051462     -1.65765943      0.73184983
H       0.76866017      2.35964457     -2.95260269
H      -0.52894580      2.52511288     -1.75866442
H       0.48086506     -0.13688180     -2.84442934
H      -0.98007258      0.67481456     -3.41989723
