49
charge=0
O      -2.50974523     -2.21569453      1.99061768
O      -1.60694317      0.59725023     -1.46695979
O       2.32470806      0.18083382      3.35940461
O       2.10321146      2.62041959      3.57125906
Cl     -4.03816528      1.23480100      0.78602941
S      -1.90488629     -1.69704130     -3.70062373
C      -2.22366009     -2.10392869      0.82797822
C      -1.89951067     -0.50042490     -1.07510816
C      -1.80176318     -3.45057590     -3.62751900
C      -1.70378372     -3.96683917     -2.40659935
C       2.55277789     -1.70333631     -0.24789303
C       1.92352945     -1.45802482     -1.45940742
C      -2.05591055      2.30412696      2.26972808
C       2.75733698     -0.67130187      0.64712346
C       1.51176345     -0.17490697     -1.76567685
C      -0.75854641      2.33868003      2.75204097
C      -0.30960066      0.21340146      1.72030105
C      -2.46139322      1.25034233      1.45934535
C      -1.58454558      0.20485546      1.17980110
C       2.31728284      0.61880196      0.35113383
C       1.69791826      0.87662708     -0.87596047
C       0.10330045      1.29383480      2.47302708
N      -1.92996816     -0.83485324      0.26662597
N      -2.15556585     -3.13612218     -0.04882240
N       2.51474329      1.64189209      1.29377955
C      -2.28479283     -1.68819356     -1.91541213
C       1.25447623      2.25654019     -1.27288018
C       2.45912343      2.99395180      0.77828530
C      -1.57336521     -2.91232223     -1.34718368
C       1.22284458      3.21758536     -0.08868114
S       1.86164220      1.42238918      2.82696890
H      -1.81525541     -3.98383826     -4.55865827
H      -1.62119683     -5.01399239     -2.18106859
H       2.89513024     -2.69794683     -0.00367012
H       1.77543781     -2.25865924     -2.17059323
H      -2.74786475      3.10158528      2.48981932
H       3.23920972     -0.84908200      1.59378094
H       1.02473287      0.02648570     -2.70875009
H      -0.39744094      3.16868280      3.33885414
H       0.36423492     -0.60701065      1.53729519
H      -2.23082342     -4.06560699      0.33453884
H      -3.37150544     -1.82607781     -1.83020646
H       1.94600877      2.63225851     -2.03406282
H       0.26561384      2.18893397     -1.73007688
H       2.47276005      3.65664329      1.64315247
H       3.36557672      3.16320242      0.18754302
H      -0.49393448     -2.68180990     -1.22886236
H       1.20179220      4.24981229     -0.43963670
H       0.32501259      3.04365279      0.50587962
