38
charge=0
C       3.97268845      0.04810136     -0.83377113
F      -0.29648398      1.47320785     -1.31701254
F       2.53185335      4.02380872     -2.95751431
F       4.13577442      4.29473526     -1.53357883
N      -1.04920653      3.98921387      2.02807545
N      -1.23110794     -3.97868152      0.43790185
N       3.22799112      0.91046756     -0.57029456
O      -0.38934773      4.60682135      0.99620602
C      -0.53499831      2.79519572      2.18266652
C      -0.36945991     -3.38148912      1.22229388
C       0.52736137      3.75758267      0.53468262
C       2.26912518      3.03992486     -0.83934715
C       2.32425330      1.84941928     -0.20319770
C       0.50503913      2.58495716      1.24318395
C      -1.04908599     -0.72409719     -1.08781963
C       0.62727499     -0.96600459      1.19954900
C      -0.26281978      0.30504098     -0.63238362
C      -0.15330082     -2.04064519      0.77751866
C      -0.98531251     -1.91000284     -0.36246937
C       0.57453097      0.21726131      0.49608910
N       1.39115022      4.04021346     -0.47819524
N      -1.60462627     -3.10410351     -0.51209861
C      -1.02523992      1.85332242      3.21717646
C       0.25435642     -4.06012594      2.38482311
C       3.20567251      3.39973015     -1.96081341
C       1.39058098      1.42200181      0.92229920
H      -1.67064035     -0.60133517     -1.95921794
H       1.26501467     -1.05973959      2.06523821
H       1.30162316      4.87459965     -1.03654131
H      -2.26478131     -3.38536783     -1.21746595
H      -1.36447750      0.93013860      2.74932963
H      -0.22090947      1.60804735      3.90896215
H      -1.84500270      2.30915272      3.76311637
H      -0.11563478     -5.07861845      2.45107267
H       1.33757805     -4.07661676      2.27331131
H       0.01524892     -3.52950531      3.30551116
H       3.73393987      2.53401732     -2.38329799
H       1.98945938      1.13116033      1.79679713
