50
charge=0
O       1.56979534     -1.42605387     -0.56541203
O       0.39784098      3.12519921      0.51291707
F       2.17530835     -3.81583484     -2.21157874
O      -3.41512862      1.48140252      3.49370857
S       5.18629968     -0.39901530     -0.27142505
C       2.78339167     -1.36616458     -0.64138687
C       0.77038841      2.02253994      0.16265166
C       5.77137840     -3.68776023     -2.53883117
C       4.45421847     -4.11538186     -2.67267081
C       6.08672033     -2.55373774     -1.81695123
C       3.43680146     -3.39834864     -2.07508942
C       5.05208990     -1.84585713     -1.22173101
C       3.71606006     -2.24956040     -1.33647153
N       3.50693079     -0.37377296     -0.02955502
N      -0.00950898      0.93988521      0.03977506
C       2.23545029      1.74615841     -0.19710541
C       2.86471813      0.68404087      0.71989479
C      -4.19279667      0.35921382     -0.49318134
C      -3.66782500     -0.23276924      1.87324145
C      -3.93109359      2.16395315      1.21389920
C      -1.93428338     -0.52742835      0.09782956
C      -2.20376490      1.86737537     -0.56154244
C      -1.67707965      1.27348769      1.80866150
C      -3.42836013     -0.60604298      0.41210973
C      -3.69604308      1.78326402     -0.24667030
C      -3.17407981      1.19216625      2.12676267
C      -1.43641377      0.89661992      0.34312796
H      -3.08985425      2.37005556      3.67675717
H       6.55911829     -4.25491652     -3.00938372
H       4.21249421     -5.00093794     -3.23765697
H       7.10627636     -2.22027172     -1.71267158
H       0.41358696      0.06210036     -0.24894743
H       2.26444719      1.39810686     -1.23167105
H       2.78190972      2.68673648     -0.13697317
H       2.09352193      0.21539938      1.33993771
H       3.61270449      1.12874043      1.37698450
H      -4.03951670      0.08843688     -1.53993999
H      -5.26241555      0.29652577     -0.28288941
H      -3.13775990     -0.91460428      2.53975416
H      -4.72966400     -0.28781047      2.11700327
H      -4.99594057      2.12455213      1.45307853
H      -3.58041540      3.18367640      1.39426840
H      -1.38006448     -1.22474118      0.72918434
H      -1.75462704     -0.80367595     -0.94306512
H      -1.83378390      2.87936917     -0.39422968
H      -2.02249572      1.60688606     -1.60669968
H      -1.30891704      2.28645466      1.98407746
H      -1.12901601      0.59168900      2.46362789
H      -3.77986260     -1.62856010      0.23849136
H      -4.24074064      2.47921132     -0.89401443
