49
charge=0
F      -0.37719335     -7.31121990     -0.08991621
F      -3.04162570     -4.17256860      2.89341834
F      -1.97392044     -2.54972957      3.82155417
N       1.57727272      3.60040161     -1.61545962
N       1.46424733     -1.36013923     -1.85765105
N       0.47241385      0.33647688     -0.52624072
O      -1.47068725     -3.03572650      1.76534577
O      -0.08860478      3.48129654      2.74542784
C       0.67527323     -0.92832432     -0.85548247
C       2.39330708      3.24824022     -2.61821163
C       0.52462993     -5.35882904     -1.06307187
C      -0.94707200     -5.23675589      0.85199155
C       0.62692000     -3.98002100     -1.07381162
C      -0.26198377     -5.96813224     -0.10655591
C      -0.82324082     -3.86183581      0.84240371
C      -0.04159731     -3.20511842     -0.12807722
C       0.93433042      2.66252824     -0.94641566
C       2.09326068     -0.45755159     -2.56223235
C       2.62837454      1.96154026     -3.01755109
C       1.10818555      1.26446938     -1.25136471
C       1.97470874      0.92491090     -2.31719949
N       0.00952138     -1.82939164     -0.07675889
N       0.06065769      2.99463729      0.01859370
C       0.31788646      3.31340200      4.08047371
C      -1.83203254     -3.56172975      2.95234614
C       2.11304227      4.08077376      1.82919284
C       0.45271767      5.86101305      2.46879298
C      -0.05530263      4.31574179      0.56515333
C       0.62534922      4.42904090      1.95008298
H       2.87448713      4.08337124     -3.11049504
H       1.04299391     -5.95859566     -1.79314647
H      -1.57238267     -5.75332074      1.56236052
H       1.22859662     -3.47680158     -1.81134858
H       2.72420099     -0.82978851     -3.36056727
H       3.29285550      1.72923634     -3.83437334
H      -0.55429540     -1.40046566      0.64609843
H      -0.30343676      2.23281955      0.57299218
H      -0.35215746      2.56186884      4.49567998
H       0.21821820      4.23554344      4.66160179
H       1.34784670      2.95034770      4.15571070
H      -1.11333161     -4.29140111      3.37186254
H       2.55272398      4.65003514      1.01556882
H       2.64701536      4.31683956      2.74661572
H       2.23446401      3.02131813      1.61455747
H       0.84352857      6.56273947      1.73799761
H       0.98978680      6.00610211      3.40284474
H      -0.60115347      6.07249504      2.63328717
H      -1.11559092      4.55519388      0.68534049
H       0.40647530      5.00474837     -0.14168038
