39
charge=0
N      -2.85017881     -3.28341295      0.93261623
Cl     -2.03624492     -4.39429310     -3.87891029
C      -2.22932389     -2.33513152      0.74690569
N       0.89918975      2.70909151      0.61224905
N       0.62920440      4.82646235      1.64481933
C      -1.58807773      0.03527256      1.22624522
C      -0.60598575      0.89263993      0.68894564
C      -2.37212173      3.08436764      2.44073006
C      -2.54367969      4.29851216      3.02973932
C       0.05858197      0.17100016     -0.28957636
C      -1.49171488     -1.16438567      0.54938033
C       1.28086164      3.93542747      0.92046270
C      -0.27679872      2.25593655      1.05357999
C      -0.54958148      4.39392593      2.07489448
C       0.50802148     -4.16871294     -3.00209998
C      -1.10126666     -2.66560869     -2.04270016
C       1.48732050     -3.59834093     -2.21367229
C      -0.79239055     -3.69667563     -2.90988069
C      -1.09315536      3.10327521      1.81772988
C      -0.10109241     -2.09568452     -1.26054745
C       1.21504506     -2.55843359     -1.33025960
N      -1.44442931      5.08863931      2.81556906
N      -0.47528154     -1.06334580     -0.37638436
C       3.29461471     -1.15685493     -1.33352389
C       2.33111492     -1.99844933     -0.49353903
H      -2.26837294      0.23955843      2.02719998
H      -3.08159452      2.28258699      2.43936946
H      -3.37824612      4.66725039      3.59431999
H       0.84565808      0.50473254     -0.93321891
H       2.24448579      4.24427481      0.53670391
H       0.74409859     -4.97583993     -3.67668551
H      -2.11416170     -2.30022434     -1.97257833
H       2.49639773     -3.97802611     -2.27202435
H      -1.31650188      6.03297534      3.13737664
H       4.09033664     -0.76452475     -0.70574323
H       2.77924846     -0.31869324     -1.79589312
H       3.73902248     -1.75733900     -2.12349307
H       2.88599224     -2.83082022     -0.05396879
H       1.93667021     -1.39131980      0.32199380
