46
charge=0
Br     -3.56724463     -0.86651011      2.98821760
N      -3.46567721     -3.16059508      1.36298824
N      -0.41791418     -0.72254409     -0.90341329
N      -2.89117531     -3.69655092      0.27841335
O       1.09179739      0.46919692      2.29892011
C      -3.00802724     -1.94337954      1.55413425
C      -0.46154877     -1.82681731     -1.57710897
C      -2.06304299     -2.80050152     -0.21446255
C      -2.06463652     -1.59338326      0.56088094
C      -1.21155791     -0.54780758      0.19333492
N      -1.23811710     -2.88487710     -1.30249707
N       2.39893323      4.73831446     -1.61658397
N      -1.17217124      0.60715678      0.85535322
N       2.97947130      4.09562025     -0.48014601
C       1.50859563     -1.91550995      1.99707741
C       2.05525463     -0.68419182      4.12183188
C       1.26894141      3.91773926     -2.11114974
C       2.30830944      2.16836633      1.02803131
C      -0.23547063      2.27739050     -0.71405966
C       1.98794793     -0.59301298      2.60126091
C       1.22432132      1.06469814      1.02496720
C      -0.17192209      1.64250753      0.69018778
C       1.90304197      3.30115708      0.10000615
C       1.15272234      2.74666308     -1.12403510
H       0.19050974     -1.90247918     -2.43688999
H      -1.23107184     -3.73221455     -1.85360162
H       2.06128093      5.64319036     -1.29762884
H      -1.70718454      0.63386110      1.71324179
H       3.71296709      3.47713970     -0.83007591
H       0.52207215     -2.16010769      2.38413962
H       1.45152338     -1.85218585      0.91203318
H       2.19734783     -2.71370263      2.25883616
H       2.73281800     -1.47817671      4.42166433
H       1.06428910     -0.88957235      4.51683186
H       2.40296686      0.25795006      4.53605149
H       1.50643739      3.57642741     -3.12159609
H       0.34789953      4.50313521     -2.15244049
H       3.26362481      1.74979021      0.70433213
H       2.42855143      2.53245437      2.04870527
H      -0.93401272      3.11572682     -0.69342093
H      -0.60437772      1.54003577     -1.42459096
H       2.98597615     -0.35313723      2.20403919
H       1.46252142      0.30407077      0.27129839
H      -0.39312466      2.39262131      1.45338781
H       1.24988119      4.00849340      0.62828026
H       1.72042595      1.89570149     -1.51259370
