20
charge=0
O       0.41730959     -0.52081810     -2.52660327
F      -0.94963635     -1.92540359     -1.52388892
F       1.29498109      2.22630063      3.02118753
F       1.98456970      2.48145766      0.98976096
F       2.99275622      0.21604814      2.09736783
F       1.02455404     -0.45906727      2.67342533
F      -0.64171464      3.13011223      1.22966254
F      -1.09287634      1.23862933      2.16783205
F       1.88950117     -1.66457395      0.37676567
F       2.31189564      0.24746989     -0.52756890
F      -1.73747756      1.24380929     -0.48945555
F       0.24583201      1.90422288     -1.02088178
F      -0.74253988     -0.99177662      0.74754910
C      -0.11564097     -0.89561641     -1.55510013
C       1.19597650      1.73330248      1.78013936
C       1.69758728      0.25721336      1.75889688
C      -0.27909013      1.84211144      1.28696069
C       1.50759063     -0.37858489      0.34581815
C      -0.44827941      1.18975175     -0.12120476
C       0.02824566     -0.29104375     -0.12711880
