14
charge=0
O       0.25207910      3.06989977      0.09421101
S       1.25509740      2.00891776     -0.00700196
C       0.43746035      0.57852094     -0.87140387
C       1.19069632      1.10262794      1.62449247
C      -0.26185468     -0.22897040      0.20308527
C       0.73303452     -0.31892414      1.35495133
H       1.23542085      0.01179570     -1.34859316
H      -0.23287644      0.98398504     -1.62430401
H       0.47422547      1.66008411      2.22506311
H       2.17397607      1.15607285      2.08533262
H      -0.55484832     -1.21537589     -0.15935550
H      -1.15862671      0.30046683      0.53086641
H       1.58245546     -0.93788323      1.05760376
H       0.28224194     -0.76273635      2.24353337
