46
charge=0
Cl     -1.85338499     -3.22819520     -4.34926986
N       0.47804201      0.04077246     -1.34462867
N      -0.52222411     -0.10535378      0.77898476
N       1.26460034      1.41126991      0.42383350
N      -1.22259869     -1.87036819     -2.24995137
O       4.99204579      4.43441262     -0.79476086
O      -2.42163182     -0.20808679      5.28818324
C      -0.39856519     -0.45941917     -0.49627367
C       1.29191973      0.97869369     -0.83598982
C       0.33448014      0.83497427      1.18765599
C      -2.03976614     -2.79346381     -2.69385432
C      -1.32492988     -1.49838103     -0.97869201
C      -3.01593090     -3.41997718     -1.92616089
C      -2.26426760     -2.05579406     -0.11285993
C      -3.11894354     -3.03023779     -0.60114772
N       2.18810639      1.49502329     -1.69029432
N       0.27918722      1.23770850      2.47009856
C       5.56721407      3.20426324     -1.19344742
C       4.04346872      4.83303012     -1.76669574
C      -2.13104353     -1.12374002      4.24713658
C      -1.20584938      0.25804148      5.84194026
C       3.13059883      2.49729579     -1.35098937
C      -0.68504083      0.78445888      3.40929028
C       4.49353294      2.48450894     -1.98627137
C       3.49764333      3.54931514     -2.36121996
C      -0.79503599     -0.69135043      3.67862424
C      -0.19512808      0.21264024      4.71275401
H      -3.65683573     -4.17287034     -2.35471537
H      -2.30012302     -1.71447490      0.90838693
H      -3.85968417     -3.48382454      0.04114695
H       2.15789456      1.13194443     -2.63059963
H       0.91632650      1.97529347      2.72968144
H       5.87244945      2.68046220     -0.28477892
H       6.45237447      3.37313131     -1.82610958
H       3.29168500      5.43858865     -1.25554736
H       4.52007049      5.43885854     -2.55286210
H      -2.95414238     -1.06919312      3.53126357
H      -2.05924534     -2.14995991      4.63833458
H      -1.39180299      1.26156603      6.23231563
H      -0.87572732     -0.39232663      6.66638926
H       3.04356867      2.78306871     -0.31067436
H      -1.60894072      1.35835473      3.43472342
H       4.78695312      1.68926971     -2.65265884
H       3.00948546      3.58951761     -3.32174873
H      -0.22461483     -1.39035359      3.09156795
H       0.85596163      0.22305773      4.95204127
