48
charge=0
N      -1.50289879      0.26280203      6.97323855
O       0.06873468      1.25042582      1.64753937
C      -1.78339280      0.14945083      5.86833648
N       3.86381024      3.72983633      0.10485711
N       1.80873124      2.79866233     -0.60401159
N      -2.87603772     -0.27337853      1.85205413
S       2.90232407     -0.65839172      2.09823308
S      -1.03975847     -2.10289419      1.31268968
C       0.80681070      0.69523303      0.85252977
C       4.46567814      0.07575550      2.11120072
C       4.48862557      1.24129154      1.42721174
C       2.26979958      0.61492617      1.12931602
C       3.22549142      1.56329170      0.85721154
C       2.95291402      2.75806273      0.08057370
C       3.58815536      4.83140572     -0.56570325
C       1.53997033      3.90888872     -1.26290536
C      -3.50189222      0.58655846      2.63838536
C      -1.88481101     -0.98481977      2.36321229
C       2.40466721      4.99489697     -1.27305445
C      -3.18770487      0.77487070      3.97002480
C      -1.48018313     -0.89828715      3.69381040
C      -2.14888730      0.00542056      4.50759759
N       0.37242302      0.09687709     -0.27298038
C      -1.04890925     -0.00616685     -0.49249447
C      -0.71631836     -2.29826116     -1.39111221
C       1.17741603      0.02187922     -2.58847588
C       0.79313509     -2.10926494     -1.22860630
C      -1.47286789     -1.46536523     -0.36226821
C       1.21017430     -0.62983651     -1.20516133
H       5.26437470     -0.41004644      2.63496787
H       5.34976222      1.87206366      1.31018967
H       4.34437334      5.60607612     -0.53017009
H       0.60132445      3.92007173     -1.80405342
H      -4.29484296      1.14910753      2.16337536
H       2.17653542      5.90265025     -1.80610291
H      -3.71525137      1.49224895      4.57789573
H      -0.66495591     -1.50102951      4.06139812
H      -1.30781634      0.35866516     -1.49044234
H      -1.55079375      0.61766453      0.24892169
H      -1.03520016     -1.98852038     -2.38881988
H      -0.96127479     -3.35528657     -1.27389073
H       1.95020916     -0.41388651     -3.21613850
H       1.36908671      1.08662269     -2.48354650
H       0.21920284     -0.11746044     -3.08028092
H       1.09787656     -2.56884943     -0.28619273
H       1.31921821     -2.61618745     -2.03827650
H      -2.55413079     -1.56523219     -0.46726615
H       2.23894253     -0.56600157     -0.83609102
