50
charge=1
O      -4.25154876      2.85002659      1.44461231
O       2.83447963     -3.41754315      1.14564609
O       0.51666477     -0.83901312      1.04026949
O       3.64899771     -2.97776042      3.09254221
O       0.54395990     -1.48490236     -1.00451404
O      -4.46725783      0.77005107      2.19184856
O       1.73806094      0.67778861     -1.92729699
O       3.87334051      0.02088786     -2.30528525
C      -3.83766974      1.73470930      1.53721157
C      -3.17623965     -1.09441218     -0.71978463
C      -2.24913313     -1.04964880      0.23719953
C       3.47725870      1.02667679      2.21393474
C       3.57081655     -0.29212705      2.57392370
C       3.23391064     -0.93825973      0.27646986
C       3.19682995      1.42511482      0.88781568
C       3.39447231     -1.28121464      1.60712427
C       3.16564545      0.39603504     -0.07616388
N       3.06863529      2.75029398      0.60182079
N      -2.15730549     -0.05939614      1.19561313
N       3.30085183     -2.67048401      1.98165147
N       0.05550107     -1.49220209      0.12384692
C      -1.20025048     -2.16080070      0.34405300
C       2.02629331      3.39978571     -0.18909056
C      -2.49742834      1.31629835      0.87406394
C       0.69340487      3.49846551      0.56861847
C      -1.42439531      2.32743407      1.29198487
C      -0.12446359      2.20942689      0.49187910
N       3.02829277      0.72654000     -1.48581212
H      -3.96556571     -0.06370471      2.16300527
H       1.28805897     -0.18754678     -1.63704742
H       3.61603208     -0.91844063     -2.36433586
H      -3.18030827     -1.86849478     -1.46215672
H      -3.98926333     -0.39250797     -0.75555946
H       3.57776031      1.79252936      2.96752592
H       3.73631415     -0.58646527      3.59905765
H       3.14468729     -1.73894739     -0.44517203
H       3.28023466      3.32278040      1.41196037
H      -1.39760140     -0.15206784      1.85858928
H      -1.20769390     -2.59656399      1.34578352
H      -1.36114571     -2.91617235     -0.42297122
H       1.84352681      2.89118590     -1.13491197
H       2.39634068      4.40313124     -0.40942859
H      -2.65548670      1.40077748     -0.20902243
H       0.11191451      4.30864875      0.12807606
H       0.88134114      3.75828345      1.61209393
H      -1.21883294      2.22149221      2.35934690
H      -1.86119568      3.31531644      1.13642077
H       0.46781318      1.37568331      0.87680529
H      -0.36111092      2.00970150     -0.55670941
H       3.33131693      1.70847222     -1.61667113
