49
charge=0
N      -1.59709782     -0.51833952      2.60005020
O       4.37187081     -1.54862601      1.60323493
C      -1.79791752     -0.74013588      1.49735293
N       1.92307191      6.62861334      3.52619682
N       3.55413319     -3.58332590      0.97504216
N      -0.19426259      6.22118406      2.96308446
N       0.57297857     -0.34515140      0.27467264
O      -0.10177643      7.45845692      3.51818068
C       3.59502817     -2.26435392      1.01473750
C       1.17943815      7.63600551      3.82954218
C       2.64528379     -4.25584473      0.29522224
C       1.02552087      5.74194079      2.97860843
C       1.85975815     -0.28266457      0.48560612
C       1.55094786     -3.74838767     -0.39521983
C       1.38624770     -2.36829192     -0.30681809
C       0.44335768      3.56982957      1.96472906
C       2.74093376      4.04248199      2.52283278
C       0.80954637      2.33177280      1.48383110
C       3.10917300      2.80564402      2.04335704
C       1.40400125      4.43964137      2.48104117
C       2.14833085      1.94144563      1.51282109
N       2.57913633      0.72129741      1.01546308
N       0.29622600     -1.59745475     -0.21407989
C       2.53525331     -1.53442850      0.05696029
C      -1.33336638     -0.95758963     -2.72128417
C      -2.42782931     -0.04660569     -2.17595734
C      -1.30585178     -2.27057374     -1.94541151
C      -2.15884623      0.26435028     -0.70852513
C      -1.06159529     -2.03521043     -0.44795177
C      -2.08819926     -1.03302243      0.11074773
H       1.48622316      8.55549894      4.28579764
H       2.73032321     -5.33043785      0.39883172
H       0.78636286     -4.41100843     -0.76189323
H      -0.58907591      3.88063818      1.95384264
H       3.47450904      4.71746779      2.93463960
H       0.07122524      1.64505722      1.10788489
H       4.14287730      2.49338731      2.07910030
H       3.53425064      0.45155725      1.24391431
H       3.21851035     -1.36368530     -0.78378111
H      -1.50549447     -1.16481250     -3.77858696
H      -0.36693701     -0.45695535     -2.63029684
H      -3.39911240     -0.53607395     -2.28423444
H      -2.45662825      0.88418555     -2.74390086
H      -2.26190077     -2.78514666     -2.06252024
H      -0.52290050     -2.92262024     -2.33703162
H      -2.94820468      0.89855139     -0.30072574
H      -1.21143575      0.79536158     -0.61708379
H      -1.17867283     -2.99042689      0.08628943
H      -3.06941006     -1.52479947      0.07878313
