44
charge=0
O       6.28825030      0.99062845     -0.02506317
N       3.18869528     -0.38905966     -1.15580918
N      -4.51559893     -0.17455726      1.92015109
N       3.47816541      0.85078457      0.66584841
N      -0.07604464      0.59503774      1.30538253
N       0.62015139      1.84017010      3.65666242
C       5.49409284      0.39340485     -0.72237509
C       4.05066700      0.28428417     -0.40967983
C      -4.18871875      0.11637641      0.67169555
C       2.19675195      0.51433838      0.57861685
C      -3.42599855      0.08270928      2.65581073
C      -4.95159681      0.04439052     -0.50139252
C      -4.38349117      0.41808677     -1.68646465
C      -3.05030480      0.87985592     -1.71865372
C      -2.31393113      0.94384527     -0.57629749
C      -2.37385740      0.54188921      1.87625751
C       1.19521778      0.88228315      1.54845233
C      -1.00825343      0.89370044      2.21338299
C       1.56442596      1.53641035      2.75908027
C      -0.64092388      1.52830647      3.41819045
N      -2.86622667      0.55597402      0.59600241
N       2.82760033      1.86643503      3.04040369
N       5.81637122     -0.24759850     -1.86725717
N       2.01949756     -0.24450782     -0.53171130
C      -1.62149020      1.92056575      4.47252811
C       7.15989444     -0.29220795     -2.38178456
C       0.83863175     -0.86551172     -1.05324851
H      -3.43452453     -0.10139381      3.71138735
H      -5.96859144     -0.30236974     -0.42779433
H      -4.94818346      0.37045089     -2.60414503
H      -2.61112784      1.18885803     -2.65335739
H      -1.29445450      1.29298504     -0.53711002
H       3.02238920      2.33463830      3.90728335
H       3.54325590      1.67011614      2.34790871
H       5.07817340     -0.71839488     -2.36724090
H      -1.84393651      1.06504206      5.10865132
H      -2.55113858      2.27078989      4.03046778
H      -1.18149304      2.69798852      5.09111032
H       7.51941405     -1.32153601     -2.44159096
H       7.78884061      0.27073257     -1.69343668
H       7.21103419      0.16197598     -3.37341757
H       0.40922872     -0.25486481     -1.85033203
H       1.11045753     -1.83744575     -1.46334439
H       0.11247801     -0.96980874     -0.24997047
