49
charge=0
N       2.12195334      3.19386925     -2.15019476
N      -0.52594685      1.11721766     -3.24288510
N       0.72461639     -0.22975663      2.69734664
C       2.11346135      3.95907478     -1.13850631
C       0.92153111      2.32158135      1.66809099
C       0.19897567      1.28716487      0.94679466
C       1.19769099      3.49965600      1.11752748
C      -0.19764062      1.49873801     -0.31701297
C      -0.06986406      0.03107178      1.66314481
C       0.68452634      1.67252433     -3.26613209
C      -0.88907478      0.32883278     -4.24593262
C       0.56007249     -1.34326308      3.39314997
C      -1.10344481     -0.83466672      1.30003933
C       1.59596469      1.46799351     -4.31072708
C      -0.05348632      0.06480222     -5.32330126
C      -0.43648468     -2.26463533      3.09329574
C       1.20689037      0.64906359     -5.34770577
C      -1.28201632     -1.99565177      2.02914768
N       0.99992506      2.47341046     -2.20784337
N       2.86639977     -1.43974888      4.05713286
C      -2.25757811     -0.27477237     -4.15361373
C       1.90387064     -0.70549236      6.94309863
C       0.85239902      3.84345426     -0.29590607
C       0.08409240      2.75539910     -1.07196303
C       1.50528097     -1.53259875      4.55543036
C       1.14137699     -0.49292606      5.64130238
H       2.93766694      4.60653212     -0.91420305
H       1.20484318      2.09093829      2.68245262
H       1.72532868      4.26800220      1.66447277
H      -0.71077383      0.74777465     -0.89585443
H      -1.75856160     -0.59558040      0.47807034
H       2.55964980      1.94735074     -4.27856798
H      -0.38258426     -0.58140325     -6.12206445
H      -0.54604863     -3.16370132      3.67958760
H       1.87740264      0.46273838     -6.17444028
H      -2.07449149     -2.68480362      1.77294654
H       3.52502267     -1.40015525      4.82678240
H       2.95772400     -0.59002767      3.50933743
H      -2.79642927      0.16323627     -3.31843810
H      -2.81323808     -0.10290068     -5.07322066
H      -2.18138707     -1.35066723     -4.00069434
H       2.97612802     -0.58889762      6.79718100
H       1.58655324      0.02095856      7.68783575
H       1.71798963     -1.70362615      7.33497799
H       0.32809091      4.80701304     -0.30940922
H      -0.85554582      3.12248663     -1.50375424
H       1.37444398     -2.53871947      4.97383629
H       1.34602018      0.50349934      5.24338419
H       0.06838867     -0.56070549      5.83568669
