40
charge=0
O      -1.73755311     -1.77089163      4.65172080
O      -1.00209196      1.82101684      1.90567567
C      -1.05535317     -1.30898062      3.76497859
C      -2.13315715      1.82786473      2.66990333
C      -2.13101676      0.95559669      3.66347594
C       1.61992231      2.87446145     -4.20530813
C       0.93647576      3.65246743     -3.28393871
C       1.90702608      1.55779725     -3.89242526
C       0.55291007      3.12272684     -2.07052548
C       1.52663484      1.01679593     -2.67857527
C       0.83949781      1.79277652     -1.74206041
N      -0.44274592     -2.09789117      2.85538450
N       1.80406842     -1.59923979      2.25408969
N       0.38764820      1.30084609     -0.54125900
C      -0.82846269      0.19369414      3.63905076
C       2.70045779     -1.19593107      1.18665513
C       0.42595587     -1.65572992      1.80082600
C       2.30833327      0.13356598      0.53229764
C      -0.17568842      0.73359520      2.34486690
C       0.84089042      0.07754716      0.06360547
C      -0.08478202     -0.31935188      1.23003577
H      -2.87096600      2.55010734      2.37473506
H      -2.89375803      0.77106703      4.38987593
H       1.92387292      3.29015161     -5.15379717
H       0.70396317      4.68250914     -3.51320428
H       2.43780472      0.93865087     -4.60169036
H       0.01956672      3.73299109     -1.35471827
H       1.76175116     -0.01526692     -2.46796637
H      -0.50883742     -3.09071602      3.02861638
H       1.88409497     -0.96954493      3.04642934
H       0.02198086      1.98899798      0.09913851
H      -0.23279671      0.46236905      4.52276649
H       2.68170068     -1.99093668      0.43438009
H       3.71025757     -1.13927050      1.59644003
H       0.39669758     -2.41044959      1.00161772
H       2.95066034      0.32908500     -0.32665535
H       2.44594594      0.95688401      1.23614589
H       0.81273459      1.15619391      2.55358831
H       0.76093675     -0.72119523     -0.68781012
H      -1.09749176     -0.46727513      0.84072367
