38
charge=0
F       2.42427536     -2.88191738      5.86259304
Br      5.14752248     -0.94108162      1.89527534
N      -1.36049263      1.04544739     -0.88926025
N      -1.54526449     -0.89279232      0.48837608
C      -1.95892695     -0.01524503     -0.50526276
C      -0.45230086     -0.56160088      1.09086194
C       3.59964726     -1.97125957      4.04606781
C       1.17915907     -2.11422404      4.03253928
C       2.33348229     -1.19736967      2.12915391
C       2.39923544     -2.32190581      4.64051884
C       3.53304707     -1.41589748      2.78051799
C       1.13283837     -1.52917478      2.76289417
N      -3.12325936     -0.38844532     -1.10123182
N      -0.09986751     -1.33399838      2.17910207
N       0.31214457      0.49241705      0.75856076
C       0.70526485      3.63715258     -2.09885430
C       0.72153898      2.20111238     -2.61049689
C      -0.35761832      3.78955431     -1.01665779
C       0.99404972      1.23031490     -1.46761046
C      -0.08617121      2.83066905      0.13724170
C      -0.07609772      1.37823699     -0.36755169
H       4.53615555     -2.13953675      4.55061292
H       0.27275760     -2.40395021      4.53972799
H       2.33486938     -0.81158434      1.12290067
H      -3.58197632      0.30642926     -1.66377636
H      -3.69231939     -1.04479852     -0.59629602
H      -0.85145671     -1.93573217      2.48557671
H       0.98658230      0.85088699      1.41491912
H       1.68636102      3.89317995     -1.68994135
H       0.49615586      4.32225587     -2.92251389
H       1.48378196      2.08165492     -3.38312548
H      -0.25138670      1.96103872     -3.04039354
H      -1.33505602      3.55126249     -1.43657266
H      -0.37703049      4.81588281     -0.64391262
H       1.97679460      1.42806998     -1.03149163
H       0.97797725      0.20181945     -1.83499744
H      -0.85944412      2.93507742      0.90219145
H       0.88376212      3.05678588      0.58904891
