45
charge=0
O       1.96119206      4.49664330     -1.41411553
O       1.88649305      5.18023211      0.95362893
F      -4.07668502     -3.71222651     -1.74360813
F      -0.25946792      2.86440171     -1.59264870
F      -5.58051755     -2.41080680      2.52330099
F      -6.07613177     -0.73229341      1.29272119
F      -7.29545020     -2.49754147      1.23664522
Cl      0.80366378      0.28622753      3.50058786
N       5.57900346      1.18324051     -1.39078255
N       5.33806613      2.16305632     -0.52802071
N       2.83776023     -1.50791918     -1.16120442
N       1.96034767     -1.37983214     -2.10925843
O      -1.23700068     -0.47944982      1.62697636
O      -5.35614533     -2.60334190      0.30919304
S       3.09219169      1.68049423     -1.66822537
C       4.55885855      0.80453432     -2.05480320
C       4.10725016      2.54853074     -0.53132385
C       2.44986947     -1.73538367      0.07780976
C       0.67506958     -1.47902002     -1.85572748
C      -0.75466265      1.19418083     -0.04819275
C      -3.26982407     -1.48474588      0.98299218
C       1.11193233     -1.87905163      0.43594303
C      -2.03097705     -2.71651970     -1.17693748
C       1.25771397      2.15409497      1.60823862
C      -3.37289018     -2.91913030     -0.93194892
C       0.01217975      2.28616160     -0.42544950
C       0.50616951      1.06227452      1.99978280
C      -4.00567892     -2.31512556      0.15709393
C      -0.51035076      0.56620064      1.16666868
C      -1.91615142     -1.27949573      0.73716902
C       0.16832965     -1.74648787     -0.57439016
C      -1.27333724     -1.90641982     -0.33576477
C       1.02502855      2.76309742      0.38704105
N       3.57373598      3.49063619      0.29200064
C      -6.04557067     -2.07505952      1.30995813
S       2.06075648      4.17062675     -0.03498237
H       4.56173133      0.01618272     -2.77745709
H       3.24366206     -1.82216155      0.80517068
H       0.01882780     -1.33977302     -2.70291277
H      -1.54463333      0.85448774     -0.70021361
H      -3.70454071     -0.98339518      1.83269843
H       0.82674164     -2.11081549      1.45066881
H      -1.57043140     -3.21941499     -2.01268661
H       2.03569578      2.54095966      2.24569648
H       4.22817705      4.02914781      0.83866894
