50
charge=0
F      -4.21125356      0.32050134     -4.93773900
Cl      5.04422663     -1.93198185      1.73084240
O       0.92307775     -4.38852437      3.25330985
O      -0.71197117     -2.10031160      2.89791440
O       1.42741205      2.59465727     -3.42623674
C      -1.88967184     -0.03211183     -4.80379010
C       2.79505599     -3.17958310      2.50951990
C       2.59681021     -0.84682339      1.93566386
C      -2.98778327      1.64709570     -3.43010992
C      -0.66406403      0.29348494     -4.24301079
C      -3.02157978      0.64665911     -4.38834877
C       3.35358420     -1.99445940      2.08620923
C       1.43113991     -3.20233072      2.78888120
C       0.64371523     -2.06556688      2.62360432
C       1.22313396     -0.84918133      2.19291279
C      -1.76029867      1.96036557     -2.87946807
C      -0.61048008      1.28484885     -3.28258403
N       0.46426208      0.30560852      2.12591430
N       0.00795271      2.02868164     -0.10639208
C      -0.34910435     -4.27582030      3.84633653
C      -1.24301316     -3.40224470      2.97188934
C      -0.79994448      0.32541970      1.42088809
C       1.10099871      1.59827749      2.01184078
C      -0.58495405      0.70477894     -0.04914176
C       1.30193286      2.02152804      0.55116174
C      -1.44567284      2.99079876     -1.83897474
C       0.60407300      1.82700112     -2.57413766
C       0.00166154      2.66972167     -1.40613994
H       0.88182775      3.25264115     -3.87173041
H      -1.97714309     -0.80141731     -5.55418027
H       3.37374155     -4.07670252      2.64346917
H       3.08966935      0.04739488      1.59625971
H      -3.89526455      2.15054568     -3.13633396
H       0.23356745     -0.21829286     -4.55347209
H      -0.26218444     -3.82038724      4.84217486
H      -0.74101828     -5.28987192      3.93730022
H      -2.24395634     -3.30187424      3.39407704
H      -1.30602614     -3.84491247      1.96752300
H      -1.28729179     -0.64215560      1.49100756
H      -1.43650372      1.07952863      1.89346430
H       2.04477411      1.60320960      2.55565980
H       0.42860181      2.32324031      2.48293743
H      -1.54358071      0.71208718     -0.56809813
H       0.05619340     -0.06090014     -0.52087521
H       1.71862556      3.03060733      0.51983617
H       2.01089510      1.33775481      0.05569708
H      -1.51225383      3.99349337     -2.26745960
H      -2.12215603      2.95095109     -0.98604538
H       1.26213982      1.03680107     -2.20281595
H       0.58809630      3.58777019     -1.29920964
