41
charge=0
O      -1.96264364     -2.28988462      1.46318537
O      -1.45327617      2.39266823     -2.13945892
O      -0.24798721      0.50869689     -3.16243538
N      -0.16964654     -2.46492374      2.90361263
O       0.07474764      3.95485088     -0.41164814
C      -0.91051706     -1.86317104      1.94224052
C      -0.55012062     -3.60797895      3.42582931
C       0.93778895      1.45612294      1.56540531
C      -0.63146419     -0.29335072      0.08931344
C      -0.32851800     -0.58952458      1.41976628
C       0.45175984      0.29821588      2.17113073
C       0.66832214      1.73362867      0.23787388
C      -0.12772557      0.84959416     -0.47704417
N      -1.64294615     -4.28497132      3.06024113
N       0.21959535     -4.10629296      4.42110187
C       0.77390270      0.05596661      3.61071812
C       2.37240469      3.61177934      0.00761850
C       1.17248805      3.63106535     -3.03475716
C       2.38350964      1.56886512     -2.24113400
C       1.09137920      2.98059546     -0.53512879
C       1.22624469      2.51985503     -2.00657367
S      -0.30966814      1.50634616     -2.13155577
H      -0.72118133      3.63112071     -0.86900488
H       1.53122688      2.14289727      2.14927132
H      -1.25358986     -0.96648295     -0.47977451
H      -1.93881460     -5.12916141      3.51638201
H      -2.20566745     -3.81198751      2.34739542
H       1.09734018     -3.64901100      4.58956019
H       0.10029531     -5.05287250      4.73552088
H       1.51877697     -0.73249351      3.68987773
H       1.16081108      0.96079750      4.07336036
H      -0.10658557     -0.27943316      4.15081592
H       3.14972155      2.86501792      0.13401504
H       2.15342012      4.07991861      0.96254359
H       2.71220037      4.38576987     -0.67400778
H       2.10459135      4.19383176     -3.04922189
H       1.00778546      3.19827963     -4.01955789
H       0.35454667      4.31299347     -2.81577171
H       2.43828321      0.82238147     -1.45093480
H       2.22669505      1.05070941     -3.18522379
H       3.32877992      2.10583628     -2.28728096
