27
charge=1
O       1.25294374      2.68402294      0.97642286
O       0.44083332      1.43543929      2.89148533
S      -1.57554381      2.14065638      0.96899249
C      -1.06930588      0.41817200      0.64843543
C       1.89505362     -0.44006298      0.75605643
C       0.35356613     -2.01286732     -0.23814196
C       1.78744776     -0.66962750     -1.62212910
C      -0.04154642      0.38325585     -0.48458200
C      -0.02073827      4.07086598      2.87653956
N       0.98838382     -0.69133471     -0.38149198
S       0.23876306      2.53851265      1.99105967
H      -1.98039516     -0.12409922      0.40348910
H      -0.67313188      0.06222134      1.59867841
H       1.36390336     -0.46766164      1.70489623
H       2.34390663      0.54815981      0.66237399
H       2.68097212     -1.19212484      0.77571945
H      -0.19544435     -2.07394455      0.69842963
H      -0.33527824     -2.19017663     -1.06241707
H       1.11316899     -2.79287914     -0.24421022
H       2.57367242     -1.42098564     -1.57386047
H       1.15845387     -0.88012271     -2.48545147
H       2.24819815      0.30798757     -1.75237311
H      -0.56407092      0.26687432     -1.43674647
H       0.49501141      1.33621190     -0.50198172
H      -0.28761469      4.82736121      2.14965908
H       0.90929602      4.32103922      3.37403432
H      -0.81272063      3.90289108      3.59489713
