31
charge=0
N       0.84640145      2.06847594      4.08073787
N       4.00118243      3.46090036     -0.30325565
N       0.25459343      1.21394801      3.23573146
N       3.56350684      3.49300533      0.96693186
S       2.84163766      3.92696845      4.08385822
S       3.49382251      2.18130440     -2.63700706
S       0.97309228      0.17866969     -1.70125029
C       1.78508336      2.71489188      3.44564267
C       3.29865997      2.57974132     -0.96145649
C       0.82337609      1.32529761      2.06855325
C       2.59597192      2.62769043      1.06686393
C       0.60107013      0.68014397      0.81760523
C       1.38465847      1.03952651     -0.26654994
C      -0.27044549     -0.68245917     -0.83012149
C      -0.35296319     -0.31710684      0.47646349
N       1.83221720      2.28940538      2.13590611
N       2.36519291      1.99545306     -0.14079992
C      -1.14212749     -1.69068326     -1.49159713
C      -1.33253771     -0.91998008      1.42725795
C      -1.84169730     -2.53510440     -0.42323221
C      -2.44021489     -1.63909898      0.65949363
H       3.48971417      4.11735475      2.92287394
H       4.48647975      3.04978961     -2.79762840
H      -1.88841396     -1.17616708     -2.10627821
H      -0.55335461     -2.32373843     -2.15920814
H      -0.80175946     -1.62461954      2.07359369
H      -1.73299776     -0.14013094      2.07631046
H      -2.62165946     -3.13627697     -0.89187735
H      -1.11873723     -3.21411979      0.03250290
H      -3.09888277     -0.90356884      0.19361592
H      -3.03637478     -2.23501850      1.35081381
