46
charge=0
N      -3.84562179     -2.67743414      0.42973726
N      -4.20923623     -0.96051515      3.61667312
N       2.60933748      2.65140839      1.04645111
O       6.37500613      4.04882236      0.38288562
O       3.25079831      0.65804777      0.08691024
C      -4.41991153     -2.33074195      1.54596095
C      -3.81727862     -1.44545045      2.44993672
C      -3.22208762     -0.14699704      4.01926623
C       6.92459181      2.96129036     -0.21328757
C       6.04756655      1.93747057     -0.32850412
C      -2.19057433     -0.11026642      3.10419683
C      -1.95936008     -1.29551586      0.92987470
C      -2.62951974     -2.17754035      0.11525512
C       2.89596706      3.89439901      1.43538080
C       3.53389863      1.91609861      0.46672555
C       4.12081613      4.50517592      1.27991176
C       1.72086921     -0.74598107      1.23635759
C       0.44604830     -1.23424646      1.42824179
C       5.09964418      3.72689317      0.66720847
C       1.94236052      0.22258394      0.26984735
C       4.83034042      2.41266763      0.24525208
C      -0.61089770     -0.74971688      0.66463330
C       0.90431772      0.70883551     -0.52239326
C      -0.39071227      0.22964199     -0.30484027
N      -2.56281662     -0.93918634      2.10075235
C      -2.05375730     -2.64830314     -1.18356041
C       1.17241318      1.73276722     -1.58166912
C      -1.53122309      0.78950465     -1.09999777
H      -5.39045779     -2.75088797      1.76359096
H      -3.29264694      0.38058954      4.95035749
H       7.95199424      3.05041188     -0.50763774
H       6.22111730      0.97251214     -0.75635943
H      -1.26481297      0.42675955      3.09812822
H       2.07124980      4.41531469      1.90093177
H       4.31171740      5.51198222      1.60826203
H       2.55018839     -1.10129475      1.82744601
H       0.26185558     -1.99271433      2.17494440
H      -2.51600152     -2.11131524     -2.01072613
H      -2.27721009     -3.70413509     -1.31043162
H      -0.97952010     -2.48902234     -1.21501902
H       2.23038388      1.76185488     -1.82997908
H       0.87928266      2.72169521     -1.22891171
H       0.61116859      1.50967428     -2.48613151
H      -1.51713384      1.87721351     -1.06344750
H      -2.48564053      0.44085409     -0.71532436
H      -1.45435885      0.48894763     -2.14474742
