43
charge=0
O      -2.64147898      1.42329893     -1.68614968
F       0.33681722     -2.31720700      1.90795431
Cl      2.68940430      6.18366608      6.13831916
Cl      2.93201816     -3.77244690      1.89120502
C       1.75639024      6.84324525      3.69906458
N       0.13376929     -0.25512473     -0.18376430
N       1.30715905      0.21167671     -0.03141201
N      -2.21669130     -3.03467995     -1.52695767
O       2.40185731      3.10641602      2.11749329
C      -2.13113207      0.60395973     -0.94032173
C       2.20772957      5.81054922      4.53134056
C       1.55467928      6.50142080      2.39679027
C      -1.36086964     -3.89575727     -2.01863394
C       1.83782567     -4.68567884     -0.42231933
C       2.24386722      4.46388298      4.15130076
C       0.54131453     -3.09261913      0.83879747
C       1.68088573     -3.83544574      0.70775847
C      -0.70488188      0.73688277     -0.56842736
C       0.86743139     -4.76898363     -1.36057475
C       2.00822629      4.72620958      0.64958825
C       2.17051493      4.24654709      2.79526392
C      -0.46117185     -3.15741382     -0.15286792
C       0.04789146      1.89448922     -0.65866237
C      -1.69455440     -2.55697640     -0.37951400
C       2.30666337      3.41552816      0.79065895
N       1.90709444      5.25817067      1.91844384
N      -0.26461839     -4.01943323     -1.23336610
N      -2.84335330     -0.40948177     -0.41022577
N       1.29288411      1.51441550     -0.30723929
C      -2.37100714     -1.49092932      0.42368905
C       2.48452974      2.31982296     -0.20498330
H       1.16128010      7.18080070      1.65687397
H      -1.49966361     -4.43852749     -2.93116657
H       2.73944370     -5.26698153     -0.51086797
H       2.41813268      3.64887196      4.83306671
H       0.93305722     -5.40562178     -2.22846001
H       1.85592035      5.31429885     -0.23124677
H      -0.21859558      2.89268831     -0.93026665
H      -3.76090641     -0.52212656     -0.81871634
H      -3.23899761     -1.90621207      0.94502204
H      -1.66514750     -1.10454071      1.16037103
H       3.28187481      1.64525959      0.11916033
H       2.72902676      2.74870646     -1.18139782
