24
charge=0
Cl      2.06841617     -1.63787069      2.98456378
N      -1.16205289      1.84109231     -0.98152757
N      -1.43191854     -0.56454708      1.51177404
O      -1.90063378      1.00422698     -0.16684118
C       0.10770180      1.69407161     -0.69753038
C      -1.05882559      0.33075761      0.61511784
C      -0.46261977     -1.13702235      2.20220180
C       0.89518031     -0.81380168      2.00770207
C       0.27115921      0.71411994      0.34625437
C       1.30885188      0.12923366      1.07579072
N       1.07959670      2.43978501     -1.27706710
C      -0.87538202     -2.15307951      3.21393230
C       2.73765864      0.50556910      0.85666296
C       0.75472850      3.26673372     -2.41541153
H       2.00618167      2.04257299     -1.26640305
H      -1.95655096     -2.24442789      3.20065327
H      -0.54534999     -1.85302189      4.20727478
H      -0.42350587     -3.11759906      2.98755357
H       3.07974137      0.12969215     -0.10817105
H       3.36965782      0.08092426      1.63112465
H       2.84365244      1.58913122      0.86676331
H       0.68154806      2.68908995     -3.34219114
H      -0.20878225      3.73325730     -2.22499263
H       1.52179984      4.03136504     -2.52698010
