34
charge=0
O      -3.86849893      0.99243164      3.88362281
F       0.78888423      1.76331981      5.27170991
F       1.78977060      0.30578563      4.05893223
F       1.64879935      2.34837344      3.39680556
C      -2.77985422      0.89523665      3.35292827
C      -1.50417435      1.18594884      3.97799588
C       2.04008036     -0.15573791     -0.91001410
C      -0.33636048      1.04790939      3.30429873
C       1.98409770     -0.56885294     -2.17310432
C       0.88354843      0.44723922      1.19322927
C      -1.57265464     -0.10856934      0.00232454
C      -0.28975345      0.61004228      1.94448457
C       0.84519948      0.02051132     -0.11392969
C      -1.52961419      0.32263528      1.32227433
C      -0.40227808     -0.26593107     -0.73176753
N      -2.68110620      0.47566994      2.03881313
N      -0.43440650     -0.68416058     -2.01327577
C       0.95867015      1.36470228      4.00589994
C       0.55562395      0.03137061     -4.11553246
C       0.72035668     -2.35864611     -3.34491489
C       0.70356460     -0.88878036     -2.89178325
H      -1.53702414      1.51634178      5.00359500
H       2.98661031      0.06179549     -0.43829550
H       2.88029339     -0.69784912     -2.76017322
H       1.84423185      0.65693345      1.63526512
H      -2.52757565     -0.32323768     -0.45632104
H      -3.56155797      0.26686370      1.58236813
H      -1.33727071     -0.87776656     -2.41867261
H      -0.36259137     -0.19687114     -4.65287219
H       1.39474552     -0.10203012     -4.79232972
H       0.52638206      1.07102274     -3.79744134
H       1.56095796     -2.53987117     -4.00863491
H       0.81112759     -3.01300507     -2.48092162
H      -0.19822317     -2.60282352     -3.87456266
