45
charge=2
Br      0.95008725      5.57950643      3.39136395
C      -2.23037995      2.89226470      3.41265636
C      -1.48384678      4.05352914      3.50328896
C      -1.62501727      1.68773306      3.08997918
C       0.50662258      2.79486780      2.98542340
C      -0.11169924      4.00166259      3.28837622
C      -0.24925489      1.63240050      2.87100654
C       2.36632044      1.93974455     -1.71693640
C       1.98489120     -3.01047501     -0.75973827
C       2.20569073     -0.54518207     -1.27627419
C       0.13932082      0.79018532     -1.67659601
C      -0.04416366     -1.61028554     -1.21341382
C       0.42915731      0.32360302      2.56510971
C       1.40912333      1.08727841      0.43284643
C       1.22790461     -1.28889714      0.89620944
C      -0.75774372      0.01595704      0.45751735
C       1.54716804      0.82358760     -1.07118414
C       1.35916960     -1.62649764     -0.59548900
N      -0.65268742     -0.26819279     -0.98884628
N       0.57841984      0.03703716      1.08202133
H      -3.29093067      2.92337239      3.60403268
H      -1.95532425      4.98938233      3.75635272
H      -2.22209660      0.78837947      3.05464690
H       1.57999756      2.77577394      2.87732490
H       3.36577440      1.97460676     -1.29388949
H       2.46537024      1.77166006     -2.78520181
H       1.90119989      2.91009795     -1.56730936
H       2.07960785     -3.26374365     -1.81147790
H       1.38438133     -3.77782670     -0.27916948
H       2.97879379     -3.03534880     -0.32301561
H       2.30684611     -0.76021000     -2.34007633
H       3.21349937     -0.54165408     -0.86083219
H      -0.36149807      1.75385311     -1.55650025
H       0.18817139      0.56498406     -2.74363634
H       0.01146061     -1.80386971     -2.28629026
H      -0.68014703     -2.37773702     -0.76562027
H       1.43433271      0.31947959      2.98929898
H      -0.13471849     -0.50120897      3.00491031
H       0.94896117      2.06101051      0.61659160
H       2.39537005      1.08705652      0.89971814
H       2.21639796     -1.26355196      1.35822569
H       0.63924841     -2.05124266      1.41206934
H      -1.36435976     -0.76020164      0.93769468
H      -1.23473044      0.99085668      0.61945907
H      -1.60171618     -0.27076967     -1.38165195
