43
charge=0
O       3.18269871     -0.70321843     -1.28411372
O       0.12335087     -1.72812598      2.73086702
O      -2.60070581      1.13453600      2.60038685
O      -1.88554662     -0.66748857      1.08753699
O      -0.04552135      4.91684107      2.62767325
O      -1.79633311      3.80082569      1.30417063
N       0.99758330      3.99903793     -0.01760766
O       0.01399106      0.78142528      3.37456428
O       1.64491190      2.68694288      2.48786761
O      -2.06651194      1.57580171      0.24157086
O      -1.30911352      3.13661877      3.61717639
C       2.17871967     -0.85007019     -0.61943952
C       0.43765836     -1.43041435      1.59029340
C       1.65893833      4.28576563     -1.05835284
C       2.21759241      3.29096474     -1.96390686
C       2.32780335      2.02487228     -1.55856566
C       1.56435106      0.25971091      0.16566600
C       0.74420509     -0.02840792      1.19707129
C       1.03305433     -4.33027901     -1.44670174
C       0.18470195     -4.60516563     -0.38488835
C       1.68351498     -3.10929584     -1.52190343
C      -0.01213419     -3.66286869      0.61155291
C       1.46537684     -2.14210708     -0.54682279
C       0.61498318     -2.42595550      0.52744570
C       1.93981711      1.68195135     -0.14594722
C       0.78087308      2.60902955      0.26597383
C       0.01922022      0.99894530      2.01178820
C       0.50543744      2.42157540      1.74920503
S      -1.78085804      0.69797411      1.50046820
S      -0.72378720      3.72346092      2.28127692
H      -0.03930135     -0.19286595      3.53608212
H       1.43567253      2.61733366      3.43064556
H      -2.14641410      2.54832866      0.52454188
H      -1.94228494      2.39347260      3.46595330
H       1.78641959      5.33626427     -1.28004521
H       2.52592771      3.60269456     -2.94891741
H       2.76632070      1.25656146     -2.17424791
H       1.19283348     -5.07052632     -2.21600380
H      -0.31824509     -5.55850736     -0.32919863
H       2.36082321     -2.88677016     -2.33274385
H      -0.65755593     -3.85793375      1.45334031
H       2.80840930      1.92112943      0.49246366
H      -0.11625690      2.30255514     -0.29155541
