16
charge=0
N      -0.13648820      0.33160311     -0.46764531
N       2.08093011      1.29442925      2.24242065
N      -1.16450309     -0.53573869     -0.42537469
N       3.15442325      2.65959564      0.84340939
O       3.06439604      2.18016185      2.11095244
O      -0.24069571     -0.46863141      1.57949988
C       0.39980768      0.36552257      0.71449289
C       1.51418027      1.17859950      1.07100276
C      -1.20679537     -0.99280046      0.79418944
C       2.21070951      2.06273816      0.15466211
N      -2.11214834     -1.84042701      1.31510441
N       1.95415930      2.18944361     -1.15156832
H      -2.67727095     -2.34723379      0.65710368
H      -1.89047144     -2.27802619      2.19278541
H       1.11676068      1.74322702     -1.49483284
H       2.39984161      2.92437262     -1.66936636
