69
charge=0
C      -8.22898567     -4.05680911      0.98371356
C      -6.87977987     -3.39911737      1.25209468
N      -6.76999383     -2.09868285      0.61332319
C      -6.61796154     -2.19102376     -0.82652893
C      -6.62311768     -0.79574265     -1.44128909
N      -5.52472307     -0.02174769     -0.89963908
C      -5.67811379      0.07532961      0.53947196
C      -5.66967413     -1.32010945      1.15097478
C      -5.40136383      1.28401946     -1.52107479
C      -4.10028997      1.93290047     -1.14518034
C      -4.01044331      3.27688728     -0.81374049
N      -2.88122822      3.87858919     -0.48464760
C      -1.76089355      3.16229410     -0.45854705
C      -1.72895967      1.80421979     -0.78149754
C      -2.91750830      1.19524297     -1.12727867
N      -0.65024246      3.90470264     -0.09774342
C       0.62570723      3.52980818      0.15524350
N       1.45062420      4.54286637      0.46604308
C       2.70113657      4.22640774      0.72542181
C       3.14969086      2.91638267      0.67407476
C       2.23679264      1.90743523      0.34636594
N       0.97599864      2.24981973      0.09426637
C       2.55429314      0.47874631      0.28123072
C       3.83538437      0.03508319     -0.02196538
C       4.05528954     -1.33166561     -0.06258975
C       3.01606291     -2.26538528      0.18640505
C       1.73974993     -1.78798348      0.47875075
C       1.51452744     -0.43462060      0.52393816
F       0.72406128     -2.63603903      0.71977979
N       3.50599950     -3.53339090      0.08293489
C       4.76874993     -3.40471878     -0.20925640
N       5.17052239     -2.09800218     -0.31551397
C       6.51225687     -1.63583815     -0.60983173
C       6.54352379     -0.85330569     -1.92286826
C       7.07765506     -0.82878872      0.55913836
C       5.67163960     -4.56478851     -0.40565072
F       4.44441446      2.65680449      0.97426983
H      -9.02745517     -3.34846644      1.18678945
H      -8.35054892     -4.92065905      1.63247905
H      -8.31384169     -4.39245558     -0.04627466
H      -6.06413757     -4.07569295      0.93867470
H      -6.78170884     -3.23713618      2.32899122
H      -5.67334219     -2.69770587     -1.09638188
H      -7.45095710     -2.76188525     -1.23846003
H      -6.49787997     -0.87626135     -2.52439600
H      -7.59678957     -0.31668127     -1.23373010
H      -4.84766912      0.65820839      0.94448503
H      -6.62513901      0.57865847      0.80576432
H      -5.79104122     -1.23987695      2.23396356
H      -4.69531827     -1.79628982      0.94089021
H      -5.42009636      1.13662655     -2.60717371
H      -6.24239339      1.95224079     -1.25841899
H      -4.88757609      3.91207861     -0.81095772
H      -0.79671731      1.26833045     -0.76282435
H      -2.94892744      0.14574410     -1.37673982
H      -0.83716621      4.89147047      0.03317992
H       3.36985607      5.03529664      0.98660751
H       4.62114550      0.73774591     -0.23666710
H       0.53202452     -0.06073933      0.76018430
H       7.12617026     -2.53413507     -0.73407766
H       7.57227989     -0.62211907     -2.18607542
H       5.99165753      0.07782472     -1.84093734
H       6.10388316     -1.44369465     -2.72401470
H       8.11762348     -0.58137251      0.36338190
H       6.52564564      0.09392414      0.70860525
H       7.02599734     -1.41054000      1.47698232
H       6.09767300     -4.56391133     -1.40841183
H       5.08741769     -5.46983656     -0.27039535
H       6.48362889     -4.55574092      0.32077987
