48
charge=0
C       7.90547722      2.89391000     -0.07272551
N       6.60382648      2.27577258     -0.13252964
C       6.37394211      1.04752090      0.36770954
O       7.22108579      0.37720414      0.92415591
C       4.96569088      0.53594054      0.23438154
C       4.09143342      0.83453026     -0.80515875
C       2.82727758      0.28161058     -0.88404674
C       2.40989633     -0.59205253      0.11024903
C       3.25640774     -0.90345840      1.16633931
C       4.52162124     -0.35203119      1.21069969
N       1.11061238     -1.15098177      0.03996324
C      -0.00696252     -0.43252968      0.27411223
S      -0.05922179      1.10514101      0.82296983
N      -1.10324239     -1.26145329      0.03056976
C      -0.69370841     -2.52212362     -0.37540498
O      -1.41377000     -3.44455737     -0.64108568
C       0.81719476     -2.47611929     -0.44467077
C       1.37911798     -2.89484950     -1.82521682
C       1.75958386     -4.25910728     -1.23453295
C       1.51608126     -3.70489583      0.17638528
C      -2.44325938     -0.88625803      0.19421739
C      -2.89434731      0.36313939     -0.22582255
C      -4.22544835      0.68538494     -0.01891172
C      -5.06156374     -0.25706529      0.59853738
N      -4.62277661     -1.45523772      0.96571899
C      -3.36339009     -1.76722247      0.77154975
C      -6.43098084      0.03607237      0.85450024
N      -7.52984445      0.27912029      1.05872451
C      -4.77812648      2.01602649     -0.45739153
F      -5.79910840      1.87423645     -1.31761255
F      -5.23690634      2.73778765      0.57417704
F      -3.86263791      2.76951363     -1.07870189
F       4.46430564      1.66882372     -1.79800418
H       8.28622436      3.08388267     -1.07767826
H       7.85578035      3.83600944      0.47549722
H       8.57388116      2.20763979      0.44438901
H       5.87095286      2.79562103     -0.58634298
H       2.17905968      0.54474981     -1.70531322
H       2.91837178     -1.55558984      1.95624430
H       5.20257940     -0.59512196      2.01192526
H       2.24112487     -2.29125036     -2.10187833
H       0.65632344     -2.90076273     -2.63773800
H       2.76970852     -4.60030530     -1.44189625
H       1.04936347     -5.03633369     -1.50163280
H       0.88840672     -4.30468795      0.83117223
H       2.43534661     -3.43450933      0.68869174
H      -2.22906790      1.06814865     -0.69853807
H      -3.07091963     -2.75892835      1.08401572
