18
charge=-1
S       1.31139359      0.78835032      5.44398467
S       2.82571274     -0.44400014      4.72965372
C       1.33221419      1.93102593      4.00625785
C       3.08838033      0.49757460      3.17501535
C       2.72647036      1.93957006      3.43049125
H       1.01055025      2.89891875      4.38489776
H       0.63082699      1.55714408      3.25891104
H       2.43083329      0.08626533      2.40773306
H       4.13215746      0.35080622      2.90545388
H       3.43806668      2.41743158      4.10941620
H       2.69685843      2.46811756      2.45690750
O       2.28766244      2.97692096      0.70892857
O       0.95516093      1.20747276      0.95221888
C       1.43550756      2.15655359      0.31444818
C       0.93378042      2.34219054     -1.15338045
H       1.59689178      1.78777258     -1.81720817
H      -0.07633312      1.95056377     -1.25628967
H       0.96209543      3.39499182     -1.42742991
