16
charge=0
S       1.01364738      0.34364387      3.03175499
S       0.95964043      2.34408869      3.43528544
H       2.31100536      0.24675174      2.71150235
H       0.57505090      2.77030818      2.22132774
C       1.13219089      0.91079255     -0.37238826
C       0.11911850      1.85130392     -0.28944192
C       2.45626989      1.31308219     -0.31210933
C       0.43134500      3.19469820     -0.14577205
C       2.76899004      2.65509194     -0.17178861
C       1.75715056      3.59700866     -0.09155328
H       0.88864541     -0.13584561     -0.47841388
H      -0.91367887      1.53795434     -0.33242851
H       3.24605006      0.57832913     -0.37554184
H      -0.35879962      3.92974590     -0.08488007
H       3.80182186      2.96787495     -0.12578973
H       1.99945150      4.64379130      0.01831705
