20
charge=0
C      -0.02181572      0.08131162      0.01479411
C      -3.31248333      3.64284733     -1.40638723
C      -0.46256290      1.01003789     -1.11086215
C      -2.08995746      2.82739023     -1.80890539
C      -1.69392296      1.82777833     -0.72457169
H       0.86363433     -0.48063428     -0.27438127
H      -0.81284803     -0.62612881      0.25256244
H       0.20621649      0.64797618      0.91512979
H      -4.16439131      2.99015450     -1.22891793
H      -3.57778705      4.34847632     -2.19016390
H      -3.11390909      4.20119643     -0.49410590
H       0.35789452      1.68425315     -1.37454052
H      -0.68909072      0.41931715     -2.00152157
H      -1.25362824      3.50369630     -2.00437007
H      -2.30018906      2.28920691     -2.73620281
H      -2.52901891      1.14813294     -0.54034641
H      -1.50207910      2.36460443      0.20822779
O       1.13210814      3.32826984      1.23970937
H       1.99182196      2.93637510      1.07501446
H       0.59220323      3.15713760      0.46412411
