25
charge=0
O       2.99864539      3.47068235      2.81986450
C       3.01041761      4.50609979      1.86663181
C       4.20840832      2.75317869      2.86952395
H       2.03680626      4.98946723      1.91488439
H       3.17284932      4.11232131      0.85625005
H       3.79443554      5.23796964      2.09073374
H       4.42688805      2.27807119      1.90574670
H       5.04405413      3.40935856      3.13723696
H       4.08869631      1.98668681      3.63244752
C      -1.23301470      0.50073956      2.62334419
C      -0.42854214      1.40154167      3.25268704
C      -0.09621682     -0.68088859     -0.77592557
C       1.07460568      0.08238281     -0.81690357
C      -0.94583618     -0.63278101      0.30568801
C       1.42341831      0.91321410      0.22528733
C      -0.61884586      0.19960698      1.37614752
C       0.57151997      0.96822258      1.32152208
N       0.65774777      1.68687186      2.47611309
H      -2.15321867      0.09462530      2.99417839
H      -0.54908500      1.86937288      4.21164653
H      -0.33168205     -1.31947186     -1.61524386
H       1.71503786      0.01604007     -1.68472192
H      -1.84873531     -1.22542717      0.33032122
H       2.32828176      1.50314582      0.19387217
H       1.40401517      2.32582933      2.71456802
