27
charge=0
C       1.93968761      2.62680884      3.28244678
C       3.09212732      2.71943925      2.28690260
C       2.45398294      2.19576893      4.65214424
C       3.81157576      1.37788047      2.18474634
C       3.17321065      0.85444245      4.54711307
C       4.32741448      0.94598904      3.55363849
H       1.21466926      1.88963267      2.92988464
H       1.43186364      3.59140924      3.35890132
H       3.79751328      3.48516475      2.61981180
H       2.71656592      3.01912465      1.30514812
H       1.62071770      2.11746832      5.35379757
H       3.14541804      2.95075110      5.03511173
H       4.64170767      1.45084429      1.47754707
H       3.11458253      0.62270166      1.81578988
H       2.46608618      0.09427585      4.20738890
H       3.54750269      0.55335553      5.52813743
H       4.82766600     -0.02167843      3.47383239
H       5.05993662      1.67342828      3.91282098
S       0.41264183     -0.27019236      1.19598991
C       1.35826064      0.95581397     -1.11554693
C       0.26053601      1.03783791     -0.07361700
H       0.29086117     -1.29803436      0.35815591
H       2.33593179      1.01699863     -0.64303464
H       1.25927168      1.77929141     -1.82022619
H       1.29806487      0.01934232     -1.66749352
H       0.31774542      1.97116942      0.48537784
H      -0.72942142      0.95107622     -0.52179901
