17
charge=0
O       1.24058334      1.53125503      2.17319890
C      -0.03472019      3.02498679      3.52576305
C       0.52787349      1.61789397      3.38614976
H       1.59789336      0.63341987      2.08707706
H      -0.69557053      3.24204253      2.69083399
H       0.77627314      3.74830716      3.51949934
H      -0.58944702      3.11572847      4.45560429
H       1.19197659      1.39728869      4.23521696
H      -0.29379247      0.88623744      3.39870895
O       2.47961886     -0.98100290      1.50689127
O       3.42541899     -0.48773869     -0.47398551
C       3.12438250     -1.26750288      0.53644952
C       2.94258180      0.85771553     -0.43714834
H       3.56266823     -2.26480454      0.36641320
H       3.29551120      1.32767589     -1.35091259
H       3.32963215      1.38004903      0.43830343
H       1.85315430      0.87296689     -0.39275742
