25
charge=0
O       1.16787133      3.09020078      1.32825458
C       3.86369734      2.01126256      2.69855156
C       3.71415710      3.18409524      3.66267243
C       2.44683651      1.44911426      2.63442354
C       2.38741416      3.82327154      3.24698049
C       1.53797300      2.69558498      2.62591615
H       0.70463583      2.34310265      0.90377855
H       4.15765703      2.37780547      1.71451589
H       4.59523462      1.27637168      3.03386264
H       4.54543047      3.88573678      3.60685609
H       3.64787279      2.81133821      4.68696152
H       2.27341398      0.83489775      1.75195262
H       2.24376662      0.85046703      3.52413335
H       2.54829745      4.56752544      2.46731009
H       1.88138692      4.30467051      4.08197049
H       0.62935987      2.50625222      3.22056350
N      -0.13783883      0.76991262      0.28311574
C      -0.57055824      0.64916203     -0.94019818
C      -0.58281159     -0.32729415      0.95065119
C      -1.29827203     -1.12373680      0.10586832
N      -1.28353868     -0.48770425     -1.10354765
H      -0.38963583      1.35610747     -1.72431315
H      -0.35819422     -0.46742719      1.98817966
H      -1.79919072     -2.05691403      0.25757548
H      -1.72365454     -0.81103270     -1.94927476
