23
charge=-1
O      -0.95224594     -0.02413371      2.36211329
O       2.71786270      0.61413994     -0.70921952
C      -0.53259852     -0.30471097      1.05694693
C       1.62687893     -0.05407631     -1.27034336
C      -0.12971809      0.96396505      0.29865389
C       0.29881941      0.71131216     -1.14477117
H      -0.15300521      0.34671157      2.83620685
H       2.68364991      0.47862463      0.26886575
H      -1.37628675     -0.79541972      0.55004960
H       0.31711472     -1.00037886      1.07355567
H       1.51377627     -1.05541953     -0.83423433
H       1.85500798     -0.17688414     -2.33954385
H      -0.97691737      1.65669061      0.31061661
H       0.69034442      1.43060932      0.84511570
H      -0.47609389      0.14441009     -1.67133608
H       0.41705801      1.67476819     -1.64912918
O       2.59188918      0.09338990      1.93057333
O       1.27423548      0.95471307      3.50713662
C       2.37899871      0.71310716      2.98783076
C       3.63405910      1.23827393      3.74352104
H       4.23725731      1.83709851      3.06327255
H       3.33496073      1.83466421      4.60263447
H       4.22903290      0.38855044      4.07500340
