19
charge=0
C      -0.00373074      3.36992403      4.36628336
C       0.67813962      4.35852007      3.82144753
H      -1.05445842      3.22411872      4.17233790
H       0.45272578      2.66360170      5.04117065
H       0.21942207      5.07094192      3.15441854
H       1.72643210      4.51017889      4.02343360
O       0.01574450      2.44698143      1.13418090
C       3.07247774     -0.18470267      0.21477724
C       2.03480267      0.03860830     -0.67586207
C       3.08712560      0.48086949      1.42766774
C       1.01846840      0.91875992     -0.36092111
C       2.07382584      1.36471884      1.75301087
C       1.03295318      1.58851606      0.85930545
H       0.14500143      2.84389204      2.00834358
H       3.86486363     -0.87361076     -0.03559707
H       2.01680288     -0.47737451     -1.62443619
H       3.89189256      0.31334773      2.12854273
H       0.20369754      1.10374099     -1.04294331
H       2.08473335      1.88547823      2.70126881
