26
charge=1
C       1.23152087      0.44959573      0.16205897
N       1.76578174      0.73189935      1.34243533
N       1.96561210     -0.03509781     -0.83733859
N      -0.07259166      0.66029811      0.00257425
C       3.38807593     -0.29777244     -0.74968093
H       2.74555241      0.61159108      1.52499085
H       1.14298298      1.11062700      2.05849501
H       1.50888956     -0.23512792     -1.71270701
H      -0.54642401      0.46834772     -0.86176547
H      -0.59115950      1.03770834      0.79184915
H       3.72993147     -0.68982975     -1.70246197
H       3.60157547     -1.03938756      0.02239435
H       3.94238508      0.61853916     -0.53773588
O      -0.71737448      3.82378055      4.18854649
O      -0.51903372      1.66596423      2.59607296
C      -1.28133663      2.99995123      5.20282754
C      -1.17118969      0.99493927      3.66866388
C      -0.76644511      1.57224802      5.02176997
H      -0.96419332      4.73980476      4.34871583
H      -0.54102300      2.61252738      2.83604929
H      -0.99370486      3.36786712      6.19350468
H      -2.37684335      3.01427909      5.12810145
H      -0.88725950     -0.05803403      3.59646098
H      -2.25754691      1.07521894      3.53834572
H       0.32226464      1.57434508      5.10260245
H      -1.17355665      0.94926685      5.81646082
