15
charge=0
N       1.23226816      1.19418276      2.12162621
C       1.04586599      0.38910728      3.12945720
C      -0.94588314      1.07921398      2.56318498
C      -0.00326489      1.64235769      1.74820212
N      -0.26337917      0.28000937      3.44172016
C      -0.17615202      2.58297916      0.61078743
H       1.82541950     -0.12618009      3.65388244
H      -2.01071919      1.18052151      2.59195373
H      -0.66804904     -0.27260317      4.17915497
H      -1.14893789      3.06461950      0.66269261
H      -0.10022792      2.04708211     -0.33494457
H       0.60866798      3.33497166      0.63137023
O       3.29243976      2.82589157      1.05381750
H       4.02508905      2.23058946      0.88948558
H       2.57906244      2.27401349      1.42228252
