23
charge=0
N      -0.33453772      3.67908704      1.26982663
C      -1.02065089      1.43561866      1.94839245
C      -1.39227675      2.68128146      1.15473592
H      -0.54853964      4.49396189      0.70410671
H      -0.25875171      3.98858196      2.23439573
H      -0.07563544      1.03206046      1.59540930
H      -1.79048311      0.67703401      1.83632264
H      -0.91985153      1.67591866      3.00476255
H      -1.49198904      2.42619267      0.09539085
H      -2.37002018      3.05691534      1.49949559
S       3.86922850      3.65431670      0.41522347
S       2.43781482      0.99403431      0.05934720
C       5.35600909      2.64590269      0.66055279
C       1.65842037      1.77080344     -1.37850022
C       2.63962645      2.48951081      1.07060008
H       6.17357455      3.14926466      0.15618806
H       5.18511263      1.66619635      0.22141384
H       5.56522323      2.55921160      1.72361300
H       0.70584577      2.19511011     -1.07621756
H       2.32059667      2.54636999     -1.75439442
H       1.51550099      0.99794821     -2.12590709
H       2.95425170      2.16325320      2.05913121
H       1.68077632      3.01210844      1.11203064
