24
charge=0
C       2.85868750      2.32734644     -0.13124451
C       3.36892414      2.13845296      1.07956396
C       1.92265102      3.40326322     -0.58232031
C       4.29957237      0.99240327      1.35677665
C       3.08850901      2.98416477      2.28551136
H       3.13713223      1.63691474     -0.91960593
H       1.62639540      4.06381837      0.22686317
H       1.02398235      2.95908076     -1.01281136
H       2.39471780      4.00169259     -1.36240942
H       5.29039568      1.36788456      1.61341134
H       3.93651493      0.41299963      2.20457477
H       4.39270032      0.33578498      0.49513175
H       4.01782464      3.19728995      2.81170569
H       2.61344259      3.92661924      2.03188389
H       2.43694770      2.43904083      2.96877076
O       0.46332097      0.83562438      2.98452339
C       0.76476428     -0.24311232      2.13659347
C      -0.39930215      1.76826202      2.38450728
H       1.42726672     -0.90360466      2.69224634
H       1.26781572      0.10084672      1.22471647
H      -0.14310012     -0.79193074      1.85567369
H       0.04535938      2.18678991      1.47423674
H      -1.36288001      1.30939975      2.12879261
H      -0.55866212      2.56189868      3.11170876
