32
charge=0
C       1.95558681      3.40951168      1.38166718
C       0.99352665     -2.82449968      2.31640626
C       1.99743825      1.94700255      0.95577713
C       0.94229342     -1.35554147      2.71839163
C       1.42420566      1.02616255      2.02967432
C       1.45442673     -0.44052365      1.60927155
H       2.50776743      3.55233089      2.30797109
H       0.92839044      3.72644323      1.54728767
H       2.39183992      4.04825104      0.61624673
H       0.63291505     -3.45599980      3.12517328
H       2.01261878     -3.12228132      2.07775273
H       0.37355911     -3.00337051      1.43975319
H       1.42943091      1.82292644      0.03021685
H       3.03039982      1.65653493      0.74672432
H       1.54516407     -1.19497266      3.61372558
H      -0.08750004     -1.08362920      2.96058032
H       1.99573969      1.13968828      2.95255371
H       0.39337915      1.31899348      2.24177718
H       0.84745440     -0.57811692      0.71009497
H       2.48134532     -0.72012201      1.35872586
O       3.62557654      0.00946378      4.60604454
C       4.46736064     -0.37307592      3.82235228
N       5.26667270      0.47373680      3.13274364
C       4.73267753     -1.83387606      3.52027783
C       5.21054547      1.90565712      3.29214502
H       5.95703041      0.10061025      2.50153607
H       5.72292140     -2.10952656      3.87775821
H       3.99090215     -2.44451770      4.02594981
H       4.68322954     -2.01735943      2.44943843
H       4.97285568      2.39299455      2.34485184
H       6.16055940      2.29350218      3.66619048
H       4.42577603      2.11910316      4.01598113
