20
charge=0
S       2.92751035      1.01729812      1.70466492
S       3.71605478      2.31744686      3.04259940
C       3.36768638      1.76341186      0.09832578
C       2.40514673      3.57517995      3.22848455
H       3.05220578      1.05522694     -0.65973648
H       4.44114329      1.91564951      0.05686489
H       2.83301833      2.69984614     -0.02578322
H       2.41932829      4.24326692      2.37249929
H       1.44045981      3.08444258      3.31812126
H       2.64104606      4.12381770      4.13354069
N      -0.37087873      1.99561015      2.34084168
N      -0.20097524      1.39085028      0.06604725
C      -0.25978333      2.26514112      1.05206196
C      -0.43129464      0.71542622      2.67499954
C      -0.25793085      0.11229248      0.40567513
C      -0.37950437     -0.29472772      1.72618810
H      -0.21046376      3.31240931      0.77854851
H      -0.51748370      0.50480181      3.73340295
H      -0.20292562     -0.59774703     -0.40970890
H      -0.42264032     -1.33538353      2.00043245
