24
charge=0
C       2.81422448      2.71439202      1.80582701
C      -0.43353647      0.62731960      2.21585725
C       1.83818895      1.71651606      2.41626681
C       0.50135984      1.70363507      1.67868216
H       3.75472406      2.71484030      2.35225736
H       2.39919288      3.71955066      1.83577373
H       3.01935976      2.45965373      0.76787192
H      -0.62977755      0.78724104      3.27388116
H       0.01200887     -0.35825696      2.09565753
H      -1.38247460      0.64302617      1.68444981
H       2.27453599      0.71480608      2.38334673
H       1.66748366      1.96605047      3.46610807
H       0.02718169      2.68303047      1.77614663
H       0.68167254      1.53023093      0.61457418
N       3.09949499      0.22341082     -1.00282376
N       1.85388323     -1.78459678      0.44730144
C       3.71348845     -0.38964175     -0.00283362
C       3.08901092     -1.39566481      0.72388994
C       1.86486867     -0.16646600     -1.28029849
C       1.24059384     -1.17287597     -0.55393329
H       4.71985708     -0.06092269      0.21687005
H       3.57942799     -1.90190175      1.54426482
H       1.37319552      0.34205729     -2.09850519
H       0.23143519     -1.49628370     -0.76867190
