24
charge=1
C       4.09322070      0.22771202      2.38744069
N       5.24634049      0.50159683      3.00661834
N       3.21028559      1.16049260      2.11126427
N       3.82942437     -1.03778442      2.03739578
C       3.38204510      2.55879830      2.43873313
H       5.47177775      1.44139586      3.28117956
H       5.91273866     -0.22190390      3.21166371
H       2.31301905      0.86730058      1.61564437
H       2.96640869     -1.25854878      1.57131203
H       4.47579118     -1.78243972      2.22888658
H       2.50240032      3.09514007      2.09552583
H       4.25724117      2.98042848      1.93996611
H       3.47553383      2.70722683      3.51657238
N       0.97764854      0.38236808      0.86968958
C      -0.11558833      0.09791921      1.56950629
C       0.88796581      0.44740692     -0.45452684
C      -1.34379797     -0.13884170      0.97793177
C      -0.29494351      0.22642269     -1.13746978
C      -1.43457966     -0.07240465     -0.40486345
H       0.00977555      0.06162295      2.64336629
H       1.80465533      0.68669792     -0.97666601
H      -2.20559117     -0.36623972      1.58372115
H      -0.32313879      0.28932592     -2.21293501
H      -2.37579373     -0.24854485     -0.90194844
