23
charge=1
C       3.15278504      0.46034744      0.87595541
N       3.92653580     -0.47475336      0.32730683
N       3.54584850      1.72579611      0.91679825
N       1.97099928      0.14619356      1.38803118
H       3.63960503     -1.43843365      0.29732893
H       4.82739209     -0.24706189     -0.05807935
H       4.42936363      2.02385490      0.54133495
H       2.92710061      2.41139754      1.33974485
H       1.40722852      0.88694194      1.79453622
H       1.61876286     -0.79524661      1.38232716
O       1.23763410      2.77948723      2.24959310
C      -1.49817655      4.79512338     -0.14306881
C      -0.67941495      3.81737249     -0.68200623
C      -1.40712548      5.10584444      1.20260915
C       0.23087096      3.14734813      0.11625891
C      -0.50039753      4.44238193      2.01097079
C       0.31463753      3.46593292      1.46393082
H       1.17328440      3.11341692      3.15398691
H      -2.20528181      5.31343930     -0.77037101
H      -0.74610443      3.57115427     -1.73005449
H      -2.04143191      5.86619717      1.62978023
H       0.87057639      2.38430773     -0.30179389
H      -0.42673197      4.68274674      3.06278001
