13
charge=-1
O      -0.02791247     -1.02548763     -0.29834344
C       0.22909592      0.04456330      0.24416592
N       1.38546690      0.33816935      0.82595050
C      -0.77871967      1.18329236      0.31008692
H       1.58440082      1.26596201      1.28643234
H       2.12159209     -0.34892424      0.83695595
H      -1.70537315      0.89286111     -0.17923682
H      -0.36059912      2.06149938     -0.17424653
H      -0.96901391      1.43476036      1.34989181
O       1.93532344      2.66295278      2.00042352
O       3.90609658      1.67757644      2.38108278
C       3.10028772      2.59774844      2.43799984
H       3.45198477      3.55693641      2.97226793
