14
charge=1
S       2.98010855      2.95684914     -0.34983297
S       0.98118028      2.72821580      0.08845738
H       2.89631682      4.05472026     -1.10079226
H       0.65841410      1.82878251     -0.84998787
C       2.41795529      0.37940691      4.69419908
C       1.42085365      0.74400118      3.84026734
C       3.32832765      1.27934479      2.91642600
N       3.59207079      0.72365954      4.09476938
N       2.01425237      1.29709966      2.74792853
H       2.37034717     -0.08669876      5.65723760
H       0.35855204      0.64948239      3.93677753
H       4.05063006      1.65246228      2.21513107
H       4.51314773      0.57845109      4.48749728
H       1.52950281      1.68371341      1.92192095
