19
charge=0
N       1.47520758      4.22009478      4.63587149
N       1.31657253      2.56953292      2.96423465
C       1.88888640      3.61303760      3.54193068
C       0.38422301      3.73924106      5.21061676
C       0.22347938      2.08700654      3.53934685
C      -0.30066758      2.64703197      4.69397860
H       2.78115240      4.00400629      3.06987615
H       0.05723789      4.24830634      6.10790821
H      -0.23200516      1.23317186      3.05401726
H      -1.18847568      2.25623991      5.16245220
N       3.24754151     -0.19778114     -0.77269324
C       3.04668616      0.16405984      0.46425175
C       2.59483398      0.72098925     -1.53101937
C       1.99371259      1.64714128     -0.72751474
N       2.29008839      1.28093755      0.55338782
H       3.43010174     -0.35241050      1.32193911
H       2.60004124      0.65608331     -2.60058328
H       1.39941720      2.50915881     -0.95171783
H       1.98907761      1.75746012      1.40124971
