15
charge=1
O       1.63916835      1.19659707      2.29827890
O       1.51773838     -0.00872863      4.17060355
C       1.12305336      0.35056635      2.99248245
H       2.30497166      0.47288066      4.48526591
H       0.23544571     -0.21990334      2.68433513
C       0.92249587      3.14171780     -2.11510022
C       0.59128460      2.26423955     -1.12641345
C       2.31123173      3.41818822     -0.44480716
N       1.99671691      3.84796345     -1.66453538
N       1.46771917      2.45751020     -0.10415107
H       0.48011129      3.30500184     -3.07639238
H      -0.19150322      1.53489822     -1.08831054
H       3.11434632      3.78752399      0.16306379
H       2.47325023      4.57798079     -2.17713709
H       1.47888315      1.93953740      0.79628233
