30
charge=0
C       2.47543635      1.29371217     -0.90178901
C       2.73769094      0.05057906     -0.35421837
C       2.71250447      2.43378775     -0.15365653
C       3.23243354     -0.05046087      0.93384054
C       3.20526658      2.32918127      1.13354623
C       3.46897353      1.08622628      1.69446006
C       4.02043237      0.98302933      3.08378571
H       2.08727318      1.37396999     -1.90667859
H       2.55636196     -0.84445978     -0.93263657
H       2.51031830      3.40822716     -0.57398655
H       3.43650493     -1.02489589      1.35549633
H       3.38358153      3.22237968      1.71514823
H       3.84550569     -0.00643168      3.49917959
H       3.56203074      1.72598757      3.73257077
H       5.09629499      1.16225125      3.07363521
C       0.08086577      3.33480094      2.24624730
C       0.49713634      2.72889405      3.41824549
C      -0.28693951      2.55214833      1.16557623
C       0.54626432      1.34912442      3.50715068
C      -0.23511936      1.17390980      1.25724647
C       0.18444752      0.55505584      2.42775256
C       0.21995834     -0.93973652      2.52433636
H       0.04394453      4.41203974      2.17479434
H       0.78477636      3.33327355      4.26708806
H      -0.61312145      3.01757940      0.24684844
H       0.87131616      0.88176821      4.42632791
H      -0.51840390      0.56768500      0.40865986
H       0.87696594     -1.26204197      3.32848447
H       0.56483425     -1.37459981      1.58892403
H      -0.77996459     -1.32550486      2.72692129
