23
charge=1
O       2.86489192      2.22232033      2.99165372
C       3.61402365      2.51884443      3.90564729
C       3.12371079      2.70079771      5.30636237
C       5.08025282      2.72260874      3.69560706
H       2.04901688      2.54911357      5.36701446
H       3.36898988      3.70134621      5.65619882
H       3.62599131      1.99587636      5.96579861
H       5.35485768      3.73529397      3.98388010
H       5.64272906      2.04208622      4.33135207
H       5.35283970      2.55716322      2.65638996
C       0.01399842      0.43406757     -0.48081828
C       0.88068394      0.31771170      0.57110373
C       0.54710676      2.45338872      0.18008558
N      -0.17468353      1.76786529     -0.70098969
N       1.19021754      1.59327023      0.95546551
C       1.44335209     -0.86935728      1.24667651
H      -0.46504165     -0.32170336     -1.06768451
H       0.60051336      3.52188375      0.25198546
H      -0.76736275      2.16231831     -1.41815749
H       1.82795542      1.83286130      1.73146683
H       1.07091434     -1.77941278      0.78781727
H       1.17263767     -0.86825755      2.30119059
H       2.53021892     -0.86054145      1.18403637
