18
charge=-1
C      -0.43213444      2.99656896      1.87781610
C       0.66673495      2.36054167      4.04141394
C       0.35824095      3.49889991      3.07840304
H       0.12391361      2.19870924      1.38073811
H      -0.61118922      3.80075396      1.16351449
H      -1.39528217      2.59870721      2.19641430
H       1.20806340      1.57157454      3.51476594
H       1.27462982      2.70940464      4.87675033
H      -0.25581147      1.93904180      4.43973251
H       1.29820259      3.93275717      2.72858623
H      -0.20045230      4.29249688      3.59533144
O       2.21979834      0.07850332      2.42256614
O       1.24174541      0.64466052      0.49598839
C       2.00646599     -0.02713258      1.20508828
C       2.79756976     -1.17300650      0.46701492
H       2.20763288     -2.08840760      0.51761681
H       2.95099535     -0.91045126     -0.57843049
H       3.75453942     -1.34441046      0.95722585
