17
charge=1
O       3.37450271      2.06008918      2.07648858
C       4.18135062      2.28369700      2.93902309
H       4.87742301      3.13003370      2.88256432
H       4.26938160      1.65462882      3.83375312
C       1.12354054      1.44257618     -0.33741151
N       1.20252909      0.66015288      0.73248806
N       0.23515303      1.20546103     -1.29795129
N       1.95612109      2.47667424     -0.43193975
C      -0.71028960      0.10677790     -1.28316884
H       0.59738775     -0.13281160      0.85160969
H       1.89136723      0.87165878      1.44346938
H       0.21193973      1.82635341     -2.09137764
H       1.94226362      3.10244418     -1.21796844
H       2.62411261      2.63745388      0.31190145
H      -1.31156479      0.15244043     -2.18586179
H      -1.37887164      0.17764495     -0.42322096
H      -0.19291683     -0.85423504     -1.26538680
