20
charge=0
N      -9.13822504     -9.89188285      0.25337121
N      -9.56356973    -10.35281220      2.52786663
C      -9.40544395    -10.69877947      1.26395137
C      -9.00341621     -8.60603237      0.54106261
C      -9.43142883     -9.06608187      2.81127760
C      -9.13779387     -8.12458110      1.83537103
H      -9.50918178    -11.75114850      1.03051476
H      -8.78873427     -7.95316410     -0.29527852
H      -9.56924394     -8.79195453      3.84893407
H      -9.02986035     -7.07824025      2.06750027
N     -11.99039908     -7.69792487     -0.52362388
N     -12.41582479     -8.16305434      1.74999349
C     -12.14881203     -7.35425293      0.74088576
C     -12.12213152     -8.98419314     -0.80935279
C     -12.55020599     -9.44842338      1.46000273
C     -12.41561605     -9.92750007      0.16482686
H     -12.04548996     -6.30224963      0.97612805
H     -11.98407640     -9.25638534     -1.84748668
H     -12.76468462    -10.10286404      2.29515778
H     -12.52329236    -10.97343214     -0.06924220
