25
charge=1
O       2.14870117      1.68030266      1.47783504
C       1.56475086      1.09220442      2.40916439
N       2.21015195      0.76376184      3.52189390
C       0.10891569      0.72901917      2.32042237
C       1.57509032      0.07579083      4.62418953
C       3.61784536      1.06745060      3.67561451
H      -0.28283358      0.98735508      1.34000108
H      -0.46092695      1.26207492      3.07917619
H      -0.02933302     -0.33733436      2.48348542
H       1.26701100     -0.93180973      4.33802577
H       2.28621525     -0.00306431      5.44202620
H       0.70058899      0.62154492      4.98019127
H       3.97186762      1.56804855      2.77762384
H       3.76688907      1.72180488      4.53501212
H       4.18393240      0.14721089      3.82284191
C       0.09702580      3.71021445     -2.26088526
C       0.11575355      3.36927500     -0.94135096
C       1.86224428      2.47706104     -1.87178719
N       1.19995087      3.13947692     -2.82149861
N       1.21790134      2.60239233     -0.72735034
H      -0.60014305      4.29921727     -2.81965529
H      -0.56805566      3.62220819     -0.15783835
H       2.77267646      1.92874842     -2.01185626
H       1.46780551      3.21197262     -3.79289840
H       1.55459041      2.19233341      0.23120110
