25
charge=0
O      -1.60754141      1.37487067      1.46289230
C      -2.60389368      1.41404073      2.16592740
N      -3.84715557      1.33933744      1.65584874
C      -2.55849200      1.54903888      3.66929277
C      -4.11520032      1.20722581      0.24422637
H      -4.63795635      1.37624849      2.27912311
H      -3.04002023      0.69146933      4.13451542
H      -1.52603706      1.60288604      4.00244668
H      -3.08115022      2.45208076      3.97764654
H      -4.65808433      0.28283666      0.03958843
H      -3.15659309      1.18386489     -0.27078712
H      -4.69975117      2.05454575     -0.11832942
O       0.76551006      1.55496674      2.85443431
C       4.20006150      1.43341544      0.55821680
C       4.27324965      1.55748952      1.93594702
C       2.96151365      1.34932146     -0.05468080
C       3.12253668      1.59761828      2.69846255
C       1.80337403      1.38846442      0.69875681
C       1.87540599      1.51310206      2.08316752
H      -0.03045885      1.48509433      2.28183694
H       5.10290800      1.40249960     -0.03356368
H       5.23625043      1.62370166      2.42172733
H       2.89549256      1.25235418     -1.12909355
H       3.16664376      1.69402863      3.77247567
H       0.83257728      1.32334524      0.22732652
