17
charge=0
O       2.02294501      3.56457246      0.96973025
O       3.83994331      2.25031837      1.21502000
C       2.72794449      2.65355770      0.63240540
C       4.21894222      2.89637153      2.42554186
H       2.56259455      2.04306654     -0.26925830
H       5.30400205      2.97734860      2.42290334
H       3.89303682      2.28762098      3.27060741
H       3.75905298      3.88474034      2.48401232
S       0.89145442      0.70755824      1.94889474
C      -0.33935799      1.21783954      0.71944231
C       0.51724561      1.94869440      3.21670908
H      -0.21139191      0.57976482     -0.14845565
H      -0.16227502      2.25726848      0.45652808
H      -1.33567516      1.08799157      1.13323557
H       0.73062231      2.93599957      2.81312844
H      -0.52737223      1.86541416      3.50256941
H       1.15318021      1.74078232      4.07083591
