23
charge=0
O       2.90445554     -0.10447900      1.31107615
O       1.87974373      1.86996397      1.18108559
C       2.96108854      1.09165991      1.19602125
C       4.22658469      1.88911736      1.04670275
H       1.05986698      1.34051488      1.26562862
H       5.08867014      1.25249599      1.21777192
H       4.21867086      2.71908839      1.74779333
H       4.26607845      2.29724024      0.03912756
C      -1.76442183      1.79667119      0.60635251
C      -1.56077168      1.25013351     -0.64874171
C      -1.26839225      1.14461390      1.72395375
C      -0.86988241      0.05795129     -0.78754060
C      -0.57302981     -0.04616335      1.58175141
C      -0.37039176     -0.60970383      0.32316979
C       0.39042207     -1.89032897      0.19229226
H      -2.30901889      2.72230838      0.71552124
H      -1.94598442      1.75156614     -1.52448219
H      -1.42609803      1.56169116      2.70812290
H      -0.72128874     -0.36296211     -1.77170475
H      -0.19226452     -0.55831410      2.45442249
H       0.38307942     -2.24829973     -0.83391644
H      -0.03688628     -2.65659538      0.83691758
H       1.42328484     -1.73262215      0.50289024
