22
charge=0
C       0.45880917     -0.03144749     -0.59354940
C       0.31590853     -0.35597087      0.68098886
C      -0.66379773      0.27264416     -1.52854864
C       1.44223915     -0.65372509      1.61556441
H       1.45065674      0.02571390     -1.02638572
H      -0.67600449     -0.42151181      1.11198618
H      -1.62390686      0.19507949     -1.02370354
H      -0.65157069     -0.42117885     -2.36893668
H      -0.55428871      1.27996923     -1.92977914
H       1.42346512      0.02811981      2.46649137
H       1.34962754     -1.66680731      2.00685268
H       2.40182846     -0.55965454      1.11238692
N       0.75556533      3.35067224     -0.04545657
C      -0.58579480      3.16708278      2.06968870
C      -0.50742972      3.63235213      0.61308539
H       0.93055449      2.34983999     -0.03346191
H       1.51530130      3.79790376      0.45845297
H      -0.43699770      2.09043851      2.12705599
H      -1.55743279      3.40694134      2.49403742
H       0.18261679      3.65568036      2.66736121
H      -1.29414557      3.14276740      0.03279998
H      -0.67214347      4.71266114      0.56302941
