24
charge=0
O       1.17385071      2.71956270      0.96629453
O       1.39007104      1.19471954      2.71027867
C       0.89533084      2.43231934      2.30166759
C       2.57364053      2.76864141      0.73643463
C       2.80367204      1.14639047      2.59190927
C       3.23687530      1.45665147      1.15829510
H       1.30805209      3.23327453      2.95083169
H      -0.19183199      2.39262809      2.40176445
H       2.69536133      2.95663880     -0.33072328
H       3.00217203      3.60840629      1.30615405
H       3.24770719      1.87682084      3.28671503
H       3.09500879      0.13932747      2.89179820
H       2.91148353      0.65375177      0.49664200
H       4.32060991      1.54556040      1.10168629
O       1.75420379     -1.04840676     -0.84882653
C       0.69249022     -0.68620768     -0.40000077
C       0.12037651     -1.24959300      0.87238695
C      -0.11635830      0.41457453     -1.03066848
H       0.61714477     -2.18140873      1.13054334
H      -0.95128968     -1.40579152      0.79139192
H       0.30389001     -0.52654961      1.66821418
H      -1.17718679      0.18210745     -1.02396881
H       0.04140404      1.32093487     -0.44465575
H       0.22146141      0.59732642     -2.04762494
