20
charge=0
O       0.97315218      0.23040921     -0.17293500
C      -0.23343676      0.35819895     -0.25386874
N      -0.93340657      1.17268191      0.55430630
C      -1.07603350     -0.39406032     -1.26438244
H      -1.92595505      1.28172768      0.44891376
H      -0.45641360      1.75042401      1.24140525
H      -0.43895982     -1.04789254     -1.85209357
H      -1.57639909      0.30966312     -1.92609800
H      -1.82872649     -0.98864328     -0.75155846
O       0.53544923      2.88528312      2.35586475
O       2.61673871      3.62120960      2.69437071
C       1.71874751      2.65828564      2.48180980
C       2.12426139      4.95250055      2.75024540
C       2.34565275      1.30470822      2.41451852
H       2.98369193      5.58730531      2.94871163
H       1.38274239      5.04993418      3.54592249
H       1.65868334      5.22374252      1.80058880
H       2.09039383      0.85155502      1.45178380
H       3.42154266      1.37845109      2.52829032
H       1.92622471      0.67181534      3.19351534
