25
charge=1
C       1.09638190     -1.62556628     -0.57764231
C      -0.60429517      0.10147338      0.01770988
C       1.80003989      0.38828481      0.71799073
C       1.14995038      0.61947125     -1.68114927
C       0.85995446     -0.12819135     -0.37940054
H       0.89516080     -2.17759773      0.33836501
H       2.12586402     -1.81333410     -0.86929871
H       0.44816832     -2.01343279     -1.35836432
H      -0.85735542     -0.44259767      0.92903135
H      -0.82409774      1.16517526      0.12305539
H      -1.25615152     -0.27684234     -0.76565110
H       2.83163632      0.21154360      0.42418964
H       1.69313721      1.46550591      0.85653705
H       1.64368059     -0.14525780      1.65687325
H       2.17996973      0.46270500     -1.98874247
H       0.50222264      0.26305370     -2.47709706
H       0.98828427      1.68933765     -1.56318635
C      -0.42416302      3.08665193      2.71181650
N      -0.30998254      1.62469731      2.92273796
H       0.54191196      3.49649570      2.42551959
H      -0.75660166      3.57824565      3.62317320
H      -1.14257864      3.29217466      1.92132264
H       0.00982382      1.15565792      2.04439546
H       0.36804861      1.42179758      3.66746882
H      -1.21914926      1.22920863      3.19208575
