18
charge=0
C       0.65166128     -0.94102243      3.88835966
C       1.10076965      0.25040436      3.34335599
C      -0.10690984     -1.80327442      3.11460783
C       0.79450159      0.57477836      2.03270161
C      -0.41145285     -1.47616056      1.80404173
C       0.03516170     -0.28387016      1.24555407
C      -0.26083248      0.05098658     -0.18342066
H       0.88818664     -1.19398972      4.91088721
H       1.68936802      0.93042153      3.94193110
H      -0.46472730     -2.73247779      3.53370702
H       1.14665560      1.50678142      1.61359586
H      -1.00556953     -2.15287565      1.20603329
H      -0.33682208      1.12678233     -0.32323411
H      -1.18730241     -0.41578387     -0.50930905
H       0.54518095     -0.31569661     -0.82030304
O       2.87142381     -1.93530707      1.06047179
H       2.84123512     -1.09342301      1.52082589
H       2.05761488     -2.39375305      1.28219259
