30
charge=0
C       3.93437442      0.49728710      1.95576400
C       3.98264231      0.59301270      0.43414413
C       3.19905602     -0.76835692      2.38616770
C       2.56881504      0.58356228     -0.13846921
C       1.78763230     -0.78265537      1.80779940
C       1.83366781     -0.68413166      0.28636468
H       3.41104771      1.37120603      2.34914072
H       4.94791042      0.49668949      2.36348313
H       4.54480990     -0.25424415      0.03271941
H       4.49708319      1.50896222      0.13639127
H       3.15618188     -0.82224243      3.47687147
H       3.74573622     -1.64554776      2.03058465
H       2.60565644      0.64619559     -1.22850710
H       2.03031193      1.45806131      0.23345684
H       1.23401688      0.07120238      2.20052931
H       1.26683140     -1.69494480      2.10960555
H       0.81832344     -0.68247691     -0.11832912
H       2.35102571     -1.55763930     -0.11863724
S       0.88501913      2.87379717      2.65592985
C       1.10722591      2.59290987      4.43379781
C      -1.26534599      2.27471448      1.04581043
C      -0.85293229      2.31838011      2.50384680
H       0.38735632      3.18830240      4.98907029
H       2.11647593      2.90584384      4.67948747
H       0.98204812      1.53591421      4.65476077
H      -2.30192712      1.95456250      0.96235937
H      -1.16425514      3.25861414      0.59389105
H      -0.63736519      1.57784650      0.49586379
H      -0.91891244      1.32888875      2.95948535
H      -1.47099046      3.01878561      3.06827727
