25
charge=0
N       0.03208891      1.30345577      1.63186292
C      -1.34430022      1.64773737      1.35173481
C       0.15325893      0.56248808      2.86756504
C       0.63426279      0.58856835      0.52850034
H      -1.74246093      2.23156737      2.18059494
H      -1.98646355      0.76328795      1.20627624
H      -1.38223042      2.25543550      0.44873445
H      -0.37601410     -0.40437351      2.84019224
H       1.20785195      0.37729877      3.06559740
H      -0.25517365      1.15804057      3.68291572
H       0.13947512     -0.37541443      0.32455421
H       0.57999073      1.20461510     -0.36767299
H       1.68295505      0.40364892      0.75520975
C       3.02505650      2.68832705      2.77296993
C       4.06239453      1.99120761      2.17727771
C       2.19740353      3.48896249      2.00536300
C       4.27453741      2.09773831      0.81317151
C       2.41164638      3.59787339      0.64261375
C       3.44955496      2.90282909      0.04616187
H       2.86132751      2.60602817      3.83778198
H       4.70745428      1.36336587      2.77600376
H       1.38461455      4.02643773      2.46882593
H       5.08364615      1.55287812      0.34761828
H       1.76705057      4.22433727      0.04353371
H       3.61680448      2.98614886     -1.01835642
