22
charge=1
O       0.67749460      1.09174541      0.77244668
C       0.60089814      2.27356253      0.42347002
N       1.68406190      2.98023759      0.10578822
C      -0.70764766      3.01052215      0.32761715
C       3.01998336      2.42234907      0.14457894
H       1.57994395      3.94244049     -0.17460617
H      -0.86382108      3.36516715     -0.68883369
H      -1.52811664      2.35423570      0.60416012
H      -0.70202078      3.87156940      0.99238705
H       3.73609665      3.18127817     -0.15193275
H       3.09200039      1.57094508     -0.53414540
H       3.25416417      2.07694278      1.15283148
C      -0.17534118     -1.83894331      1.75088081
N       0.07985163     -0.87566063      2.62257408
N      -0.09481122     -1.54916720      0.46144627
N      -0.51358733     -3.06357781      2.15974671
H       0.04857038     -1.02420059      3.61547430
H       0.34386938      0.03291179      2.24319360
H       0.18099385     -0.59902343      0.21718752
H      -0.26478976     -2.23081865     -0.25644300
H      -0.71114917     -3.79634508      1.50035327
H      -0.57896394     -3.28608995      3.13800547
