22
charge=0
O       1.25528411      0.83228074      1.04889969
C      -0.73548922      4.33924874      1.96215132
C      -1.26252462      3.43809099      1.05119955
C       0.47408885      4.05958628      2.57403155
C      -0.59079701      2.26964765      0.75241342
C       1.15475977      2.89217736      2.28205420
C       0.62840803      1.98427730      1.36644871
H       2.10225057      0.75728427      1.54595345
H      -1.26386444      5.25234031      2.19289219
H      -2.20631239      3.64836156      0.56879132
H       0.89330786      4.75659509      3.28609784
H      -0.99068176      1.56027243      0.04444170
H       2.09923662      2.67136962      2.75929660
N       3.63227024      0.60213956      2.49996762
C       3.84786166     -0.22777572      3.48255517
C       4.82109911      1.21389889      2.25272125
C       5.76993844      0.73834015      3.10875897
N       5.13451818     -0.18419684      3.89126716
H       3.10505685     -0.86551766      3.91718112
H       4.90934215      1.95031614      1.48043354
H       6.80782503      0.97110421      3.22302027
H       5.55364805     -0.72510115      4.62970324
