22
charge=0
O     -11.38477584     -8.00449596     -7.22437065
O     -12.83263554     -6.46428947     -7.94458480
C     -12.51759786     -7.65271546     -7.45663489
C     -13.39382633     -9.89383047     -6.70732816
C     -13.74396595     -8.50704696     -7.22610502
H     -12.03104524     -5.90852419     -8.09571727
H     -14.29711001    -10.47423390     -6.53888888
H     -12.84411703     -9.81792927     -5.77274989
H     -12.76775187    -10.41784142     -7.42493872
H     -14.28689566     -8.56600115     -8.17154114
H     -14.38361776     -7.97530990     -6.51833379
O     -10.34714043     -5.37305990     -8.07911046
O      -9.59784892     -7.08908729     -9.23939643
C      -9.59236720     -6.30942254     -8.15033666
C      -8.52860974     -5.63970712     -5.97580574
C      -8.58280089     -6.67547468     -7.09055300
H      -9.04034769     -7.87056820     -9.13551076
H      -7.80755563     -5.93586834     -5.21858583
H      -9.50672416     -5.54364786     -5.51314083
H      -8.24491895     -4.66864480     -6.37350342
H      -7.60132815     -6.79068352     -7.56036391
H      -8.88952232     -7.64453180     -6.68661401
