24
charge=0
C       4.21379014      0.70402718      4.04362002
C       3.72788455     -0.36404982      1.95334742
C       4.45494725      1.90485272      1.98312566
C       6.01375685      0.14664696      2.54470703
N       4.61586030      0.59362085      2.63257884
H       3.14791505      1.04664277      4.11081558
H       4.84665100      1.42422490      4.55710579
H       4.30319736     -0.26249110      4.53422140
H       2.72104094      0.08440742      1.92232340
H       4.06714577     -0.53175335      0.93324259
H       3.70372583     -1.30836888      2.49106569
H       4.97910283      2.67436910      2.54395753
H       4.83708676      1.86879362      0.96504769
H       3.37474241      2.12498490      1.94834550
H       6.66624524      0.86123326      3.04486326
H       6.12560135     -0.82548950      3.02321729
H       6.31925271      0.06213273      1.50237856
O       1.50167642      1.57574840      4.13879906
O       1.55833002      1.58450646      1.92808844
C       0.97443904      1.75524057      3.02449700
C      -0.48267923      2.23238475      2.98504183
H      -0.48735356      3.32145569      2.98012050
H      -0.96721552      1.87555577      2.07965075
H      -1.01193527      1.88300247      3.86766120
