19
charge=0
O       0.75196882      2.27816837      3.29267239
O       0.41084089      3.60533184      1.53331926
C       0.31964775      3.29941211      2.81560019
C      -0.38465682      4.37187224      3.60575520
H       0.87336837      2.90226877      1.01171258
H      -0.44060984      4.08644802      4.65134473
H      -1.38396474      4.51455855      3.20222622
H       0.15893121      5.30749994      3.50124356
O       1.69030566      1.66932271      0.06210933
O       2.76195834     -0.16974448     -0.60232072
C       2.19036655      0.59762546      0.32374938
C       2.76270032      0.32663287     -1.93458817
C       2.25012576     -0.02594056      1.68284597
H       3.26425622     -0.42504751     -2.53809026
H       3.29615678      1.27788620     -1.98453008
H       1.73931092      0.47881333     -2.28310925
H       1.75068093     -0.99144463      1.65803496
H       3.28915368     -0.19428215      1.95569513
H       1.77252856      0.62393027      2.41322879
