23
charge=0
O      -0.54737688      1.95429185      2.90908082
C       0.23158339      1.09109435      3.23306451
C       0.08711791     -0.34180442      2.79550108
C       1.44199758      1.36427412      4.08470670
H      -0.75656826     -0.45146488      2.11931696
H      -0.06876535     -0.97303569      3.66793568
H       1.00184233     -0.66454007      2.30331380
H       1.61637681      0.55608998      4.78881490
H       2.30568241      1.43268327      3.42379715
H       1.33192289      2.30708094      4.61423682
S       2.08601039      4.08205746      0.47841082
S       2.03322997      2.05679998      0.47372204
C       1.35059043      4.51733671      2.09096791
C       0.29887570      2.21890490     -1.69440800
C       0.39530146      1.70081428     -0.27636260
H       2.09437525      4.38726386      2.87094351
H       1.05959895      5.55969458      2.01848423
H       0.48109867      3.89442552      2.27645310
H      -0.68389711      1.99506432     -2.10443036
H       1.05662344      1.75442618     -2.32189169
H       0.44661141      3.29736370     -1.71550423
H      -0.36205957      2.13770341      0.37391599
H       0.31901842      0.61531623     -0.23956895
