25
charge=0
O       0.65629414      3.50877008      0.52861412
C       4.65209956      2.47636237      0.80842863
C       4.25980287      3.62472275      0.13970270
C       3.69501211      1.66411099      1.39035018
C       2.92358484      3.96163414      0.05122315
C       2.35360476      1.99203998      1.30785101
C       1.96095200      3.14416957      0.63681689
H       0.09267254      2.85986309      0.97528109
H       5.69778669      2.21683405      0.87512800
H       5.00107252      4.26371388     -0.31705425
H       3.99038358      0.76663839      1.91397544
H       2.60167202      4.85187788     -0.46562795
H       1.60653937      1.35605628      1.76327900
C      -1.53040386      1.96538103      2.47451830
C      -1.63304888      1.24969160      1.29031008
C      -0.84394604      1.42797364      3.55148883
C      -1.04903104     -0.00238829      1.18474589
C      -0.26069197      0.17613290      3.44481656
C      -0.36316846     -0.53865228      2.26208130
H      -1.98870945      2.94021215      2.55792351
H      -2.17133463      1.66725578      0.45175366
H      -0.76323698      1.98542495      4.47281612
H      -1.12806743     -0.55896220      0.26274894
H       0.27581154     -0.24225625      4.28371642
H       0.09351076     -1.51396701      2.17942307
