17
charge=0
C       2.31625905      1.49881507      3.69176037
N       2.56595541      1.18310980      4.98950012
N       1.55580743      0.72919744      2.94590969
N       2.84291249      2.59092558      3.17275991
C       0.92940065     -0.48375446      3.40404067
H       2.17514956      0.35786773      5.40204597
H       3.14682636      1.77338603      5.55472608
H       1.38316246      1.02339116      1.90800574
H       2.65447626      2.85967074      2.13686545
H       3.42467926      3.18277683      3.73764998
H       0.36969799     -0.89581960      2.56924748
H       0.23324758     -0.29504343      4.22757305
H       1.66765361     -1.22557879      3.72517341
O       1.11576102      1.37750204      0.48863958
O       2.37822823      3.20332672      0.71139745
C       1.65003752      2.42173043      0.08003661
H       1.44980785      2.68854261     -0.98570800
