18
charge=0
C      -0.23471768      2.30897104      2.98115469
C       0.63475030      3.30377161      2.95678189
C       1.76235640      3.46869426      3.91914403
H      -1.03446591      2.22922452      2.26418551
H      -0.18646922      1.53311517      3.72838199
H       0.55877475      4.07409039      2.19888390
H       1.75911505      2.67787428      4.66561522
H       1.68661487      4.43100390      4.42412440
H       2.71352746      3.45094454      3.38717424
O       2.43079466      1.35177477      1.08318630
C       3.61574813     -0.69919393      1.33774369
C       2.46684299      0.16172357      1.83975899
H       1.70071194      1.89871061      1.40038028
H       4.55263183     -0.15942667      1.44417247
H       3.46937009     -0.92964702      0.28621662
H       3.66661554     -1.62416772      1.90541299
H       1.51735807     -0.38434053      1.73549499
H       2.61172041      0.39304708      2.90556685
