22
charge=1
C       2.33688802      2.44943291      0.22971709
C       2.39082350      3.18132789      1.34381469
C       3.19457877      1.26147494     -0.04953784
C       1.59186881      4.41795581      1.58836968
H       1.67057858      2.74256582     -0.57331416
H       3.09892163      2.92268884      2.12240198
H       3.78380293      0.98085838      0.82027875
H       3.88026926      1.49761783     -0.86220680
H       2.59578548      0.41176795     -0.37646681
H       1.10299415      4.38570090      2.56178673
H       2.25859616      5.27921486      1.59677767
H       0.84827787      4.57375279      0.81015276
C      -0.67922870     -0.58302924      2.94257759
C       0.50146237     -0.13866438      2.42803835
C      -0.94744229      1.48409705      2.27143665
N      -1.56380856      0.44713894      2.83257585
N       0.30733601      1.14500979      2.01931061
H      -0.93990130     -1.53166577      3.36535028
H       1.44320092     -0.63809422      2.32856543
H      -1.39229413      2.43669005      2.05753414
H      -2.53021536      0.42186168      3.13057862
H       1.04339659      1.76011729      1.57711860
