23
charge=1
O       2.33607272      0.95291565      0.13148695
C       3.80058854      4.30465134      2.07591361
C       2.62070210      4.36518267      1.35579633
C       4.52175784      3.12146348      2.11489862
C       2.14089817      3.23842705      0.69897573
C       4.06051760      1.99291726      1.46048695
C       2.86799965      2.04417638      0.74986569
H       2.99414758      0.24925674      0.07187916
H       4.17114048      5.18069820      2.58291752
H       2.07207167      5.29223978      1.28703922
H       5.45545231      3.07686101      2.65292353
H       1.28314963      3.29920518      0.04252998
H       4.63289910      1.07649641      1.48392573
C      -1.42103537      0.52558634      2.66041483
C      -0.39743062      0.92348566      1.85446891
C      -0.61766176      2.40933260      3.44139861
N      -1.53670502      1.46762546      3.63868859
N       0.08107004      2.09182496      2.36265756
H      -2.05528850     -0.33529580      2.60497325
H       0.02412837      0.47571565      0.97616525
H      -0.46833659      3.27843537      4.05247676
H      -2.21427542      1.44978769      4.38960114
H       0.86935226      2.61982641      1.92545852
