22
charge=-1
C      -2.12654538      0.06630432      1.05402636
C      -1.56739114      1.27316450      1.03828446
C      -2.64944954     -0.72638059     -0.10660294
C      -1.07091273      1.91131641      2.29665554
C      -1.33168667      2.11342948     -0.17295191
H      -2.21670088     -0.45054621      2.00465245
H      -2.61220132     -0.16160398     -1.03327681
H      -3.68521835     -1.02621211      0.07322290
H      -2.06135768     -1.63725542     -0.23927384
H       0.00059496      2.12638148      2.19296250
H      -1.57501907      2.86389103      2.46477835
H      -1.22701038      1.27260510      3.16472630
H      -0.25732918      2.32921328     -0.24818186
H      -1.66145359      1.64158404     -1.09475128
H      -1.84353832      3.07109935     -0.06826240
O       1.69019320      2.82830172     -0.30051316
O       1.93694668      2.63502617      1.90980157
C       2.33981900      2.85430955      0.75676641
C       3.85958971      3.22947928      0.61948786
H       3.95707927      4.31214776      0.70073522
H       4.43433429      2.76341966      1.41784926
H       4.23734400      2.91403995     -0.35146540
