21
charge=1
O       0.75166220      3.49037115      1.97823716
O       0.12586987      5.62227711      1.92376235
C       0.46394030      4.52248785      2.55997717
C       0.45266070      4.68829469      4.04295125
H       0.12819269      5.53124708      0.95722215
H       0.73585170      3.76852583      4.54495978
H      -0.54218922      4.99485526      4.35948030
H       1.13727364      5.48841815      4.31683795
C       1.61881530      0.41765311      1.16786457
N       1.51542059      0.82339506      2.42587695
N       1.97013939     -0.82945290      0.86448897
N       1.35930707      1.29915578      0.20489912
C       2.27015112     -1.85249594      1.84620086
H       1.69654355      0.20950362      3.19936849
H       1.24209426      1.79140109      2.58688654
H       2.03374943     -1.08529814     -0.10791765
H       1.41763603      1.06417602     -0.76980253
H       1.09512441      2.23766070      0.47813944
H       2.52596721     -2.77051106      1.32642102
H       1.40523408     -2.04892216      2.48259730
H       3.12024555     -1.56171369      2.46623892
