16
charge=0
O      -0.26168137     -0.67269424      4.25613438
H      -1.03245750     -1.15141267      4.56903810
H       0.50623232     -1.07788956      4.66508574
S       0.06220751      0.56758629     -0.32329294
S      -0.34642976      4.07617821      3.97023053
C       0.55995120      0.96324173      1.38824556
C       0.37647057      2.53440714      3.31145637
C      -0.06415447      2.25878866      1.88246172
H      -1.23693715      0.43215477     -0.06500897
H      -1.61499108      3.67715466      3.90416579
H       1.64613389      1.04182592      1.35120190
H       0.28179794      0.12819731      2.03057293
H       0.09606791      1.71273976      3.96986955
H       1.45406386      2.68662703      3.36575782
H       0.22863606      3.08705717      1.23377368
H      -1.15412016      2.17255748      1.84882763
