19
charge=0
O      -0.37723229     -0.41566911     -2.54769330
C      -0.22047666      0.73858999     -2.22184186
C      -0.15551305      0.00709539      0.19445547
C       1.43453735      1.86450343     -3.68776136
C      -0.17017057      1.17767947     -0.77897796
C      -0.02955396      1.84296343     -3.23437923
H      -0.14958414      0.36366863      1.22121732
H       0.72639098     -0.60700032      0.03031907
H      -1.03289554     -0.61636020      0.04288578
H       2.10178500      2.00113648     -2.83921334
H       1.59041815      2.68228088     -4.38628460
H       1.68314306      0.93245277     -4.18775695
H      -1.04582544      1.80891544     -0.60109792
H       0.71237349      1.80767964     -0.64425087
H      -0.65689697      1.64224092     -4.10400005
H      -0.30238400      2.80624173     -2.80209573
O       0.55685105     -1.11451040     -5.12465505
H       0.40730995     -2.04558451     -5.29473037
H       0.16436197     -0.93408231     -4.25541661
