26
charge=0
S      -0.02682567      4.54345989     -0.80199468
S       0.73412669      2.90373037     -1.73802366
C       1.12283619     -0.74588387      0.17206890
C       0.77690673      1.67649217     -0.36938648
C       1.08565253      0.30139273     -0.93454155
H       1.12050307      5.13275855     -0.43795264
H       0.16380637     -0.79611389      0.68293875
H       1.89002279     -0.50255357      0.90372600
H       1.34305633     -1.72496853     -0.24491410
H      -0.19970818      1.69592306      0.11403102
H       1.54323494      1.99344798      0.33880512
H       2.04797630      0.33131782     -1.44989048
H       0.32357685      0.03480024     -1.66999464
S      -3.12939981      3.12408830     -6.46676898
S      -2.88725938      4.62796722     -5.11314400
C      -2.90916877      2.15835282     -1.76337700
C      -2.32499254      3.73299320     -3.62101041
C      -3.40259129      2.84043736     -3.03300873
H      -4.44013000      2.90030526     -6.29264798
H      -2.62566839      2.90165609     -1.02095965
H      -2.04340794      1.53748418     -1.98286586
H      -3.68964985      1.52864564     -1.34310714
H      -2.04976565      4.52852983     -2.92933517
H      -1.43268166      3.16724127     -3.88827467
H      -3.68311486      2.07944206     -3.76637628
H      -4.28727507      3.44185542     -2.81110530
