20
charge=1
C      -1.16452923      2.49613739      3.20147107
C       0.16069776      2.76220044      3.02967295
C      -0.45837555      1.41392269      1.43415448
N      -1.52517756      1.65316658      2.19355763
N       0.57332354      2.07822194      1.92819923
H      -1.85191288      2.83919724      3.94719445
H       0.82110030      3.37924085      3.60330944
H      -0.43409091      0.78612164      0.56478479
H      -2.45283532      1.27699329      2.04965070
H       1.56343260      2.09341755      1.51478633
C       2.84233518      1.16993092     -0.11889346
C       3.12423104      2.23786478      0.77680028
C       3.44872242      0.05428147      0.38547444
C       3.92574410      1.71633716      1.77294414
N       4.09354009      0.39968241      1.52979977
H       2.27340968      1.23554395     -1.02433408
H       2.92946486      3.28109272      0.60706474
H       3.47550061     -0.94678383      0.00596374
H       4.37431900      2.19912660      2.61797206
H       4.65609024     -0.22506949      2.08482259
