17
charge=0
O       0.49093295     -1.44157214      3.50740193
O      -0.85784136     -0.09032249      2.33699425
C      -0.60638070     -0.98101052      3.29248626
C      -1.84845908     -1.33858244      4.05575024
C       0.45322816     -0.67377562      0.36506093
C       0.23040401      0.31299141      1.50180598
H      -2.30458374     -2.20601852      3.58126033
H      -2.55496200     -0.51514583      4.03196071
H      -1.58951305     -1.60672729      5.07645200
H       1.24320163     -0.30817155     -0.28446161
H      -0.45875660     -0.79153285     -0.21520485
H       0.74612878     -1.64173078      0.76444459
H       1.13402977      0.39704433      2.11424583
H      -0.05495203      1.29550381      1.12099478
O       0.44598786     -2.72720377      6.04039816
H       0.58573120     -2.34796505      5.15884628
H       1.28865513     -3.09629257      6.30871641
