22
charge=0
O       1.40281863     -0.92636621      2.05516873
C       1.41343823      0.11484225      2.65931053
C       0.15999372      0.76955323      3.18369455
C       2.67975698      0.87492504      2.95978879
H      -0.72009224      0.27442875      2.78301339
H       0.14811425      1.82309837      2.91729169
H       0.14639581      0.69080454      4.26944150
H       2.70828540      1.76037907      2.32652408
H       2.69758547      1.19645950      3.99781134
H       3.54963489      0.26094635      2.74338825
C       0.78582154      1.09744546     -0.49219569
C       0.05739782      2.17272963     -0.01230667
C       2.15560028      1.20914026     -0.65842948
C       0.69835014      3.35898975      0.30458430
C       2.79702881      2.39554073     -0.34393579
C       2.06879414      3.47079390      0.13884470
H       0.28847455      0.17000452     -0.73147256
H      -1.01208735      2.08718555      0.11520330
H       2.72311364      0.36882622     -1.02857689
H       0.12983767      4.19869782      0.67889352
H       3.86623318      2.48345925     -0.47366653
H       2.56924484      4.39669547      0.38491478
