27
charge=0
C       0.87872247      1.89885878      2.95196148
C       0.76720780      2.87634211      2.04862954
C       0.79731169      2.20617763      4.42470382
C       1.07291292      0.44087863      2.64987521
C       0.82022370      2.70527231      0.55791844
C       0.56446028      4.30253003      2.48856441
H      -0.18920054      2.59114199      4.68340785
H       0.97959205      1.31128125      5.01314021
H       1.52893708      2.96027462      4.71291285
H       1.08524792      0.22078988      1.58725637
H       2.01049309      0.09381766      3.08620518
H       0.26637640     -0.13461945      3.10405655
H       1.02356135      1.68485946      0.24968240
H       1.59213186      3.35118848      0.13850991
H      -0.13226019      3.00746475      0.12158506
H       1.42045461      4.65918042      3.06206856
H       0.43352270      4.95464136      1.62927139
H      -0.31476506      4.39171374      3.12535920
S       4.39077623      3.11066098      2.96472899
C       4.66754717      1.46823132      0.74464310
C       4.87077848      2.89450012      1.21468008
H       3.13751391      2.68303728      2.80259140
H       5.23592067      0.77987980      1.36611353
H       5.00218388      1.36554964     -0.28601567
H       3.61555240      1.19600895      0.79906091
H       5.92161940      3.17932019      1.17393577
H       4.28845808      3.59987820      0.62150361
