21
charge=1
C       3.61097836      2.73742585      3.08653318
C       4.04653335      2.86893974      4.37133452
C       2.83318391      1.05717990      4.20572563
N       2.85979299      1.60597505      3.00728531
N       3.54562536      1.80235084      5.05537077
H       3.78281498      3.36393468      2.23637602
H       4.65561785      3.61928034      4.83029572
H       2.31948282      0.15206440      4.46150570
H       2.33113901      1.20409885      2.01946391
H       3.69169591      1.61340673      6.03657394
N       1.72843053      0.75909336      0.86449972
C       0.49740954      1.15551093      0.55862494
C       2.37930365     -0.05878019      0.04379992
C      -0.14200506      0.74303441     -0.59641902
C       1.81671410     -0.52082788     -1.13226262
C       0.53103216     -0.11178554     -1.45835606
H       0.02048271      1.82135823      1.26376158
H       3.37699760     -0.34444025      0.34552002
H      -1.14085758      1.08277845     -0.81586041
H       2.37103399     -1.18327135     -1.77661054
H       0.06219497     -0.45262862     -2.36822071
