12
charge=-1
O       1.90411083      5.29419725     -0.22428675
O       1.48793675      3.61295018      1.14244511
C       1.84746174      4.09681882     -0.01581129
C       2.17509959      3.08136901     -1.09235683
H       1.50732761      2.54412276      1.20230182
H       1.27026640      2.53135642     -1.34775581
H       2.90190794      2.36727538     -0.70223989
H       2.56525776      3.57902363     -1.97664845
O       1.43554134      1.09118079      1.38306552
O       3.49694487      0.76121318      0.57250599
C       2.45262829      0.41705845      1.10873489
H       2.36388865     -0.68332115      1.40491914
