19
charge=0
S       3.48529131     -0.73594068     -2.01333489
C       1.28519414      0.95355381     -1.95502394
C       2.65816840      0.79334669     -2.57727863
H       3.42249842     -0.42964862     -0.71439958
H       0.65714941      0.09988596     -2.19985775
H       0.80864248      1.85716364     -2.33108582
H       1.36641920      1.02468822     -0.87184214
H       2.59363047      0.70001297     -3.66094326
H       3.30914275      1.63232457     -2.33020671
N       3.16991098      1.58471437      3.03333341
N       2.96957627      0.18346119      1.15061493
C       3.28718711      1.31951603      1.74714424
C       2.68967710      0.61803092      3.79960837
C       2.48884406     -0.78470598      1.91784104
C       2.32297676     -0.61808189      3.28438312
H       3.68001169      2.10800428      1.11783032
H       2.59937687      0.84935678      4.85317294
H       2.23514895     -1.70762198      1.41236150
H       1.93226342     -1.40372978      3.90946268
