19
charge=0
O       0.62719420      0.69602850      3.61507190
C       1.58795811      1.41529906      4.34580935
C       0.86721441     -0.68827076      3.62096114
H       1.33714010      2.46883663      4.24266660
H       2.59658876      1.24250806      3.95073399
H       1.57066124      1.13290178      5.40607017
H       1.82627156     -0.92553607      3.14387302
H       0.87232360     -1.08509428      4.64385064
H       0.05802682     -1.14901778      3.05797911
N       1.68380057      2.96598216      1.29302600
N       2.21758231      0.76023887      0.64507266
C       2.52381843      1.97304109      1.06700610
C       0.40208096      2.71538817      1.07914339
C       0.93416704      0.51777272      0.42791524
C      -0.04257306      1.48033817      0.63146837
H       3.57340756      2.17489845      1.24487091
H      -0.28013593      3.53321505      1.27395144
H       0.69295647     -0.47997969      0.08243475
H      -1.08683345      1.27845956      0.46024595
