15
charge=0
C       0.20876558      3.23492430      2.18452208
C       0.74227137      3.46939099      1.00119632
H      -0.24949430      2.28963179      2.42795023
H       0.19729187      3.97965629      2.96418616
H       0.74657855      2.72735120      0.21877083
H       1.19329942      4.41737017      0.75514000
N       5.40262948      2.16353360      3.57932402
C       4.38665736      2.91727824      3.27060596
C       5.06567940      0.90948458      3.17997298
C       3.82152758      0.91535627      2.61925762
N       3.39253073      2.21086317      2.68230471
H       4.32699554      3.97176676      3.45237222
H       5.73849843      0.08799811      3.32129420
H       3.22372500      0.13531870      2.19513390
H       2.50408512      2.56229631      2.35113905
