22
charge=1
C       1.72233950      0.86418246     -0.40767962
C       0.44477945      1.16585177     -0.60314409
C      -0.14616315      2.52203258     -0.42432271
H       2.11456681     -0.11457365     -0.63091231
H       2.44899444      1.61710656     -0.13935472
H      -0.24802594      0.40115095     -0.92842061
H       0.59443002      3.24790210     -0.09058487
H      -0.99112683      2.49503903      0.26465529
H      -0.53801969      2.86418663     -1.38173002
C       1.10410591      0.92013701      3.32698600
N       1.13748570      0.62555123      4.62646656
N       0.74848933      2.13248700      2.91986729
N       1.42487791     -0.00054992      2.42407442
C       0.36755844      3.21837520      3.80041750
H       0.88735197      1.30830527      5.32082136
H       1.40875046     -0.28915296      4.94400712
H       0.71963813      2.30401931      1.92471559
H       1.43784145      0.22182568      1.42080305
H       1.71126436     -0.92143313      2.70983503
H       0.13647428      4.09002106      3.19573971
H       1.18363691      3.47996562      4.47638813
H      -0.51982729      2.96167833      4.38224934
