18
charge=0
C       2.48807779      3.26889291      0.70132616
C       1.20467829      3.56425061      0.70038168
H       3.24974669      4.03088371      0.74264208
H       2.84155772      2.25096762      0.65959142
H       0.85261993      4.58253297      0.74086586
H       0.44186051      2.80322189      0.65774566
S      -0.37174206      0.57483666      2.42336111
S       2.59960854     -0.10652208      2.42995026
S       0.52468759     -2.33754236      2.22649415
C       1.25700222      0.86528823      3.17113920
C      -0.61031888     -1.13664816      2.98095104
C       2.06633581     -1.75042077      2.98690011
H       1.20513452      0.64931705      4.23825864
H       1.49715669      1.91075414      2.99597982
H      -1.61304668     -1.42596763      2.67931728
H      -0.50750673     -1.17776211      4.06539131
H       2.84409667     -2.44800628      2.68921585
H       1.95132185     -1.74158613      4.07085863
