23
charge=0
S      -0.70590674      2.22636743      1.27706609
C       0.72011539      1.28696383      1.93600589
C      -0.91095352      1.13120156     -0.17367295
C       0.69443881     -0.05310643      1.22261196
C       0.33108935      0.25705975     -0.22472889
H       1.62689834      1.84532898      1.70214318
H       0.60764744      1.20741244      3.01499806
H      -1.81614318      0.54423091     -0.01419033
H      -1.02778928      1.75223387     -1.05894421
H       1.66117485     -0.55099546      1.30097570
H      -0.06870527     -0.69684165      1.66600032
H       0.14110592     -0.64813473     -0.80175685
H       1.14649085      0.80722028     -0.69766131
S       2.66101555      3.73095469     -0.37138857
S       1.49152540      3.31016066     -1.97407068
C       1.63413592      4.90517252      0.57317977
C       1.97318075      4.60241481     -3.16677634
H       2.17234408      5.10257764      1.49386274
H       0.67319264      4.44577616      0.78686294
H       1.51422389      5.82328626      0.00636410
H       1.67304100      5.57650253     -2.79265589
H       3.04605693      4.56138113     -3.32434838
H       1.44623992      4.37753251     -4.08758598
