15
charge=0
S       3.70682313      1.76879704      2.04292565
C       3.05443619      0.13561774      1.57822135
H       4.91804044      1.34775827      2.40495378
H       2.03177823      0.30021253      1.24897260
H       3.07115251     -0.51926192      2.44379074
H       3.65007507     -0.27303159      0.76786897
N       0.35866677      1.78960659      0.60497596
C       0.61097804      2.73031648      1.47171327
C       0.73481978      2.28981543     -0.60230713
C       1.22321407      3.55456394     -0.45249253
N       1.13463002      3.82829286      0.88196414
H       0.43332303      2.65653276      2.52579527
H       0.63114578      1.70636717     -1.49483822
H       1.61332141      4.25795953     -1.15832329
H       1.44586580      4.66929369      1.33871916
