21
charge=1
C      -0.74965127      0.41908862      0.88753945
N      -0.76585524      1.12313718      2.18840690
H      -0.26399184      1.04197322      0.13979668
H      -1.76128037      0.19219543      0.55819453
H      -0.19303782     -0.51021088      0.98044996
H       0.23703800      1.36384261      2.48785688
H      -1.29927021      1.99558639      2.12157553
H      -1.19373477      0.53831302      2.91253266
O       1.73041696      1.71848421      2.89619787
C       4.09574109      3.44047627     -0.05937471
C       2.73293861      3.68121968     -0.02356273
C       4.67928218      2.63050875      0.89946168
C       1.94718089      3.10932477      0.96223999
C       3.90358691      2.05374856      1.89057597
C       2.54120986      2.29589535      1.91498659
H       2.29478879      1.26575663      3.53634423
H       4.70228034      3.88922104     -0.82918247
H       2.27493189      4.32018761     -0.76190964
H       5.74125390      2.44476302      0.88212261
H       0.88863387      3.31875155      1.00615795
H       4.35695778      1.42468693      2.64390047
