14
charge=0
C       0.02532467      0.98313619      0.62663378
C       1.31728227      1.21123916      0.50985348
H      -0.45101097      0.88075184      1.58911727
H      -0.62067324      0.88299904     -0.23095987
H       1.95999916      1.31134413      1.36938538
H       1.79205613      1.31025479     -0.45312659
O       1.91244016      2.31231397      3.66728699
O      -0.08768125      3.33748890      3.57088344
C       0.77998103      2.45218326      4.02329312
C       0.36877646      4.21132056      2.54011969
H       0.29298217      1.84813213      4.80761586
H      -0.33630579      5.03749464      2.50178468
H       0.38740268      3.67910194      1.58677675
H       1.37390608      4.56926988      2.76948584
