21
charge=0
O      -0.67304254      2.29382077      2.95521112
O      -0.74161835      4.53956268      2.88544885
C      -1.25994127      3.33567967      2.85146022
C       0.67372459      4.64315048      3.05709221
H      -2.34963294      3.41234572      2.70836637
H       0.88927056      5.70395462      3.14971889
H       1.19134155      4.22597858      2.19096919
H       0.99179072      4.10743561      3.95305005
O       2.02214292      1.72322366      3.71235274
C       4.33103967      1.56137909      0.28510330
C       4.91895911      1.71428181      1.53038054
C       2.95455891      1.45452782      0.18799740
C       4.14208542      1.76493589      2.67094776
C       2.16713550      1.50310040      1.32391251
C       2.75664295      1.65940095      2.57468509
H       1.07540616      1.67689665      3.48970997
H       4.94256392      1.52293236     -0.60369978
H       5.99281906      1.79511247      1.61400421
H       2.48761021      1.33104456     -0.77853378
H       4.58604366      1.88238661      3.64708998
H       1.09153099      1.41327998      1.25228323
