18
charge=0
O       4.29692432      2.65220644      4.65604930
C       3.42812470      2.52063645      3.83486976
N       3.53758474      1.80054746      2.70471026
H       2.43057482      2.98866994      3.92951351
H       4.40860292      1.33080724      2.51434422
H       2.78238651      1.72196502      2.04420790
C       0.66405367      1.28972158      0.94389998
C       1.11337014      2.47249758      0.37557289
C      -0.03418903      1.31756074      2.14078607
C       0.86487232      3.68145174      1.00533917
C      -0.28225094      2.52662201      2.76878295
C       0.16725332      3.70791526      2.20141049
H       0.85274340      0.34708645      0.45017920
H       1.65316232      2.45133384     -0.56022714
H      -0.38668719      0.39672844      2.58117270
H       1.21303536      4.60234304      0.56181122
H      -0.82838058      2.54836526      3.70014591
H      -0.02837107      4.65061109      2.69059085
