17
charge=1
C       1.02470752      1.47914153      0.79296786
N       2.30329072      1.82742599      0.70370202
N       0.15152981      1.86499154     -0.13232617
N       0.61627298      0.73713323      1.82052474
C       0.48323376      2.68359562     -1.28182580
H       2.62439818      2.42101785     -0.04133640
H       2.96575169      1.57344828      1.42699068
H      -0.80846251      1.57392955     -0.03452443
H      -0.33638751      0.42366849      1.89178522
H       1.27335323      0.39338696      2.51147525
H      -0.41743816      2.84352261     -1.86642773
H       1.21885619      2.18663633     -1.91688264
H       0.86610871      3.65775336     -0.97180233
S       4.26613306      1.07249927      3.33473050
S       3.00272774     -0.46140802      3.87528128
H       5.39767159      0.37356112      3.21294964
H       2.97266811     -0.24570530      5.19304015
