14
charge=1
C      -0.34907167      0.35400321     -0.25723409
C       0.51391184     -1.93515679     -0.06112774
N       0.35041980     -0.62507310      0.59376574
H      -0.44313588      1.30457843      0.26247286
H      -1.34347318     -0.01601518     -0.49758089
H       0.19930435      0.51145113     -1.18435103
H       1.04126175     -2.62198584      0.59659089
H       1.07783308     -1.82909658     -0.98621751
H      -0.46400536     -2.35166814     -0.29293759
H       1.27241907     -0.25534673      0.84636494
H      -0.19490209     -0.75361329      1.48745918
O      -1.05804116     -0.95185929      2.88323895
H      -1.75985469     -0.38095278      3.20816757
H      -0.96741001     -1.66900614      3.51684138
