21
charge=0
N      -0.80954882     -0.93537693      2.67445625
C       0.04132518     -1.50594403      0.38436959
C      -0.95560493     -0.72444828      1.24359920
H       0.15046109     -0.73140817      2.94453224
H      -0.97589709     -1.91278844      2.89469312
H       1.05944448     -1.24898955      0.67307692
H      -0.09547733     -1.27362874     -0.66922465
H      -0.09535937     -2.57728628      0.52281882
H      -0.83366541      0.34743966      1.05564947
H      -1.97872488     -0.99677686      0.96774988
O       1.83126463      0.61868447      2.76969735
O       0.61550661      2.49317393      2.59690725
C       1.54867605      1.63492444      2.18686889
C      -0.09834031      2.15751662      3.78417370
C       2.18648319      2.09598295      0.90278258
H      -0.67216521      3.04164472      4.04925713
H       0.60094534      1.89917913      4.58149829
H      -0.75859670      1.30705091      3.59959890
H       1.73988835      1.54420295      0.07730195
H       2.01417199      3.15732302      0.75714804
H       3.25018330      1.87606418      0.92333478
