26
charge=0
O       0.17678089     -0.45429003     -1.22653834
C      -0.47914595     -3.69300458      1.26101915
C       0.63657231     -3.67497546      0.44266955
C      -1.36400191     -2.62704500      1.23375773
C       0.87147701     -2.60169006     -0.39735211
C      -1.13814758     -1.54974806      0.40011459
C      -0.01472230     -1.52943028     -0.42297672
H       1.01214920     -0.55384738     -1.71354583
H      -0.65936315     -4.53245937      1.91556314
H       1.33175026     -4.50206462      0.45564473
H      -2.23794522     -2.63450931      1.86862400
H       1.74107228     -2.58990475     -1.04023604
H      -1.81756434     -0.71240131      0.36876743
O       2.69487595     -0.68139422     -2.61555359
C       5.92165401      1.03400905     -0.66614839
C       4.85108980      0.52564257      0.05098384
C       5.91320876      0.97151039     -2.04826133
C       3.77481355     -0.04381762     -0.60233790
C       4.84152473      0.40295669     -2.71352861
C       3.77160671     -0.10576379     -1.99100101
H       2.80897337     -0.63466370     -3.57246348
H       6.75878738      1.47789922     -0.14970359
H       4.85095823      0.57251217      1.12938134
H       6.74256910      1.36601708     -2.61598151
H       2.93787476     -0.43980870     -0.04923259
H       4.83317245      0.35346078     -3.79475534
