15
charge=-1
O      -1.24621356      0.10544680      4.41844894
O      -1.65775128      1.42156270      2.69626201
C      -0.83086394      0.81834771      3.54051586
C      -1.09136802      2.28498941      1.71362230
H       0.24067749      1.02957319      3.37200520
H      -0.15182351      1.88093975      1.29509354
H      -0.89386314      3.26388494      2.15641264
H      -1.83914653      2.38214367      0.92789490
O       1.49546623      1.36186459      0.52893165
O       2.10784198      1.74234275      2.63516533
C       2.33069970      1.45554501      1.44929798
C       3.82174072      1.19948182      1.05511354
H       4.25781402      2.14119440      0.72178863
H       4.37945167      0.83734343      1.91646349
H       3.87399302      0.48025048      0.24002588
