15
charge=1
O       2.11052536      1.69363894      2.36939079
C       2.91360475      2.03652985      3.21524763
C       3.13654554      1.34680813      4.49431846
H       3.54112098      2.92817851      3.04679233
H       2.49061175      0.47934882      4.60128551
H       2.96669504      2.04713874      5.31264161
H       4.18325086      1.04879624      4.56197012
C       0.08833263      1.14886222     -0.21015542
N       1.08880007      2.22073286     -0.01379320
H      -0.40903996      1.25405626     -1.17180361
H      -0.65465337      1.19550170      0.58191046
H       0.58010173      0.18039993     -0.16768583
H       1.80392547      2.18345531     -0.74577602
H       0.63975308      3.14070507     -0.03810044
H       1.56167463      2.08770957      0.94351157
