14
charge=1
S       1.34913096      1.40372105     -0.47708665
C       0.16616848      0.01925095     -0.53865599
H       0.45366917      2.38515697     -0.37145602
H       0.75364302     -0.89136752     -0.59483690
H      -0.43833496      0.12052510     -1.43428783
H      -0.45551723      0.02081766      0.35034904
C       4.13788918      2.14500699      1.81682605
N       2.85470735      1.51730034      2.20169532
H       3.95377510      3.14270297      1.42694819
H       4.61460744      1.55170469      1.04082788
H       4.80541797      2.21492855      2.67244028
H       2.38416532      2.07371687      2.92167951
H       2.21770376      1.44958904      1.32547379
H       3.01481171      0.57462570      2.56969654
