22
charge=0
S       0.02208964     -1.14059526      0.88176555
S       0.77184220     -1.21037170      2.76244285
C       1.02142221      0.16988104      0.09985798
C      -0.24137585      0.04407755      3.61727463
H       0.52906950      0.40589213     -0.83726838
H       2.02319238     -0.20606511     -0.08435616
H       1.04694301      1.03911908      0.75369434
H       0.00140851      1.02400574      3.21511495
H      -1.29013264     -0.19624777      3.47759594
H       0.02306740     -0.01264700      4.66758984
N       1.62133940      2.42838278      2.33607038
C       2.69343902      1.98151130      2.92933109
C       2.97037597      4.14148979      2.78313367
C       1.77209677      3.78177114      2.23185477
N       3.55006608      2.98229016      3.22554752
C       0.73300485      4.63494633      1.59721602
H       2.87861620      0.95085823      3.15868115
H       3.44213197      5.09574609      2.89298932
H       4.44329583      2.90165200      3.68218239
H       1.03297483      5.67874943      1.63014660
H      -0.21707765      4.51804928      2.11584701
H       0.58484841      4.33746319      0.56023948
