25
charge=0
C       2.29936201      0.60295023      2.77015855
C      -0.19970250      2.86212554      0.84578345
C       1.65831397      1.88498104      2.25372334
C       0.40320532      1.59269337      1.43557759
H       3.20459377      0.82226049      3.33306147
H       2.55217949     -0.05097965      1.93823080
H       1.61148934      0.07081784      3.42369569
H       0.52042926      3.36566520      0.20298683
H      -0.48500545      3.55170205      1.63784390
H      -1.08618396      2.63205645      0.25811925
H       1.40215257      2.53454951      3.09456986
H       2.37407862      2.42373897      1.62727572
H       0.66112732      0.89599096      0.63492772
H      -0.33593867      1.10072453      2.07184640
O       2.77706491     -0.03419433     -0.71786280
O       2.92448563      1.94724687     -1.75081279
C       3.35503978      1.00345773     -0.90449147
C       1.72529815      1.66426180     -2.45940381
C       4.64928188      1.41066511     -0.25302914
H       1.60878661      2.45928235     -3.19136023
H       0.87571551      1.64941518     -1.77440841
H       1.79738851      0.69309060     -2.95291140
H       4.80004601      2.48073122     -0.35276862
H       4.63941399      1.11669753      0.79265442
H       5.46530690      0.88574975     -0.74629719
