22
charge=0
O       2.83874849     -0.02856659      1.94657595
C       3.58084180      1.10147041      3.98014821
C       2.58202372      0.15951501      3.31183043
H       2.79089858      0.84019566      1.50084841
H       4.59325715      0.73321992      3.83367060
H       3.37933979      1.16815960      5.04612090
H       3.50824537      2.09632006      3.54584612
H       2.64442446     -0.83267933      3.76814158
H       1.56019156      0.54236116      3.46386243
N       2.54446394      2.49600058      0.59814262
C       1.55251929      3.35199520      1.21980448
C       2.07907646      2.00284162     -0.68515114
C       3.82032964      3.17290672      0.46571934
H       0.62926029      2.78980563      1.35214144
H       1.33439328      4.24917098      0.62143321
H       1.91056388      3.66884114      2.19867054
H       1.90270978      2.81377702     -1.40732107
H       2.82255482      1.32219600     -1.09595667
H       1.15011893      1.45388165     -0.54112875
H       3.76458627      4.05230148     -0.19305745
H       4.16073694      3.49815180      1.44793701
H       4.55116943      2.47640512      0.05809567
