24
charge=0
S      -1.61581743      0.69814052      2.88613994
S      -1.96534592      2.15848631      1.52502060
C      -0.35532488      1.46493182      3.96189955
C      -0.74948180      1.78212724      0.21680652
H      -0.19570780      0.77299359      4.78169253
H      -0.73656754      2.41021148      4.33377301
H       0.56271113      1.60356663      3.39913340
H       0.23822200      1.69957949      0.65997579
H      -1.03501640      0.85960167     -0.27967038
H      -0.78777605      2.61304414     -0.47931362
O       3.30107812     -0.94491288     -0.11577012
O       2.03174509      0.78090588      1.72379946
C       1.99654633     -1.21527041      0.35267363
C       1.78451242     -0.61425614      1.74288052
C       3.54121572      0.44522168     -0.13700489
C       3.33788958      1.04824226      1.25453578
H       1.25673948     -0.79428403     -0.34543966
H       1.89588187     -2.30043301      0.38168042
H       2.46447942     -1.09670415      2.45947481
H       0.75190154     -0.74439499      2.06988935
H       2.85657260      0.93168302     -0.84942195
H       4.57102415      0.57770447     -0.47006593
H       3.44267674      2.13388175      1.22960156
H       4.07417139      0.62046405      1.95043974
