27
charge=1
C       0.30911751      1.37412495      0.67041847
C       1.57333960      0.30602529      4.19493637
C       0.34319775      0.64748416      2.01085721
C       1.55295787      1.04039802      2.85881517
H      -0.56411148      1.06628071      0.10220639
H       1.19093920      1.13282935      0.07588281
H       0.24421017      2.45301699      0.81560601
H       1.61113226     -0.76804562      4.03526270
H       0.67676062      0.53359725      4.76494224
H       2.43818205      0.59353726      4.78948761
H      -0.56804615      0.87324372      2.56577370
H       0.36612982     -0.42873673      1.83625758
H       2.46752379      0.79557154      2.30371819
H       1.51616031      2.12106268      3.04672484
C       4.18347458      3.75404243      1.38425415
N       5.07531367      4.64050107      0.94483852
N       3.13964697      3.42054440      0.64003618
N       4.34521723      3.19828940      2.58534590
C       2.86517585      3.96016466     -0.67675463
H       4.97504111      5.07310591      0.04260316
H       5.87057813      4.89917349      1.50340408
H       2.48013712      2.74333389      1.00408160
H       3.68500760      2.52451722      2.94215990
H       5.13056074      3.43734535      3.16646281
H       1.94915134      3.51003566     -1.04814058
H       3.66988606      3.72296894     -1.37492814
H       2.72280631      5.04156808     -0.63717193
