20
charge=0
S       1.34347648      1.28003177      4.71827774
C       3.55381346      1.09332482      3.05581569
C       2.85348950      2.03479639      4.01498259
H       0.79811579      0.98719161      3.54039671
H       3.82510508      0.17011725      3.56271562
H       4.45930693      1.55900380      2.66987504
H       2.89773629      0.84966357      2.22186727
H       3.48042096      2.27143019      4.87413729
H       2.56258085      2.96400420      3.52180071
O       0.50060761      1.52241286      1.54142311
O      -0.24020820      3.63544488      1.59488190
C       0.51746035      2.65110106      1.11529345
C      -1.11185755      3.32117548      2.67663480
C       1.39499880      3.13010509     -0.00889838
H      -1.82572507      4.13817671      2.73965993
H      -0.54694050      3.23978570      3.60728760
H      -1.62319005      2.37546462      2.48828246
H       1.11828270      4.13837563     -0.29854087
H       2.43175176      3.11399502      0.32231113
H       1.30268488      2.45122962     -0.85285341
