14
charge=1
C       2.95341224      2.06537063      1.67328330
C       2.19445066      2.55451092      2.64710928
H       3.25348925      1.02932719      1.64926277
H       3.36794528      2.69563417      0.90186953
H       1.84258308      1.93883695      3.46025884
H       1.95677109      3.60491789      2.71262985
C      -0.28404852      0.36208565      0.90118661
N       0.16141685      1.73452225      0.56688935
H      -1.17399479      0.09854107      0.33401648
H      -0.51190160      0.29748087      1.96238852
H       0.50504091     -0.34821011      0.66651979
H       0.37773517      1.80531552     -0.43357458
H      -0.57780064      2.41211129      0.78409143
H       1.04445082      1.98652536      1.13395863
