19
charge=0
N       3.15247701      0.97086787      1.62940660
C       2.60483277      2.95711996      0.31759848
C       3.72031376      2.09715198      0.89537368
H       3.88843592      0.38327578      2.00651250
H       2.59327756      1.30562844      2.40851279
H       1.97071984      2.35834128     -0.32983800
H       3.02382680      3.77508433     -0.26175391
H       1.99188577      3.37432567      1.11447069
H       4.32444373      1.68299000      0.08388629
H       4.37583472      2.72188745      1.52278759
S       1.70532585     -1.17809571     -0.35606561
C      -0.48596266      0.10144702      0.77616377
C       0.13578067     -0.26234208     -0.55737142
H       2.29660246     -0.26244975      0.43561311
H      -0.65427551     -0.79354148      1.37078639
H      -1.44015270      0.60167647      0.61896786
H       0.17164366      0.76724241      1.33122080
H      -0.51121721     -0.93035191     -1.12518029
H       0.33934749      0.62514237     -1.15822145
