32
charge=0
C      -2.06513294     -0.63533456     -1.26774078
C      -3.53513550     -0.97427887     -1.06470511
C      -4.22862463      0.02606414     -0.17449103
O      -5.40845594      0.26117152     -0.20178714
N      -3.40673495      0.69296034      0.71732073
C      -2.04815404      0.57190398      0.91740920
O      -1.47155517      1.30571586      1.68017686
C      -1.38995381     -0.52855942      0.10530374
N       0.03434703     -0.37215374      0.03396282
C       0.71234120      0.84562949     -0.34491655
C       2.15375745      0.45896566     -0.21009818
C       2.24164580     -0.86220127      0.21808615
C       0.87702880     -1.39147365      0.38848518
O       0.50292861     -2.48778197      0.74982323
C       3.46152703     -1.48368795      0.42468421
C       4.60520281     -0.73844235      0.18717796
C       4.52801196      0.57879629     -0.23139874
C       3.29927510      1.21451700     -0.43808784
N       3.23164676      2.50682806     -0.91896307
H      -1.57278611     -1.41459490     -1.85068306
H      -1.96740751      0.31040352     -1.80641403
H      -3.62871863     -1.95479814     -0.58797052
H      -4.07558153     -1.01843371     -2.01132603
H      -3.86970699      1.39441184      1.29000878
H      -1.53731966     -1.47898194      0.64601838
H       0.43747846      1.66434758      0.33140816
H       0.45825941      1.13662950     -1.37232823
H       3.50514644     -2.50720196      0.75876081
H       5.57703302     -1.18496792      0.33546728
H       5.43559218      1.13964495     -0.40411286
H       4.07013455      3.05584929     -0.81456624
H       2.38242452      3.01077379     -0.72125534
