31
charge=0
C      -2.12278483     -0.20272136     -1.49065911
C      -3.63089630     -0.02378481     -1.38989087
C      -4.15470469     -0.45306721     -0.04190762
O      -5.26237033     -0.87928538      0.15594245
N      -3.26491333     -0.30601717      1.00658835
C      -1.97238316      0.16314159      0.99465820
O      -1.32123743      0.23469080      2.00384539
C      -1.45229885      0.59497449     -0.37381019
N      -0.01678813      0.45897563     -0.37811198
C       0.85345778      1.53829341     -0.49131310
O       0.50400774      2.66752339     -0.72454302
C       2.20554149      0.97434014     -0.28067047
C       2.05743752     -0.39494795     -0.03177509
C       0.63795622     -0.73265824     -0.07784131
O       0.08885547     -1.80203888      0.08006475
C       3.15260303     -1.21816322      0.23407806
C       4.41493806     -0.58753955      0.23647715
C       4.54778807      0.75939475     -0.01514964
C       3.44290901      1.57468296     -0.28134474
N       2.99450658     -2.54383958      0.43508846
H      -1.85843480     -1.25661644     -1.38216300
H      -1.76095296      0.14580188     -2.45937865
H      -3.89599099      1.02958900     -1.52455044
H      -4.15441449     -0.59619022     -2.15638685
H      -3.60929381     -0.60541643      1.91534748
H      -1.65497789      1.67002933     -0.49213695
H       5.29040344     -1.18573319      0.44387509
H       5.53360300      1.19996043     -0.00185303
H       3.55385598      2.62927169     -0.47235034
H       2.05349272     -2.89312106      0.52380032
H       3.75666824     -3.09989490      0.77834527
