46
charge=0
C      -1.10836037     -3.21758907      2.35441469
C      -1.44432869     -2.12530432      1.34536965
C      -0.53358982     -2.17333812      0.12134396
C       0.92962072     -1.83302308      0.43399686
N       1.44671549     -1.29555762     -0.80706594
C       0.40531468     -1.11823134     -1.80156110
C      -0.89162501     -1.15912956     -0.99214503
C      -1.23859072      0.18160258     -0.44249035
C      -0.42185472      1.23313863     -0.05618200
N      -1.13327822      2.26311351      0.41639299
C      -2.40177068      1.89526465      0.34132252
N      -2.50710254      0.60219497     -0.18728259
C      -3.75937932      0.07357950     -0.32929753
C      -4.83819910      0.88598016      0.06830457
N      -5.98234907      0.18483333     -0.14984415
C      -5.66459031     -1.03221083     -0.66523396
C      -4.30433408     -1.14350388     -0.79167018
N      -4.76727480      2.12700826      0.57662078
C      -3.56042078      2.60757907      0.70486480
C       2.69478229     -0.83766075     -1.04363419
O       3.03196648     -0.34826974     -2.10248649
N       3.60359452     -1.03259613     -0.00905305
C       4.86363626     -0.34851162     -0.08379243
C       4.86497935      0.90620179      0.78673022
F       4.68799639      0.59389297      2.08770854
F       6.01826573      1.57973410      0.70982939
F       3.88223912      1.75436402      0.47258138
H      -0.10371794     -3.08794617      2.74850156
H      -1.80661965     -3.18593349      3.18696192
H      -1.17292522     -4.19980827      1.89131265
H      -2.48020782     -2.24673703      1.02185288
H      -1.35819182     -1.14894293      1.82751428
H      -0.57668602     -3.17676382     -0.31422574
H       1.49220015     -2.71981633      0.74102539
H       0.97573165     -1.08156372      1.23442740
H       0.43683012     -1.93921094     -2.52795072
H       0.55978058     -0.17944399     -2.33595009
H      -1.71852472     -1.52064336     -1.60433596
H       0.64747284      1.29345592     -0.11340306
H      -6.90568346      0.53244776      0.04490145
H      -6.42365017     -1.74750194     -0.91239735
H      -3.78508801     -2.00001289     -1.17054061
H      -3.45725211      3.60192513      1.11001131
H       3.24911980     -1.21287538      0.91691884
H       5.00862618     -0.05342484     -1.12903839
H       5.68561647     -0.99009481      0.24902369
