64
charge=0
C       6.71573408      2.78500105     -2.73711782
C       5.90387516      3.07203917     -1.73340511
C       6.09906166      2.47409522     -0.38257121
O       7.21057836      2.33918454      0.09897754
N       4.97230878      2.14735104      0.30337096
C       3.66685094      1.95313317     -0.28113572
C       3.34447015      0.45734321     -0.36497230
C       3.41409790     -0.15521595      1.03475503
C       4.80577395      0.08675925      1.61749171
C       5.09573213      1.58811546      1.63310297
C       3.01386831     -1.64041487      1.07709246
C       3.87566267     -2.58311290      0.23451443
C       3.22806671     -3.96568189      0.18662489
N       1.94814162     -3.84665437     -0.48695916
C       1.14316806     -2.81486436     -0.06430232
C      -0.22087408     -2.57115429     -0.24258963
C      -0.43226522     -1.31484346      0.40389305
N       0.70800804     -0.86346205      0.90281424
N       1.64662852     -1.77846275      0.62979084
C      -1.62125354     -0.48094910      0.52044633
C      -2.91526183     -0.99022963      0.44768420
C      -4.00862760     -0.15585880      0.57568849
C      -3.82895630      1.20823609      0.77576316
C      -2.53879242      1.72412251      0.87083908
C      -1.45214328      0.88727695      0.74608323
O      -4.86640056      2.08401385      0.97149479
C      -6.05900715      1.90659391      0.32413700
C      -7.20163786      2.36856822      0.97119854
C      -8.43111204      2.28234540      0.34722450
C      -8.53462391      1.73631613     -0.92148044
C      -7.39593777      1.28834561     -1.56891830
C      -6.15892620      1.37358543     -0.95705713
C      -1.12612728     -3.47314425     -0.95808154
O      -2.28795291     -3.69352190     -0.67896342
N      -0.51457867     -4.16359951     -1.97642259
H       7.51056411      2.06828384     -2.61236856
H       6.62005036      3.24495596     -3.70638566
H       5.11729612      3.80665305     -1.83714324
H       2.92266211      2.45076330      0.35157564
H       3.63069202      2.39153590     -1.27736253
H       4.07185804     -0.01542384     -1.02785404
H       2.34597372      0.32761130     -0.78302695
H       2.67581198      0.36347902      1.65634096
H       5.56259858     -0.40629881      1.00513818
H       4.87187481     -0.30678359      2.63268486
H       6.11332739      1.78029552      1.97692644
H       4.38566304      2.09949043      2.29186271
H       3.06433639     -1.96149750      2.12970827
H       3.95365823     -2.20642650     -0.78529464
H       4.87338717     -2.65634138      0.66337112
H       3.12257628     -4.36417100      1.20706492
H       3.84811427     -4.65643627     -0.38967468
H       1.45133530     -4.71552931     -0.63251649
H      -3.06955739     -2.04617208      0.29732571
H      -5.00720712     -0.56618873      0.53433537
H      -2.41298809      2.78192774      1.04388270
H      -0.44983771      1.27942651      0.81772191
H      -7.10338326      2.79229295      1.95860899
H      -9.31373184      2.63994107      0.85656587
H      -9.49700188      1.66469837     -1.40522712
H      -7.46687891      0.87203652     -2.56304518
H      -5.27010400      1.03635556     -1.47014779
H       0.31793773     -3.80011271     -2.40723906
H      -1.12152557     -4.72572731     -2.55286237
