103
charge=0
O       1.40564181      0.65743781      1.74734143
F      -0.33759128     -7.42368811     -0.71501091
N      -0.74960441     -2.71940313     -0.76568175
S      -5.05851723     -1.62080182      0.74907805
C      -1.46765335     -1.67076560     -0.96377991
C      -3.87498509     -0.76750996     -1.37397736
C      -2.89087195     -1.52633479     -0.65956423
C      -3.37706315     -2.05489090      0.51459449
C      -5.08412575     -0.70041964     -0.75156183
C      -1.74736933     -6.44052572      0.90503877
C      -0.65252953     -5.09312674     -0.78951343
C      -2.34825461     -5.28601863      1.40715947
C      -0.92761848     -6.31219864     -0.20195738
C      -1.23088921     -3.92901593     -0.27191964
C      -2.10464732     -4.03934881      0.83334011
N      -2.67189074     -2.86435747      1.38757462
N      -0.82522589     -0.54579958     -1.52796348
C      -6.31107314      0.03323329     -1.17699119
C       0.64159633     -0.64332221     -1.65786188
C      -1.15924165      0.76752267     -0.94338818
C       1.62534831      1.94232459     -0.19297863
C       1.33329144     -0.52052177     -0.30477730
C      -0.54153261      0.91468254      0.43762662
N       0.96258877      0.75163934      0.42786756
H      -3.69624751     -0.27474725     -2.32562940
H      -1.91873195     -7.41194827      1.35494626
H       0.05180484     -5.01828814     -1.61183611
H      -3.01098720     -5.35252012      2.26603270
H      -3.08875263     -2.95208687      2.31470791
H      -6.63938467      0.74389773     -0.40970859
H      -7.14045275     -0.64810548     -1.39340673
H      -6.09554324      0.58544421     -2.09521508
H       0.92302878     -1.61226429     -2.07679732
H       0.97506593      0.13966126     -2.34833252
H      -0.81556612      1.54672006     -1.63163230
H      -2.23972259      0.88632683     -0.84403221
H       2.70041689      1.75490911     -0.21152165
H       1.25021539      2.11418746     -1.20407795
H       1.40380418      2.80301218      0.44068805
H       2.41974963     -0.52028391     -0.41843733
H       1.02386283     -1.34075052      0.34750957
H      -0.75477127      1.90108171      0.86033360
H      -0.92315128      0.14515564      1.11869345
O       2.41635445     -6.14518836     -2.05254151
H       2.43904205     -5.83931506     -1.12954488
H       1.76304665     -6.85217785     -2.05690614
O      -0.32737706      3.90851530     -2.47855719
H      -0.03782841      4.37745348     -3.26769382
H      -0.20500087      4.54677983     -1.74992581
O       0.77435022     -1.51530705      3.13310815
H       1.06472299     -0.74707184      2.55833887
H       1.35947659     -1.49742743      3.89817134
O      -0.05057143      2.15815548      3.61066377
H      -0.43473804      2.90417626      3.11775019
H       0.44235608      1.65459065      2.91938653
O      -1.07502062      4.09503650      1.72190300
H      -0.56099259      4.65892756      1.11217346
H      -1.98213277      4.40762615      1.66046452
O      -6.01894368     -1.96059851     -3.84505489
H      -5.59070191     -1.15039117     -4.16472712
H      -5.49202722     -2.19878999     -3.07520802
O      -2.63307341      2.44281681     -3.61956604
H      -2.06157169      3.05783955     -3.13758035
H      -2.02351165      1.78359689     -3.98278634
O       2.95650804      5.11550034     -0.62298054
H       3.16543439      4.78114523     -1.50060470
H       3.55110929      4.60222278     -0.01132298
O      -3.77321961     -2.23338057      4.02849087
H      -4.66622830     -1.87654465      4.04826875
H      -3.19091784     -1.44738373      3.99282617
O       0.88604485     -4.20658539      2.31368280
H       0.01043469     -4.53528695      2.07115311
H       0.75591266     -3.25936368      2.52063849
O       3.68589144      1.98022094      2.69627301
H       2.94672626      1.46832123      2.30600667
H       3.28652057      2.42832876      3.46911786
O       3.61486843     -0.53823514     -2.59603347
H       3.43097115     -1.49643468     -2.56209558
H       4.55351391     -0.48049746     -2.79385195
O       2.25116861      3.19544702      4.82288683
H       1.37051409      2.86817650      4.54027516
H       2.37342079      2.85054694      5.71227691
O      -4.42691924      0.36770859     -4.73585725
H      -4.27567703      1.25266838     -4.37683893
H      -3.53026098      0.01093405     -4.81466708
O      -1.81158236     -0.29375558      3.53668287
H      -1.48332712      0.58287953      3.79022560
H      -1.00102515     -0.83115358      3.48056292
O      -1.49226535     -0.14419838     -4.33031061
H      -1.31203226     -0.43065279     -3.40956493
H      -0.85282661     -0.61136467     -4.87718507
O       4.61734131      3.63400837      0.83424080
H       5.39838803      4.06166467      1.19668536
H       4.27615561      3.04093806      1.56227745
O       2.69598648     -4.54141328      0.33160830
H       1.99657524     -4.41526440      1.02235616
H       3.51258738     -4.66614817      0.82490429
O       2.74443718     -3.18852277     -2.18608882
H       2.72739577     -3.47408049     -1.25485971
H       2.65376018     -4.02514916     -2.66254586
O       0.36520610      5.54038649     -0.24736186
H       1.34761145      5.37862902     -0.31960604
H       0.27173288      6.49827584     -0.21728245
