86
charge=0
O      -2.90295210      0.35543667     -1.18441870
O      -2.65605362      1.32062434      1.77494867
O      -1.59052501     -0.01485877      3.23835951
O      -0.25200657      2.48680998     -1.76243049
C      -1.81566450      0.98399974     -1.14918723
C      -1.74210762      0.56087055      2.04841499
C       0.17222137      1.87003299     -0.63537354
C      -0.73033479      0.94118389     -0.20381657
N      -1.45649845      1.87854807     -2.11852594
N      -0.62412500     -1.33161399      0.82160114
C       1.48918976      2.32590854     -0.15362481
C      -1.94563562     -1.96801347      0.69818681
C       0.19687976     -2.07638477      1.78634356
C      -0.64509597      0.13681379      1.05963317
H      -2.40710901      0.20575126      3.80742703
H      -2.15085072      2.57029218     -2.50671355
H       2.27737842      1.95993018     -0.82093490
H       1.68634833      1.96294060      0.85585404
H       1.54366534      3.41827922     -0.16604415
H      -2.48880213     -1.99501561      1.65808388
H      -1.79612441     -3.00099274      0.36501005
H      -2.54829935     -1.44274650     -0.04310821
H       1.17264053     -1.59752796      1.89584764
H       0.34945987     -3.09017391      1.39742899
H      -0.27335082     -2.14928168      2.77798189
H       0.30936617      0.38476163      1.54587858
O      -4.34373013      1.67396837     -4.71938095
H      -4.70491166      0.97132647     -4.13260803
H      -4.94396066      1.73308084     -5.46883599
O      -3.40334289      3.63049099     -2.81595001
H      -3.97242987      3.14611114     -3.43696832
H      -3.84324431      3.59121211     -1.94172773
O      -4.23355517      3.28134927     -0.09776365
H      -4.87089466      2.56132383      0.02586525
H      -3.47754609      2.97103763      0.42019182
O       3.25187679     -0.89064907      0.21045050
H       2.48713288     -1.07575241     -0.38167300
H       3.48474393     -1.76254199      0.57823263
O       2.82323131      1.51150183     -3.45290913
H       3.24702761      1.53648324     -4.31594444
H       2.05458760      0.90463907     -3.57837834
O       0.76870956     -0.25932275     -3.81789274
H       0.67917111     -0.78452758     -3.00162875
H      -0.11989722      0.01855545     -4.09281299
O       4.72630988      3.24811695      0.08066638
H       4.74790049      2.43370341     -0.48546927
H       5.43614895      3.80596446     -0.24905924
O      -5.26189776      0.50080781      0.27239862
H      -4.30789778      0.46026035      0.05523469
H      -5.67472458      0.15927472     -0.53307531
O      -5.40946325     -0.78809771      2.75397360
H      -6.33701707     -0.91826901      2.97229478
H      -5.41032954     -0.34445184      1.87867398
O       1.76321308     -4.32025189     -0.62044644
H       2.18409722     -4.95828783     -1.20399905
H       2.41444954     -4.15021680      0.08673822
O       2.43061836     -3.26233413      3.93260017
H       1.77588121     -3.91319635      4.20162585
H       2.05960796     -2.38580631      4.21321066
O      -3.78902832      0.49905317      4.55994839
H      -3.93814392      1.43938781      4.40396790
H      -4.43056908      0.05636801      3.95295216
O       4.70306087      0.99403094     -1.42390154
H       4.34823915      0.26187223     -0.88947102
H       4.06509151      1.09741247     -2.16137768
O       2.59770154      0.60941450      2.55000537
H       3.25274096      1.33136067      2.68534961
H       2.90558639      0.12061910      1.76221699
O       3.51439447     -3.47697099      1.47167897
H       3.08941576     -3.39620650      2.36616185
H       4.39035575     -3.83586901      1.64503457
O      -1.49308464      0.99481564     -5.27433240
H      -2.42994235      1.17484700     -5.09014554
H      -1.07751735      1.86134735     -5.21308019
O       1.03921508     -1.64527834     -1.35186574
H       1.23853488     -2.60018885     -1.32694742
H       0.33942259     -1.52510465     -0.64688006
O       4.42451705      2.67223289      2.74280149
H       4.59533890      2.91812145      1.80364938
H       5.28106040      2.40227962      3.08704378
O      -4.95841337     -0.17139344     -2.77723603
H      -4.85631686     -1.08848371     -3.05328153
H      -4.11684713      0.04063044     -2.29598617
O       1.50177769     -0.79374927      4.61167741
H       0.56332007     -0.61712324      4.47330458
H       1.94635609     -0.23902517      3.92707989
