110
charge=0
O      -1.92079351      4.67176500      1.14500126
O      -3.78298895      0.78861330     -0.17673169
O       0.01876297      2.59151324     -2.39378895
Cl      0.75202136     -0.49370474     -5.75312589
N       3.88792738     -0.82781853      0.54549712
N       4.15373733     -1.22496699     -3.02758367
N       1.20847681     -0.34273503     -1.19398535
O       3.15790792     -1.11060389     -4.01773700
O      -4.23954928      0.50288126     -4.36408969
S       6.10364617     -1.31554709     -0.70155743
C      -1.90152632      3.74851499      0.34502917
C      -2.95288285      1.65680215     -0.41811015
C      -0.85706385      2.59620064     -1.54060178
C       4.37426533     -1.01114711     -0.65626988
C       3.58350485     -0.97867226     -1.86728302
C       4.87379882     -0.92795726      1.48899762
C       6.13091607     -1.18417304      1.01900598
C       2.18874278     -0.69906795     -2.03372970
C       0.02336208     -0.16210144     -1.74877725
C       0.77540518     -0.53847154     -4.01142272
C       1.99874742     -0.80227203     -3.40557783
C      -0.28976513     -0.25274117     -3.14357037
N      -2.89621783      2.78435951      0.35628525
N      -0.91530207      3.59373460     -0.60171065
N      -1.62897191     -0.06957107     -3.45908042
C      -1.12240839      0.20619559     -0.88674636
C      -4.19876027     -1.23320698     -5.99621770
C      -2.13338554     -0.55537438     -4.74944384
C      -4.61982077      2.26623449     -2.87091384
C      -1.86988937      1.45532867     -1.46937996
C      -3.63193790     -0.75927895     -4.67470134
C      -3.88411766      0.94708851     -3.04640678
C      -2.35112054      1.12637044     -2.92785910
H       4.62784656     -0.79015071      2.53566375
H       7.04917271     -1.28131559      1.58721276
H      -3.61620686      2.85928577      1.09520148
H      -0.11296126      4.28147185     -0.57308070
H      -0.79223787      0.40237585      0.13580415
H      -1.86366840     -0.60239040     -0.86925555
H      -3.95307124     -0.52486769     -6.79484548
H      -3.78013373     -2.21050884     -6.25473576
H      -5.28617427     -1.32408638     -5.92970990
H      -1.92705967      0.15066930     -5.56769818
H      -1.65319553     -1.51523682     -4.95941254
H      -4.51414976      2.69147043     -1.87141459
H      -5.68721480      2.09514559     -3.03314644
H      -4.26277843      2.99752906     -3.60440047
H      -3.87491892     -1.47246851     -3.86839294
H      -4.23983205      0.19724221     -2.32979935
H      -2.08515766      1.98694801     -3.56433686
O       0.01767999     -6.02219527     -2.91664686
H      -0.18948015     -5.46062919     -3.68513406
H       0.80945083     -6.50460184     -3.17265705
O       0.17998307     -3.34724946     -1.82949606
H       0.23075268     -4.31826439     -1.84668906
H      -0.42721727     -3.13594951     -1.09909345
O      -3.66914395     -0.10864666      2.48374606
H      -4.09722448      0.56868613      3.02323072
H      -3.80448286      0.22613144      1.57713843
O       3.64070035      1.64950973      3.01124051
H       3.55083458      2.11316180      2.15415093
H       3.23056792      2.24721783      3.64557886
O       6.03287566      0.83339878      4.38020075
H       5.33877583      1.15735954      3.78035239
H       6.81605590      0.68001700      3.83109764
O      -4.46404850     -2.41573641      0.80990942
H      -4.36408697     -1.89144724      1.61876026
H      -3.54576650     -2.62454337      0.55576344
O      -3.18979422      2.46263418     -6.17266099
H      -3.82005322      2.91253747     -6.74262680
H      -3.72071131      1.83009844     -5.65867323
O      -0.50216754     -3.64937819     -4.51569322
H       0.24018930     -3.33389643     -5.04297036
H      -0.31650132     -3.32031230     -3.60893514
O      -1.63446395     -2.97451834      0.45123428
H      -1.54641661     -3.84658848      0.85252378
H      -1.32464183     -2.34572890      1.15769160
O       2.89163229      2.47816230     -2.10470640
H       3.32856687      3.24147464     -2.49737534
H       1.95034146      2.60630931     -2.31560536
O       1.29982361      5.16244794     -0.32688691
H       1.82157479      4.50230014      0.16817197
H       1.06737530      5.85832645      0.31816462
O      -5.06413168      2.50790665      2.18907923
H      -5.71753620      2.12670825      1.55045454
H      -5.49513633      3.27857116      2.57160848
O      -6.76632121      1.45554331      0.32223028
H      -7.67483539      1.26720840      0.57582397
H      -6.45540748      0.62749000     -0.11168054
O      -0.06361352      6.85496997      1.47311974
H       0.13901935      6.97965742      2.40483207
H      -0.76886846      6.18465014      1.45578134
O       6.35448464     -1.78200299      5.29369587
H       5.99524315     -0.88941813      5.10635128
H       5.67976996     -2.39639835      4.98946005
O       2.57635842      2.80236940      0.66174608
H       1.89444329      2.13227857      0.86030750
H       2.84676513      2.59863872     -0.26065337
O       1.17637054      0.42261998      1.54560213
H       1.98469269      0.30532852      2.06674843
H       1.38060745     -0.00989217      0.68052731
O      -0.99680276     -1.23788374      2.41044907
H      -1.79273472     -0.70509322      2.58174133
H      -0.26831787     -0.61387387      2.22764454
O       8.29321590     -0.88868269      3.45876539
H       7.78659049     -1.39613597      4.12419999
H       9.19551422     -0.86595391      3.78993021
O      -6.04991853     -0.94644534     -0.90790338
H      -6.75948448     -1.57129420     -1.08581213
H      -5.41904795     -1.44930687     -0.33994573
