71
charge=0
N       2.69636046     -2.23036519     -0.28326729
N       4.41637992      1.16616542      1.91642543
N       1.43640167      3.37464054      0.88871868
N      -0.42832722     -0.17337835     -1.17647916
C       2.50323776     -1.27002566      0.32632938
C       3.47948259      0.62469034      1.51408420
C       1.21302023      2.24647001      0.79893894
C       0.20129916      0.29787320     -0.33343044
O       1.15081618      0.06297344      1.89437537
C       2.28412065     -0.03490610      1.04047009
C       1.07699731      0.81163159      0.69254330
O      -1.70713144     -3.32459752     -1.70674606
H      -2.11711275     -2.51564521     -1.32724841
H      -2.48431262     -3.90785400     -1.77766687
O      -1.35970614      1.62961630      1.52368606
H      -1.20453538      2.09367631      2.37696244
H      -1.72626827      0.75544770      1.76602855
O      -0.18440423     -2.74435838      2.40526759
H       0.67813704     -2.42898331      2.70868220
H      -0.00575539     -3.29068805      1.60428935
O       0.16300019      1.50237717     -4.59418443
H       0.79798357      0.76699007     -4.59038483
H      -0.70282548      1.05271309     -4.45288002
O       0.22924395     -4.20682844      0.09881606
H       1.05661696     -3.98223494     -0.34126929
H      -0.46744299     -3.94366087     -0.54221216
O       3.73326470      0.16349960      4.83520701
H       4.44652415      0.52585163      4.29339108
H       4.05304770      0.20630600      5.74333340
O      -4.04065493      0.90209638     -1.78604123
H      -3.40540669      1.61678566     -1.56290779
H      -3.90298450      0.74157435     -2.72876403
O      -2.10550534      2.78004042     -0.97089930
H      -1.91379312      2.46298435     -0.06769191
H      -1.25211100      2.73331824     -1.42705806
O       2.71478162     -1.94755688      3.13423468
H       3.01307236     -1.41429164      3.88926215
H       3.22615913     -2.76208456      3.17475271
O       1.94533310     -0.70184931     -3.77697492
H       2.30584848     -0.23304263     -3.00162765
H       2.69204517     -1.16770585     -4.16612944
O      -3.40562467     -1.46412965     -0.50780320
H      -3.06908833     -1.26879943      0.38578450
H      -3.63755741     -0.59714777     -0.91720082
O      -0.56875377     -2.32681423     -4.12160626
H       0.26206495     -1.91664875     -3.83750533
H      -0.90745047     -2.77808483     -3.32371304
O      -2.19356793     -1.00850176      2.05349419
H      -1.42441158     -1.63007406      2.18021675
H      -2.77218218     -1.17143399      2.80544844
O       2.80164916      1.15052483     -1.69629532
H       2.11628072      1.82311404     -1.93888966
H       3.64370576      1.56550583     -1.90982974
O      -4.45997375     -3.99692123     -1.28086777
H      -4.36194831     -3.09044217     -0.93409883
H      -5.12819127     -3.92356923     -1.96856584
O       0.66992331      2.73860030     -2.33415300
H       0.78302761      3.68349697     -2.48452967
H       0.44589545      2.33555443     -3.23231041
O       3.60683920      4.17010032      2.91567707
H       2.97181980      4.33470299      2.20466960
H       4.25853890      3.58655611      2.50931654
O       1.90671000      2.60162144      4.61448869
H       2.52394398      3.14444225      4.08763895
H       2.32074246      1.73000271      4.66740915
O      -0.79195732      2.78338092      3.96012104
H      -1.01560220      3.70953801      4.09079006
H       0.16063491      2.71714917      4.18744337
O      -2.05986915      0.00353473     -3.85721619
H      -1.68577108     -0.86744047     -4.12614735
H      -1.85520202      0.01232686     -2.91064075
