105
charge=0
O      -0.98291709     -0.40286797      0.79352388
N      -0.65614128      4.21047852     -0.40731419
O       2.68621106      1.86250839      2.61535779
S       1.29338010      3.41236244      1.05281297
C      -0.31814369      0.69622652      0.84703265
C      -0.20463742      3.12633894      0.12438971
C       1.58730443      1.87574664      1.85549572
C      -0.72876688      1.78946701      0.00108405
C       0.80239844      0.76543216      1.74695555
C      -1.60204869      1.59617915     -1.10020695
N      -2.05105964      0.40476365     -1.45052274
C       2.09885443     -1.35781290      1.55484561
C      -3.93939447     -1.70232629     -3.96708602
C      -4.06277533     -1.77094839     -1.44949905
C      -1.96715833      5.26266216     -2.16237489
C      -3.09070048      4.17425037     -0.20180531
C       1.20591787     -0.49939476      2.45756071
C      -1.92658766      2.77791074     -1.95497880
C      -2.79733184      0.06644903     -2.65888791
C      -3.20138142     -1.40798198     -2.66039576
C      -1.90585596      4.09618457     -1.17697141
H       3.10196205      2.77584343      2.71279111
H      -1.70371725     -0.36035319     -0.87063035
H       3.08299568     -0.89650752      1.42269496
H       2.24801495     -2.35503810      1.97578746
H       1.65019534     -1.46804194      0.56329073
H      -4.86211484     -1.11142199     -4.02979126
H      -3.31561988     -1.46859258     -4.83520304
H      -4.21447967     -2.76008924     -4.02343747
H      -4.35744171     -2.82445666     -1.49660960
H      -3.53599021     -1.62140434     -0.50074805
H      -4.97545534     -1.16238687     -1.42376549
H      -1.11177564      5.23649306     -2.84511805
H      -1.94465971      6.21640167     -1.62566893
H      -2.89040410      5.21480326     -2.75047477
H      -4.03549986      4.13502882     -0.75534565
H      -3.07361101      3.34547608      0.51393704
H      -3.04991151      5.11417467      0.35737031
H       1.71580984     -0.26534159      3.39605843
H       0.30386989     -1.05934115      2.72080600
H      -2.89584633      2.65313143     -2.44346129
H      -1.16533700      2.80501683     -2.74919145
H      -2.18478205      0.27957156     -3.54501257
H      -3.69998463      0.68742419     -2.72243655
H      -2.28024609     -2.00775673     -2.63867834
O       0.45841732     -1.29683065     -2.38442359
H       0.99197753     -2.03278487     -2.04083382
H       0.16893780     -1.56727290     -3.28034403
O      -0.59370240      1.09927266     -5.41251882
H      -1.44863666      1.55445623     -5.32058801
H      -0.05990284      1.36021144     -4.63817390
O      -5.32998056      2.53703377     -3.25615170
H      -6.14415799      2.21540012     -3.65597644
H      -5.34715918      2.17480251     -2.34437166
O       0.89863729      1.35808719     -2.99131415
H       1.81437522      1.64103383     -2.91850698
H       0.88359019      0.42742347     -2.67371689
O       4.48304768     -3.19293028      3.16725031
H       4.59416323     -2.22359928      3.24497258
H       4.38818761     -3.37595579      2.21258543
O       3.73650951      4.24043914      2.94819606
H       3.52826281      4.97995351      2.32385226
H       4.68475488      4.28311246      3.10399716
O      -5.51021629      1.53819479     -0.64664372
H      -4.87477752      1.09371161     -0.04384930
H      -5.91549066      2.20716354     -0.08554912
O       4.15246905     -3.83084954      0.37833443
H       4.75248802     -3.34908886     -0.19859618
H       3.27726181     -3.73240445     -0.04498705
O       3.17044385      6.32994432      1.27270659
H       3.72069986      6.42379830      0.48931560
H       2.24802296      6.38699747      0.92721663
O      -0.51526979     -3.24805738      0.50909360
H      -0.34677613     -3.49580044      1.44713284
H      -0.54609275     -2.27452830      0.52615385
O      -3.21977743      2.38118315     -5.24215324
H      -3.25600094      3.26788206     -5.61301135
H      -3.89713131      2.38166822     -4.54096937
O       2.65156003     -1.14358214      5.87505282
H       2.44699573     -2.04150603      5.54547670
H       2.96616003     -1.27178332      6.77481052
O      -2.59974586     -1.93033951      2.60524277
H      -2.71013205     -2.69547229      2.02677974
H      -1.93113315     -1.39973611      2.13408242
O       0.61759454      6.61303946      0.22545713
H       0.13250420      5.78051985     -0.03341847
H       0.04992043      7.02911168      0.88214747
O       2.26080220     -3.61785865      4.54749959
H       3.08933223     -3.51521067      3.98736277
H       2.37635055     -4.45317640      5.01243163
O       4.52710593     -0.40392930      3.86308413
H       4.03468198      0.23857764      3.33638269
H       3.94703496     -0.55636334      4.63496354
O      -0.54874190     -1.61360221     -4.98897755
H      -0.04569948     -2.02315692     -5.69886672
H      -0.60311918     -0.65906443     -5.23612169
O       1.64502914     -3.64326491     -1.03295585
H       0.85044846     -3.57967509     -0.43219690
H       1.51597031     -4.46090957     -1.52519034
O      -3.80176111      0.57796432      1.34808384
H      -3.95920644     -0.20920774      1.88934922
H      -2.88354639      0.44851368      1.06235095
O      -0.27051877     -3.82028600      3.21923562
H      -0.88856170     -3.17491237      3.58847148
H       0.58377387     -3.67131066      3.66865637
