82
charge=0
O       0.53674319     -0.81959531      1.49440003
O       1.12856031      3.98676995      1.44282501
O       0.03133803     -1.27105258     -0.68297726
O       0.87773499     -3.13028142     -1.62111368
C       0.20278894     -0.45374855      0.39657295
C       0.46777576      3.22273798      0.68480109
C       1.00905568     -4.47736095     -1.36184940
C       0.27881528     -2.59956884     -0.52958813
C       0.51207836     -4.75984388     -0.13365073
C       0.03537330     -3.52995242      0.42352865
C      -0.36405923      3.66190506     -0.39111799
C      -0.97620315      2.75926387     -1.21656278
C      -0.80338384      1.37283225     -1.02636080
C      -0.04790227      0.95644667      0.03309856
N       0.53686663      1.85928682      0.86574637
H       1.45999737     -5.05862428     -2.14926513
H       0.46243099     -5.73258854      0.33217703
H      -0.43495639     -3.37164990      1.37928694
H      -0.45776614      4.73182665     -0.54030324
H      -1.57856911      3.10583790     -2.04942117
H      -1.25274326      0.64850015     -1.69135413
H       1.11982420      1.50477820      1.64124989
O      -2.17439640     -0.01262406     -4.03533484
H      -1.63042551     -0.79539844     -4.24757323
H      -2.65212546     -0.25592240     -3.22433937
O       2.04255749     -1.45650229      3.87412552
H       1.96999783     -1.84200112      2.99175820
H       2.27465848     -0.52480908      3.67974808
O       2.36485011      1.24622404      3.16109601
H       1.83641253      1.89601644      3.67913235
H       3.14505540      1.71795954      2.83191151
O       2.01355525     -1.07424804     -3.58992351
H       2.12782283     -0.10945138     -3.53090772
H       1.95682606     -1.36743775     -2.67171895
O       3.34778131      3.94492657     -1.77901855
H       3.77327725      3.59624278     -0.97914027
H       2.83745358      4.70375019     -1.43963833
O      -2.56693703     -5.54743720     -0.73343552
H      -3.44891007     -5.75086450     -1.05908674
H      -2.26846268     -4.81536415     -1.31641588
O      -1.65100302      1.07483773      3.25834022
H      -2.46464202      1.21441302      3.75580062
H      -1.25155130      0.27416599      3.67014057
O       2.05314118      1.74551226     -2.87878962
H       2.46632162      2.60363697     -2.62975802
H       1.16219097      1.94430412     -3.23341636
O       0.44403659      2.98969375      4.10022568
H      -0.32408451      2.44959499      3.84136885
H       0.58053845      3.58466102      3.34403266
O      -0.36523142     -2.14615281     -4.47600915
H      -0.23180253     -2.50874821     -5.35691538
H       0.50043488     -1.74944931     -4.21623737
O       3.76527056      2.71534093      0.96458355
H       3.42411567      1.92511924      0.50258301
H       2.97078663      3.23576664      1.17655492
O      -2.68248526     -0.63924891      0.99383931
H      -2.70132358     -1.39656074      1.62907631
H      -2.40976588      0.11892276      1.53158679
O      -2.21275890     -5.19127669      1.99767924
H      -2.71984353     -5.89990851      2.40385255
H      -2.35982920     -5.29422176      1.03010350
O       1.92443867      6.00252689     -0.32203227
H       1.65626122      5.45652511      0.44488709
H       2.49812039      6.68513110      0.03880760
O      -3.36699165     -0.99162826     -1.56916856
H      -4.32791186     -1.04221695     -1.55550281
H      -3.10793793     -0.80863606     -0.62940243
O      -0.42734023      2.10480039     -4.16205743
H      -1.07014848      1.35841875     -4.11279660
H      -0.31417755      2.27544375     -5.10174889
O      -2.19497244     -3.45508471     -2.51577382
H      -2.56306311     -2.62664792     -2.15950131
H      -1.47066342     -3.18034282     -3.09933420
O      -0.58038101     -1.22174413      4.46080474
H      -0.63284589     -1.27797290      5.42043589
H       0.39018884     -1.32078036      4.25103030
O      -2.65123297     -2.56538710      2.92239536
H      -2.52372612     -3.49470110      2.64393467
H      -1.88111539     -2.33314036      3.46766319
O       2.86175960      0.41670550     -0.60862686
H       2.49987614      0.87358022     -1.40459624
H       3.68128308      0.01159247     -0.91235816
