89
charge=0
O      -2.39549945     -0.88006261      3.28333342
O      -0.12359246     -2.19757158      2.17814043
O       0.53701258      0.65475523      3.95805133
O       2.73514685      1.37520709      2.94397815
O       1.47806969      0.55196814      0.54152422
O       2.44609138     -0.90923429      3.95401575
C      -2.14930976      0.00726591      2.48156326
C      -0.05242852     -1.12347019      1.62225509
C       0.36528563      1.33305247      0.26422446
C      -2.67036720      1.35223460      2.57150007
C      -2.78951249      2.15731730      1.45074777
C      -2.94534554      1.14270462     -0.63483869
C      -2.82563007     -0.24679640     -0.81708878
C      -2.08282828      1.77007074      0.26988838
C      -0.87209527      0.96748587      0.55969264
C      -2.14638853     -1.02603769      0.14067197
N      -2.31740171     -2.33392247      0.22734334
C      -1.24916912     -0.32746388      1.16935738
C       1.31207295     -0.44227872      1.50380690
S       1.74115754      0.30324293      3.20527974
H       3.27809512     -1.20210912      3.41853558
H       0.63297753      2.25407007     -0.23957460
H      -3.23950678      1.57798285      3.46934276
H      -3.54927410      2.93878271      1.44237861
H      -3.84738911      1.64546132     -0.98609310
H      -3.48405832     -0.76236599     -1.51061780
H      -2.90552788     -2.80106795     -0.46149802
H      -1.69577127     -2.91913959      0.77633027
H       2.06568543     -1.21493454      1.33957814
O       4.47942748     -1.57985997      2.52042365
H       4.51076787     -1.05308589      1.67715122
H       4.53431944     -2.50612645      2.26088307
O      -3.22998528      4.44570402      3.70128068
H      -2.27824070      4.33550540      3.84320973
H      -3.44295831      5.28708907      4.11438099
O      -1.39785618      2.42518218     -3.22281410
H      -1.31717525      2.98762683     -2.43813870
H      -0.48181707      2.29942092     -3.51888876
O      -2.09024636     -5.74313526     -1.84379969
H      -2.73182007     -5.02889822     -2.01009133
H      -1.62182835     -5.85289465     -2.67670364
O      -4.47563302     -1.64129688     -3.77524378
H      -4.87047509     -1.88550370     -4.61740180
H      -3.74961360     -1.00582756     -4.01078474
O       0.56841289      4.85526139      1.19062597
H       0.18291336      4.39195521      1.95825331
H       1.48215821      4.53103683      1.14728626
O       4.54562177      0.02243720      0.35012314
H       4.89814603      0.83472329      0.75511310
H       3.68615448      0.27608377     -0.01328560
O       3.05072903      3.31340025      0.78840318
H       3.95479490      3.46348966      1.09706238
H       2.75832074      2.56009717      1.32937781
O      -0.31088372     -4.55240085      0.06799515
H      -0.24313881     -4.95777657      0.95615727
H      -0.88329057     -5.11532032     -0.48179485
O      -0.29364118      4.55511660     -1.36778884
H      -0.58490062      5.41452324     -1.68879368
H      -0.14003822      4.67860929     -0.39803686
O      -0.17664059     -0.57151926     -2.78071541
H       0.48132612      0.09999791     -3.04882108
H      -0.75888471     -0.08962047     -2.17143516
O      -0.47884455      3.43324673      3.44940397
H      -0.97744004      2.67127378      3.10197258
H       0.16082813      3.01692049      4.04078257
O       5.35647310      2.13901147      2.16791932
H       4.71384168      1.80422319      2.81311261
H       6.20923485      2.12857803      2.61377308
O       2.29273804      3.56081785     -2.01087390
H       2.66777458      3.42003543     -1.12555304
H       1.45386085      4.03792611     -1.85167701
O       1.40498181      1.61575378     -3.63665350
H       1.92129877      1.62909117     -4.44774907
H       1.84149801      2.26110784     -3.02392043
O       0.92371759     -2.10756970     -0.62144350
H       0.59236227     -1.77247208     -1.47147483
H       0.52937497     -2.99299259     -0.49681264
O      -0.13776547     -5.16403144      2.81554505
H       0.46643094     -4.43289818      2.98851370
H      -1.00288096     -4.77203116      3.05046683
O      -3.97574005     -3.58693075     -1.94797494
H      -4.12826824     -2.92061376     -2.66435508
H      -4.85562736     -3.84426204     -1.65410513
O      -2.55952837     -3.75506953      3.24684420
H      -3.13513282     -3.86602206      4.00895166
H      -2.35248178     -2.80229356      3.23475105
O      -2.45556537      0.01289477     -4.44421486
H      -2.41232380      0.90372899     -4.05554364
H      -1.63710502     -0.39194750     -4.10534947
