98
charge=0
O       0.91507900     -0.60903576      0.64314986
Cl      4.57080956      2.07731801     -5.14809851
Cl     -3.23514918      5.02124097      1.91950975
Cl     -1.66923398     -5.30345236      4.07670073
Cl      5.59881602      0.47583323     -2.67270414
Cl      1.54583073      1.96471358     -5.93512520
Cl     -0.13005112      4.73829349      2.09870552
Cl     -4.89864369      2.94237933      0.24135593
Cl     -0.99211877     -6.40066674      1.22076882
Cl     -2.18816774     -2.24019833      4.48533536
Cl      3.58973945     -1.18104456     -0.93941403
Cl     -0.43338555      0.24224013     -4.25989626
Cl      1.33418730      2.51422860      0.45964179
Cl     -3.39030013      0.76334798     -1.44979841
Cl     -0.82284959     -4.41520620     -1.20592527
Cl     -2.01296057     -0.29735744      2.03294435
O       0.77908735     -1.11776334     -1.94062301
O      -0.49944610      0.78152852     -1.11702807
O      -1.17703164     -1.60550796     -0.49442981
C       3.46260695      1.14608402     -4.20051433
C      -2.43453300      3.77383213      1.03601264
C      -1.57149024     -4.22285349      2.73524690
C       3.92175308      0.43872289     -3.08714608
C       2.11242925      1.10336914     -4.54589907
C      -1.04269569      3.65822040      1.11313173
C      -3.17690081      2.87500278      0.25996536
C      -1.26316241     -4.71131775      1.46122439
C      -1.79502845     -2.85579021      2.91977770
C       3.02512116     -0.29983020     -2.30758771
C       1.21723453      0.35406914     -3.78046133
C      -0.38121426      2.65315044      0.39931373
C      -2.50772392      1.88350385     -0.46329285
C      -1.15100020     -3.83332700      0.37943547
C      -1.68441192     -1.98224395      1.83632584
C       1.67041891     -0.32682171     -2.65206999
C      -1.12380597      1.75942571     -0.36891121
C      -1.31418284     -2.46446200      0.58190631
P       0.09581482     -0.60377344     -0.57667970
O      -5.45382252     -2.05354872     -3.29841655
H      -5.90208513     -1.22641765     -3.49914193
H      -4.55430616     -1.95440742     -3.65250340
O       4.48611980      2.25573929      0.17884481
H       4.24102084      2.17454980      1.13091479
H       4.90055549      1.41541661     -0.04098587
O       2.22725631     -3.72381722     -2.68845797
H       2.57984937     -4.57312031     -2.97565894
H       1.32669877     -3.69263469     -3.09256637
O      -0.08020733     -3.63021836     -4.21039225
H      -0.90152127     -3.17213950     -3.96292770
H       0.34655211     -3.07797178     -4.88482383
O      -7.72721352      2.51599670      1.32808088
H      -7.40254331      3.13068126      2.01332070
H      -8.62807054      2.80775752      1.16327904
O       2.16655191     -3.90683885      0.24996622
H       2.18077438     -3.70241504     -0.70500456
H       1.78509469     -4.79041903      0.28709804
O       3.41953439      3.47117203     -2.09585553
H       3.73405969      3.07200898     -1.25678093
H       3.85279956      4.32922623     -2.12615460
O      -2.62585304      2.18550185      4.01119581
H      -1.68204659      2.09912243      4.24916282
H      -2.98380629      1.29788693      4.11714175
O      -2.53858301     -2.20295052     -3.28020510
H      -2.08905331     -1.37025858     -3.08896039
H      -2.81893251     -2.50927629     -2.39474208
O       3.70326575     -0.65274548     -7.19011593
H       3.06943511      0.04069522     -7.40921679
H       4.46077356     -0.16878144     -6.84169124
O       0.58180752      3.28685362     -2.64904544
H       0.41859494      3.92717238     -3.34736532
H       1.52270574      3.40818754     -2.42173947
O       2.13973267     -2.25876671     -5.34198593
H       2.64787712     -2.53622314     -4.56861725
H       2.76038812     -1.81106927     -5.94051885
O       2.23677261      3.80841270      4.32782481
H       2.60235971      3.97055895      5.20304704
H       1.45179035      3.25499308      4.48700439
O       1.57999319      0.05735535      3.21709095
H       1.29193237      0.13728858      2.29001660
H       1.62747589     -0.91659338      3.30687584
O       0.12244165      1.77420835      4.74447394
H       0.14955634      1.44661930      5.64980854
H       0.58870430      1.07922936      4.21313221
O       3.84196144      1.91734411      2.83860407
H       3.38996699      2.66266314      3.27576450
H       3.22844073      1.17727928      2.97959621
O      -6.66093535      4.54091072      3.03971073
H      -6.18576796      5.01345362      2.34836978
H      -5.96317386      4.32350324      3.68892905
O      -4.08908598     -2.72469771     -0.87076150
H      -4.81174568     -2.56909262     -1.50727124
H      -4.10111155     -1.93401000     -0.31925871
O       1.53929442     -2.75171385      2.83386942
H       1.68911101     -2.87488878      1.87744579
H       2.15997341     -3.36340825      3.24234826
O      -4.55935346      4.08140401      4.90439965
H      -4.80118736      3.77413280      5.78268549
H      -3.84780646      3.48001262      4.61293312
