109
charge=0
O      -0.66676974     -0.03798402      2.98543853
O      -0.39448624     -2.42839518      3.70134631
O       1.78731169      1.97109924      3.12253433
O       4.28447383      2.07365148      2.71882478
O      -2.30447653      1.46458358      0.10588104
O      -2.89887428     -0.15553130     -1.72055634
O       2.32540757     -0.29965410     -3.59627875
O       0.13208888      0.25218338     -3.71835238
O       2.23704335     -0.83648926     -1.31978542
O       1.61253515     -1.14819949      2.82082707
O       2.89980451      0.77728967      1.18232708
O      -0.80521313     -0.51312564     -0.35753167
C       1.05651396     -1.10170423     -5.51232704
C       1.65223596      1.34389050     -5.21973858
C       1.70467928     -1.10328596     -2.58250276
C       1.30025161      0.04290096     -4.53767153
C       1.58851863     -1.21784921      1.36383051
C       0.23419272     -0.61616320     -2.59557711
C       1.50426003      0.25282412     -0.72119879
C       0.80203688     -0.54285521      5.18919719
C       2.66928666      3.45974116      1.09718288
C      -3.05418256     -1.03889856      0.82494945
C       1.61077544      0.18958203      0.79163903
C       0.08181100      0.17365834     -1.28977297
S       0.18183156     -1.08125396      3.60348975
S       2.91969400      2.06530165      2.18402852
S      -2.34409961      0.07209308     -0.37193860
H       0.74784863     -2.01298106     -4.99036320
H       1.97076537     -1.30945664     -6.07560561
H       0.26304977     -0.82474721     -6.21205707
H       1.75123234      2.15057979     -4.48918995
H       2.59173447      1.23348536     -5.76767134
H       0.86381696      1.61233730     -5.92781648
H       1.85220496     -2.16916179     -2.77967629
H       0.72075828     -1.77453129      0.99983624
H       2.50259936     -1.75430414      1.09657286
H      -0.48610990     -1.43677153     -2.65509641
H       1.93050510      1.20668645     -1.05758904
H      -0.06066005     -0.17796651      5.76039700
H       1.49095848      0.28327730      5.00366737
H       1.29816635     -1.39304217      5.66110789
H       1.72899996      3.32881381      0.55063770
H       3.51181776      3.49595298      0.40215670
H       2.61578833      4.34889950      1.73258127
H      -2.60849301     -0.80116696      1.79344447
H      -4.12781498     -0.83420824      0.79228867
H      -2.80773940     -2.06461956      0.53408643
H       0.79635364      0.78048496      1.22301680
H      -0.28539558      1.18875318     -1.47817940
O       0.50695249      5.27629909      2.98132260
H       0.09475879      6.14009422      2.88490252
H      -0.10065621      4.65130241      2.54600007
O      -1.51639430     -3.94454519      1.34924397
H      -1.23178210     -3.65837879      2.22770191
H      -0.75682419     -3.77608799      0.76043570
O      -2.48820302     -3.02917066     -2.17026369
H      -2.16476787     -3.29123945     -3.05608295
H      -2.83911218     -2.12973294     -2.25122297
O       0.12328394     -3.42783242     -0.89042979
H      -0.73978960     -3.19848701     -1.28320757
H       0.29742304     -4.31189938     -1.25047812
O      -2.98870399      1.73267055      3.85728299
H      -2.50938158      0.89738968      3.76433974
H      -2.39352853      2.35404794      3.39563298
O       0.77642084      3.67018400      5.41085524
H       0.58607169      4.36778933      4.76099320
H       1.39991774      3.10951135      4.93410807
O      -5.47980180      0.84914400     -0.05286985
H      -5.50943458      1.33361033      0.79566408
H      -5.70125603      1.50534587     -0.72115771
O      -5.42247711      2.06127427      2.48102325
H      -4.59782287      1.90127422      2.98265482
H      -6.13310348      1.86585557      3.09834862
O      -0.49075409     -5.97420226     -2.20879121
H      -1.30138921     -5.95461709     -1.63128950
H      -0.19412176     -6.88878758     -2.22672338
O      -1.18012351      1.71339346      6.30759905
H      -1.97417437      1.88026800      5.78350302
H      -0.58631869      2.44769309      6.06815262
O       0.95432737      3.39740635     -1.50909237
H       0.26408437      3.39675387     -2.19991514
H       1.79411418      3.24938130     -1.97134574
O       6.10717213      0.14418202      1.64715471
H       5.54542059      0.77672311      2.12815303
H       6.99589144      0.26974739      1.99314323
O      -3.78740344      2.65385715     -2.30878005
H      -3.52221597      2.76405686     -1.38567229
H      -3.79100988      1.69011319     -2.39714555
O       3.57265355      2.24475589     -2.48051617
H       4.27573699      1.84341325     -1.93709494
H       3.26795826      1.47776343     -2.98770872
O      -1.09005202      2.95825295     -3.44954822
H      -0.90390349      2.03523561     -3.67209028
H      -2.01987031      2.96545431     -3.15733090
O       5.16057255      0.29093458     -1.13824956
H       5.56082381      0.33522931     -0.25512077
H       4.37113683     -0.25445582     -1.01006819
O      -0.94102786      2.95771853      2.25918571
H      -0.26538361      2.36977055      2.63308697
H      -1.25038247      2.51179822      1.45386474
O      -0.99938236     -4.12344567     -4.25053957
H      -1.36214149     -4.50558130     -5.05562861
H      -0.76901832     -4.88871146     -3.68333005
O      -2.68535088     -5.55501294     -0.69256253
H      -2.97115481     -4.73500637     -1.12698342
H      -2.40447185     -5.24789567      0.18803494
O       4.70257616     -2.31106941      0.84893281
H       5.14487481     -2.48377200      0.01192858
H       5.22202924     -1.59372827      1.24456419
