103
charge=0
O       3.22106020     -1.14136342     -2.41222270
O      -7.56615722     -0.67751159      1.76204841
O      -7.46575730     -3.14359118      1.16263945
Br      7.98294686     -4.24040544     -3.99929150
Br      5.59140957     -6.94568480     -3.25799456
N      -1.43641810      3.46037499      1.26445942
N      -2.58251852      1.43704429      1.64940882
O       1.97685469     -0.19659147      0.50420787
O      -6.93626218     -2.42660868      3.45670645
C       3.29897608     -2.32441403     -1.99033591
C      -1.48788571      2.18302230      1.22390608
C      -2.25152247      0.17040655      1.53365547
C       5.59196328     -2.86379734     -2.98142893
C       6.24788032     -4.06576591     -3.30414082
C       5.38489146     -5.10673772     -2.99951059
C       4.34899431     -3.20880355     -2.47306077
C      -0.85039059      0.00311108      1.07460673
C      -0.16990443     -1.15115189      1.05524807
N       4.24593538     -4.58794419     -2.47119237
N      -0.48602119      1.30580421      0.73617249
N       2.41828854     -2.81983198     -1.10496229
N      -3.05209568     -0.86535194      1.77546849
C       1.23119594     -1.40904555      0.60556012
C       1.17352878     -2.15899181     -0.74156296
C      -4.45996161     -0.71809485      2.13836874
C      -5.19354601     -1.89359242      1.51370790
S      -6.94857432     -2.00148983      1.93352789
H      -0.54335492      3.79425434      0.90348637
H       2.94539792     -0.41342009      0.58154536
H      -6.89785464     -1.59708651      4.12723722
H       6.00169979     -1.86694588     -3.05651455
H      -0.70181618     -2.04197720      1.37689654
H       3.34979316     -5.09228228     -2.40473510
H       0.47578472      1.62703998      0.71824068
H       2.53456264     -3.77460906     -0.79777382
H      -2.77029966     -1.77379090      1.40117706
H       1.71492179     -2.07014506      1.34590573
H       0.90514908     -1.43824662     -1.52037349
H       0.39049296     -2.92505372     -0.69557286
H      -4.57720398     -0.70885973      3.23103989
H      -4.84522413      0.23092984      1.75077492
H      -4.76633456     -2.85093678      1.83124922
H      -5.15717676     -1.84081696      0.41957061
O      -6.76130601     -0.53577394      5.07342359
H      -7.48450161     -0.52365437      5.70972133
H      -6.81648673      0.34784729      4.57005899
O       5.26538510      0.64520882     -1.62857870
H       4.67882154      1.41662578     -1.58545230
H       4.69866408      0.01515643     -2.10932368
O       1.97813886     -1.11745023     -4.78103515
H       2.54154537     -1.27372661     -5.54665247
H       2.58324464     -1.12681143     -3.99859395
O       0.31970989      3.18147957      4.47633810
H       0.34512652      2.25916394      4.18306556
H      -0.57740400      3.50823173      4.27998301
O      -2.28034009      4.34244650      3.73104658
H      -2.07554254      4.16281111      2.77247235
H      -2.23568137      5.29979981      3.82236974
O      -2.58668632     -3.32899674      0.18571313
H      -2.35622909     -2.95363447     -0.68194330
H      -3.42195150     -3.80633742      0.03977975
O       2.56774368      1.82205050     -1.54970009
H       2.32188573      0.96847534     -1.15174358
H       2.14103566      1.81132218     -2.42251388
O       0.32636856     -3.44490931     -3.75209241
H      -0.41795354     -2.99489673     -3.30891883
H       0.83170453     -2.73744182     -4.18259952
O      -6.96434890      1.60707143      3.65379835
H      -6.13349976      2.10272354      3.43499271
H      -7.28083659      1.24379828      2.81548778
O       1.57939369      3.55229945      0.46711621
H       2.04387265      3.44139746      1.32739334
H       2.07268127      3.06545257     -0.21791550
O       4.60120075     -0.70035952      0.67706855
H       5.02892988     -0.39635317      1.48426683
H       4.99841504     -0.17565399     -0.05934334
O       1.55656180     -5.41142388     -2.27728975
H       1.09612153     -4.73709177     -2.83286810
H       1.18753924     -6.26035579     -2.53851102
O       2.58742430      3.76969659      3.03157074
H       2.79158926      4.70174365      2.85982470
H       1.75954707      3.76912678      3.56625551
O      -4.71732524      2.89895622      2.92732988
H      -4.04082440      2.38313633      2.44061524
H      -4.18001722      3.48573255      3.48095503
O      -5.26174805     -4.56976260     -0.20175056
H      -6.07227402     -4.19723554      0.18843767
H      -5.38413116     -5.52227787     -0.15193291
O       2.43079218      6.19576400      1.39347330
H       2.09866773      5.49625559      0.80544067
H       3.08254254      6.67137197      0.87066732
O      -1.82269977     -2.09760452     -2.38653621
H      -1.53302516     -1.15841283     -2.26909085
H      -2.61365679     -2.04078335     -2.93419387
O       1.89973891      0.90052769      3.29732097
H       2.48453001      1.67051475      3.26033787
H       1.88489282      0.56905092      2.38706422
O       1.00915851      1.37501098     -3.99922864
H       0.78329888      2.00281560     -4.69276407
H       1.32308756      0.56312238     -4.45190538
O      -0.99319695      0.47622771     -2.17167706
H      -0.35547185      0.85237272     -2.80453898
H      -0.82487289      0.91378706     -1.32173812
