89
charge=0
N      -2.18215833      4.34768655     -6.91914938
O       2.23346028     -2.58168808      2.57289089
O      -2.70759343     -3.30759537      2.84981602
C      -2.50347150      3.74208436     -5.98291998
C      -1.69316037      0.28565575     -1.06211020
C      -2.26489849      0.93386284     -1.92046602
S      -4.57372589      3.05725712     -4.30908967
S      -1.95401415     -1.47226416      1.04114846
C       2.02222706     -1.83177128      1.57532112
C      -1.59345472     -3.51706896      3.33998874
C      -4.20099886      2.06225657     -2.96545570
C      -2.91076113      3.02259670     -4.85122668
C      -1.03253483     -0.47364937     -0.09778760
C      -2.12119427      2.27206735     -4.01649999
C       0.31937222     -0.60678363      0.10039590
C      -2.85668003      1.72062082     -2.92751588
C       0.66134934     -1.48800106      1.16223076
C      -0.47592652     -2.02493411      1.78002772
N       3.04847635     -1.33437776      0.87092274
N      -1.36601159     -4.32662367      4.39522613
N      -0.46528046     -2.85817014      2.85729948
H      -4.98507248      1.77070274     -2.26796980
H      -1.06030840      2.13340266     -4.18182920
H       1.03339600     -0.06850725     -0.51236719
H       2.92884721     -0.83291046     -0.00026250
H       4.00020359     -1.56955162      1.15194984
H      -2.10931171     -4.96999829      4.61015026
H      -0.41104678     -4.58849568      4.63203169
H       0.46924189     -3.12393978      3.17237020
O      -0.99369085     -5.55258854      1.26484011
H      -0.18314521     -5.28299107      0.79920544
H      -1.69763992     -5.04973876      0.84348447
O       0.74437451      1.18015586      6.25332106
H       1.00871650      0.27195046      6.47770784
H       1.18881923      1.74060385      6.89649364
O      -1.94488078      6.13312485     -3.83043805
H      -2.21002608      6.81650402     -3.20777444
H      -1.83689947      6.59646315     -4.68731242
O      -4.73924288      0.31708208      0.98012113
H      -4.28489388      0.99243281      1.49206826
H      -4.89753357     -0.41577493      1.61175130
O       1.43733810      0.91402382     -3.24101959
H       1.44324101      1.52268837     -4.01628188
H       0.79864065      0.19031233     -3.44518785
O      -6.57614442      1.30510250     -0.91376195
H      -6.01915955      0.92521422     -0.20654938
H      -7.18287964      0.59661012     -1.14622187
O       0.51380431      4.79799995     -3.37439368
H       0.43403989      4.26490719     -2.56050954
H      -0.34685785      5.25083979     -3.47810089
O      -5.12651563     -1.85027517      2.70481575
H      -5.46083597     -1.72498066      3.59744815
H      -4.31933633     -2.38487599      2.81022265
O       3.27180199     -0.55975515     -2.01170223
H       2.72566420      0.07577208     -2.54594152
H       4.19043672     -0.38811140     -2.23978963
O       1.63196267      0.55419334      3.66188865
H       1.27315351      1.06044930      4.41533888
H       1.14765825      0.84091007      2.88036076
O      -1.57940028      7.18273056     -6.41649832
H      -0.65276416      7.35770389     -6.60976238
H      -1.76130810      6.33149605     -6.85179927
O       1.66601650     -1.55120129      5.73863776
H       2.62541387     -1.42319386      5.63634678
H       1.34499433     -1.22630690      4.87963746
O       1.59439621     -4.70347229      0.21863987
H       1.63875205     -4.01599674     -0.46684711
H       2.01289793     -4.30589761      0.99178322
O       5.82759298     -1.49970372      1.92314359
H       5.48348886     -1.28091650      2.80919497
H       6.38348504     -2.27299293      2.05820366
O       1.49564130     -4.34756277      4.99728647
H       2.16286820     -4.36546069      4.30230477
H       1.57776442     -3.45534416      5.38382455
O       1.03218314      2.83257374     -5.11734213
H       1.50323237      3.12677370     -5.90122851
H       0.86468362      3.64349036     -4.56394699
O       1.78129507     -2.93184909     -2.14332537
H       2.12393116     -3.56886966     -2.78016558
H       2.43482903     -2.20069347     -2.13384864
O       4.04584822     -1.07747186      4.11678391
H       3.52221767     -1.74171166      3.62012617
H       3.57282924     -0.25778000      3.89663035
O      -0.20913183     -1.27945168     -3.47383845
H       0.28943491     -1.94181697     -2.96199057
H      -0.98025468     -1.06867163     -2.93052995
O       0.45463146      2.79553634     -1.30246826
H       0.79885959      2.10904940     -1.90669096
H      -0.43497781      2.48008853     -1.09906333
