79
charge=0
O      -1.34311939     -2.17646503      2.73951912
O       3.40511777      2.04760701      0.24696592
O      -0.85487326     -1.20445528     -4.02878804
N       0.26744159     -0.78718710      1.98224085
N      -1.26245401     -1.90642715      0.48167190
N       2.08157212      0.94282046     -1.25124084
C      -0.79301258     -1.64245260      1.76585076
C       2.51716742      1.22866249      0.02468233
C      -0.42497084     -1.02409041     -2.89268536
C       0.85015938     -0.26632121      0.95370883
C      -0.63650303     -1.36814440     -0.50980538
C       1.10916681      0.10357181     -1.39874926
N       1.90116022      0.57097202      1.08785410
N      -1.01379004     -1.60426134     -1.79699005
N       0.68289029     -0.24238997     -2.64323149
N       0.43602705     -0.49964144     -0.34831483
H       2.24449877      0.68114434      2.06087360
H      -1.80253371     -2.27185802     -1.96269968
H       1.10882725      0.26376452     -3.44284772
O      -1.34222596      1.66972732     -1.33708685
H      -2.30552730      1.51008162     -1.30383002
H      -1.11641883      2.22491656     -0.56872866
O       0.29211785     -0.41379250     -6.54453265
H      -0.18932823     -0.79699827     -5.78956479
H      -0.38870695     -0.09180549     -7.14379772
O       1.59340638      1.24319653     -4.84518868
H       2.53930692      1.34970982     -4.98903020
H       1.23372876      0.75553670     -5.62361275
O       4.13003247     -1.44677374     -0.21920168
H       4.91614359     -1.76470856     -0.67245079
H       4.46489014     -1.01815287      0.59889173
O      -3.19339910     -3.26395137     -2.21656700
H      -3.55878553     -3.38837655     -1.27368406
H      -3.07857127     -4.14557657     -2.58549567
O       5.00622013     -0.03426718      2.01181650
H       4.37772257     -0.04324357      2.75701689
H       4.94089611      0.86385935      1.66081161
O      -5.11020244     -0.95132702      0.67283151
H      -4.72682744     -0.76873796      1.55155852
H      -4.67842132     -0.33213828      0.06175602
O       2.49345792     -3.47956014      2.73100130
H       3.33782717     -3.01793200      2.69664363
H       1.97238364     -2.98537712      3.38859754
O       1.73680926     -3.03713979     -0.07070023
H       1.80230636     -3.38126558      0.83568305
H       2.59942664     -2.60285039     -0.18400115
O      -3.97139833     -3.41049940      0.24349451
H      -3.12250437     -3.21967610      0.67240810
H      -4.48438992     -2.57730953      0.39354441
O       2.20707325      3.61991150      2.46503970
H       2.85185779      3.29974040      1.81632247
H       1.35250253      3.48509154      2.01988656
O       2.75680697      0.20009388      3.75326051
H       2.08767886     -0.42913132      4.07352833
H       2.72759771      0.97923839      4.35551552
O      -3.86672987     -0.90857865      3.22864945
H      -3.54542676     -0.13961459      3.70861114
H      -3.07939718     -1.47058064      3.12017472
O       1.62264289      4.19126720     -1.22473218
H       1.17951381      3.88272091     -2.04952022
H       2.42562370      3.65827674     -1.14877074
O      -3.85830271     -0.88363098     -3.57623268
H      -2.98868563     -0.84347864     -3.99844038
H      -3.86980933     -1.78218774     -3.19511874
O      -0.09678767      3.38772393      0.64880414
H       0.53845283      3.73937042     -0.04207625
H      -0.64642595      4.14574287      0.87706666
O       0.04388172      3.25147274     -3.29595369
H       0.51077035      2.67002546     -3.91409731
H      -0.52664004      2.66371742     -2.76499912
O       2.77395580      2.63233919      4.97771001
H       2.51838493      3.08792098      4.14522891
H       2.15421727      2.94267125      5.64385241
O      -4.02725977      0.81340447     -1.44986830
H      -3.99003609      0.21794478     -2.24152280
H      -4.73953061      1.43288578     -1.64105810
O       0.85536089     -1.96813152      4.61647473
H       0.65990345     -2.44826393      5.42722714
H       0.02399776     -1.96688171      4.09904831
