94
charge=0
N      -3.75594159      0.89571945      1.41297735
O       2.72080860      1.26991309     -6.19516930
O       4.00603869      2.03350940     -4.60040176
C      -2.62682566      0.87153151      1.12354582
N       0.66499397      0.92638747     -4.42187932
N       0.00823848      0.79153527     -3.29784633
N       2.06842128      1.47134708     -2.76293131
N      -3.09625035      3.48118787     -2.76680962
O       1.02044015      0.65978114      1.29951518
C       1.89918752      1.32611251     -4.07074271
C       1.40520029      0.83239342     -0.00424200
C       0.48431237      1.01535470     -0.96689305
C      -0.30190949      0.64434744      1.64881257
C      -2.69967197      4.65542413     -2.26634838
C      -2.54766003      2.37074009     -2.26354398
C      -1.74328762      4.76430568     -1.26092432
C      -1.17080497      3.60514834     -0.75461287
C      -1.58399918      2.37600766     -1.26124072
C      -1.28653449      0.86037778      0.72237320
N       0.87331336      1.11287482     -2.31767790
N       2.96627383      1.56679669     -5.03581906
N      -0.46071336      0.43333875      2.96109755
C       2.88239830      0.75325160     -0.13471685
C      -1.00244973      1.06583821     -0.74998081
H      -3.16293779      5.54389315     -2.69203427
H      -2.87938878      1.42460247     -2.69302714
H      -1.45195565      5.74151871     -0.88870042
H      -0.40340567      3.64590730      0.01632827
H      -1.36409160      0.07029668      3.30503784
H       0.37303935      0.16485179      3.47316342
H       3.30496627      1.74435167     -0.32607542
H       3.16409589      0.10357886     -0.96642725
H       3.29933062      0.35154517      0.78884136
H      -1.47579870      0.25414675     -1.32231776
O      -2.67635843     -1.46547927     -5.16977689
H      -2.37684388     -0.65744373     -5.65502897
H      -1.86413921     -1.82281734     -4.78477657
O       0.27671592     -2.07102255     -4.79639982
H       0.42491718     -1.17420990     -5.13155104
H       0.50506058     -2.65182948     -5.53021011
O       2.62267625     -2.58862496      0.37244530
H       1.94688865     -2.75903404      1.04545061
H       2.13686222     -2.41279920     -0.45357845
O       0.92267573     -1.95093351     -1.86793140
H       0.86032849     -2.18373800     -2.80586092
H       0.02388514     -2.09285338     -1.51647510
O       1.67521150      3.63078848      1.53265590
H       2.10054478      4.49041401      1.45085778
H       2.31134757      3.08331315      2.04616286
O      -4.62439668     -0.43887242     -3.67724155
H      -5.43480302     -0.89059727     -3.93616790
H      -3.89889359     -0.88513146     -4.20108597
O      -3.87897825     -1.09528616     -1.08036862
H      -4.17850002     -0.45648354     -0.42069187
H      -4.20800781     -0.79626206     -1.95463977
O       3.37138153      2.04027037      3.02616942
H       4.28689139      1.79775401      2.74886358
H       3.39032139      2.21421698      3.98352715
O      -2.80441749     -0.86485272      3.88921235
H      -3.56786614     -0.47777905      3.44274885
H      -2.56663953     -1.63936488      3.33294114
O       0.00313799      2.61082123      5.51866052
H      -0.67348514      1.93991990      5.65553721
H      -0.23775729      3.03305941      4.66121988
O      -4.17504386      2.14735372     -5.13010909
H      -4.51218031      1.37454707     -4.64873790
H      -3.95862028      2.78595411     -4.42312884
O       2.56188566      1.76316542      5.75276483
H       2.88639955      2.03359736      6.61684303
H       1.62972113      2.09722589      5.70198110
O      -1.63060754     -2.50140808     -0.64986452
H      -2.44258502     -1.96536844     -0.84092864
H      -1.87735469     -3.40212701     -0.88810213
O       1.16240206     -2.79334211      2.92059643
H       1.53858570     -2.00733580      3.36118559
H       1.46994172     -3.54816033      3.43318752
O      -1.68090083     -2.83509268      2.26418925
H      -1.66689697     -2.64783968      1.30946444
H      -0.74507258     -2.82431565      2.52429233
O       4.57349316     -1.54382110      2.11009270
H       3.99144864     -1.50546957      2.88062104
H       3.99747112     -1.87459882      1.38963289
O       2.32955786     -0.43276791      3.96058821
H       2.44528614     -0.04613192      4.84587130
H       2.61673292      0.30440591      3.38170957
O       5.73698444      0.94924646      2.23128052
H       6.23324535      1.18663793      1.44259657
H       5.42719978      0.02581991      2.08457700
O      -1.97581060      0.91611899     -6.33889215
H      -1.15635081      1.24727582     -5.95214531
H      -2.69072845      1.47640615     -5.95905349
O      -0.65778748      3.81541060      3.09899066
H      -1.33732348      3.30812834      2.64001125
H       0.13416014      3.74672910      2.52591086
