88
charge=0
Cl      3.44453746      1.25872181     -1.83334563
Cl      0.48664460      3.89627351      1.44657906
Cl     -0.44457571      1.20033702      3.41441173
Br     -3.02743405     -1.56230239     -0.02883624
Br      0.11541718     -1.81276164     -2.02950729
C      -1.81659000     -0.37302855      0.85358059
C       0.95592134      1.10859799     -0.76936392
C       0.67274495      1.40844634      0.49556858
C      -2.24950400      0.78384595      1.33219815
C       2.61984200     -0.69067779     -0.07098069
C       1.67616808     -0.63389470     -2.41445032
C      -2.29858317      2.97560049      2.47241829
C       2.04215905      0.16636754     -1.17345797
C      -0.39097936      2.36989952      0.88321760
C      -1.39619148      1.87375800      1.94306723
H      -0.80677370     -0.76471939      0.88855615
H       0.39141266      1.55695930     -1.58551485
H       1.24671209      0.98834748      1.31616034
H      -3.30291359      1.03608202      1.25286300
H       3.39268679     -1.34623422     -0.47631226
H       1.82147285     -1.30664719      0.35420891
H       3.05550406     -0.08353044      0.72626863
H       1.34724182      0.00396017     -3.23339252
H       2.48280221     -1.30016160     -2.71699645
H      -2.81838917      3.42857066      1.61955017
H      -1.72808460      3.74321699      2.99495871
H      -3.04197829      2.54364158      3.14598742
H      -0.99374857      2.68108893      0.02169118
O       2.81028121      1.28027104     -5.19811181
H       3.37872572      0.53385043     -4.89444306
H       2.76888085      1.18217376     -6.15482365
O      -1.61870469     -1.97351926      3.88783949
H      -1.82571021     -1.09468168      3.53206047
H      -2.44248007     -2.46953668      3.70753985
O       0.21633078      2.24984432     -4.02530219
H       0.55130668      2.97519368     -3.45638725
H       1.00829112      1.89172848     -4.45491994
O       4.69926919     -2.57220554     -2.42858595
H       4.00111522     -3.21596766     -2.20190655
H       5.17702915     -2.46798215     -1.58256467
O      -5.93524028      1.87704382      3.02201543
H      -5.73995829      1.99414843      2.06158694
H      -6.49717281      2.61368994      3.27720013
O      -5.52482934      1.69659245      0.34938133
H      -4.76792477      1.90335493     -0.23354160
H      -5.68372968      0.74161113      0.29977467
O      -3.97484248      0.11200219      3.98212251
H      -3.65323443      0.13310830      4.90193609
H      -4.66149979      0.79401696      3.88005156
O      -4.33870022     -2.48717742      3.10177259
H      -4.34145263     -1.55112141      3.40434076
H      -4.11688927     -2.42374751      2.16288283
O       0.89454963     -2.07085118      2.54503794
H       0.04132605     -2.28128940      2.97390506
H       1.14554520     -1.23315804      2.95037636
O      -2.02493002      0.98685308     -2.93760068
H      -1.24221887      1.37531544     -3.38392475
H      -1.73911578      0.11380776     -2.64167378
O       2.64664850     -4.21704624     -1.31207910
H       1.75972996     -3.90594819     -1.53008197
H       2.73266622     -4.04398141     -0.35723725
O      -6.57155453     -0.72468165      1.64964232
H      -6.24808056     -1.51146084      2.10674031
H      -6.63529885     -0.05493347      2.34584336
O       5.62971787     -2.43598471      0.27989684
H       4.87425307     -2.74661243      0.80077931
H       5.72525224     -1.49660205      0.51575754
O       1.38662281      4.24230589     -2.41116924
H       2.25677919      4.15915751     -2.85138994
H       1.55399306      4.02436752     -1.48690927
O       4.47334683     -0.83207650     -4.53289154
H       4.81390567     -1.39062009     -5.23733432
H       4.56606362     -1.38297409     -3.72116155
O      -3.23784066      2.58992429     -1.08107492
H      -2.81280632      1.98582961     -1.73760115
H      -3.48818998      3.36206434     -1.59934401
O      -2.42229513     -0.40622871      6.30306781
H      -1.73479645      0.26057602      6.40367016
H      -2.00761529     -1.09371655      5.75530804
O       3.66654568      3.78824343     -4.02814746
H       3.76931699      4.42461580     -4.74225543
H       3.46300616      2.94262326     -4.47009477
O       3.05079540     -3.59259968      1.51101425
H       2.30163767     -3.12202376      1.93032923
H       3.20511035     -4.36228935      2.06827226
O       5.76190466      0.43860299      0.61798957
H       6.63179109      0.84087697      0.52876836
H       5.26188090      0.76265565     -0.14443424
