99
charge=0
O      -4.11043412     -3.57799965      0.10314384
O       7.58333126      1.51461477      2.97978705
O       7.34826989      3.52052564      2.17604341
N      -1.05169707     -1.45889858     -1.88578093
N      -5.51993570     -2.76288745     -1.56676955
O       2.09428634     -0.29700347     -0.73587024
C      -4.36041966     -2.93469546     -0.92509383
C       2.60428711      0.85310299     -2.58767266
C       1.39167911      0.17603799     -2.81243000
C       2.99949873      0.55010290     -1.29896444
C       1.09686533     -0.50671637     -1.65119622
C      -5.76046648     -0.58508980     -4.55308651
C      -4.42511468     -0.15617105     -4.65386574
C      -6.19708862     -1.46237172     -3.56570754
C       4.83730121      2.10961563     -0.76352319
C       4.37149870      0.24293541      0.72548289
C      -3.47940615     -0.61801529     -3.75776888
C       5.82035698      2.55106185      0.10197157
C       5.37450407      0.65962816      1.57782792
C      -5.26594860     -1.92843615     -2.64032537
C       4.08870074      0.96224786     -0.45103419
C      -3.89633910     -1.51528028     -2.76283825
C       6.07296730      1.82366454      1.26459935
C       0.00190129     -1.26359724     -1.15846136
C      -3.26441645     -2.14712091     -1.68244859
N       7.07451934      2.30908115      2.20501478
N      -2.03128506     -2.15717739     -1.25250136
H       3.10700219      1.53243523     -3.25981933
H       0.77104960      0.20074799     -3.69546792
H      -6.48355227     -0.20613215     -5.27125413
H      -4.14639951      0.55814110     -5.42031495
H      -7.23583892     -1.77055057     -3.50004436
H       4.59915965      2.68700910     -1.65122074
H       3.79487994     -0.64101440      0.97253279
H      -2.44944547     -0.28165550     -3.79572089
H       6.38008927      3.45302137     -0.11772195
H       5.59708227      0.10832553      2.48397911
H       0.08198759     -1.61909391     -0.12695149
H      -1.81855732     -2.66581417     -0.37657581
O      -4.03011112      2.70407035     -2.91072655
H      -3.11010513      2.41497901     -2.74840872
H      -4.07173351      3.57887697     -2.51088650
O       4.83762954      4.90273790      2.04139154
H       5.74700814      4.55303246      2.09203371
H       4.76620261      5.53800108      2.76170888
O      -3.83496367     -0.19415957      0.40164383
H      -4.29712846     -0.56814816      1.15801193
H      -4.51675565      0.36042348     -0.07629117
O      -2.56540019     -5.47594950      1.34305028
H      -2.95866587     -5.64824005      2.20367901
H      -3.21083032     -4.89893885      0.88441636
O       2.56855925      3.95793823     -2.36270505
H       1.94466837      3.60319574     -1.70977928
H       3.11870071      4.56953852     -1.84890469
O       0.94974749      2.75276537     -0.20114869
H       0.01671704      2.73371420      0.05789614
H       1.41536573      3.16106146      0.56011724
O       5.12287096     -3.52598696      0.36879524
H       6.00519178     -3.88804985      0.24241514
H       4.94475695     -2.99729959     -0.44087500
O      -1.37060212      1.84302678     -2.33372754
H      -1.34560585      1.52320125     -1.40950684
H      -0.63830131      2.46730540     -2.38783228
O      -5.55329252      1.35562500     -0.88751489
H      -5.16298262      1.69155294     -1.71527888
H      -6.43237891      0.98025786     -1.09839644
O       1.64872836     -2.13266296      1.88855015
H       2.39700794     -2.38444914      2.46569462
H       0.89745444     -2.72455594      2.06601792
O       4.23035490     -2.49586245      2.82242709
H       4.60719545     -2.98693275      3.55834647
H       4.64048571     -2.87245908      2.01604721
O      -0.53384431     -3.71055615      0.94410475
H      -1.19440007     -4.39662355      1.20601555
H       0.09371828     -4.15977971      0.35839175
O       1.00174354      0.69379344      1.95128264
H       1.25896563     -0.24532677      1.98076241
H       1.26308777      0.98981949      1.06561225
O       2.12433437     -3.68250454     -0.44831406
H       2.83915356     -4.28527279     -0.20353043
H       2.08858841     -3.05555521      0.30419027
O      -8.15047060     -2.47383534     -0.87409157
H      -7.19535994     -2.71574921     -1.03308802
H      -8.36423199     -2.83455644     -0.00880040
O       4.55282764      5.49813307     -0.79774395
H       4.54467879      5.40246932      0.16983911
H       4.58971070      6.44677250     -0.95296953
O      -8.14113513      0.28261466     -1.13841224
H      -8.16686795     -0.69325072     -1.00731306
H      -8.62751668      0.42767389     -1.95496175
O      -1.48739077      1.24014821      0.45148735
H      -2.34631148      0.77478633      0.56924373
H      -0.88436341      0.88723985      1.12507872
O       4.19141986     -2.42208138     -1.98595737
H       4.11591830     -1.50345844     -2.27021566
H       3.28691936     -2.69304793     -1.74350422
O       2.30517517      3.39976791      2.13926745
H       3.24396064      3.64144184      2.13934191
H       2.23882520      2.50619749      2.50543470
