101
charge=0
N      -1.51171372     -3.86883941     -3.96237427
N      -1.29060510     -1.52095580     -1.57846886
O      -3.14282783     -1.74963029     -5.83256912
O      -2.90243239      0.54301751     -3.53626512
O       2.69170895     -4.51264534      1.39039519
S       4.99270581     -2.13329404      3.38252209
C      -1.93612776     -2.65843668     -3.82711290
C       4.58081318     -3.47530164      2.37449966
C       2.52585527     -2.40020049      2.70322505
C       3.23410542     -3.49395996      2.11380896
C      -2.66004204     -1.67820785     -4.60265018
C      -2.54068118     -0.67733575     -3.61470506
C       3.34893215     -1.57285894      3.42684914
C       0.92192012     -2.43583107     -1.09559463
C       1.83731040     -3.11150345     -0.39777507
C      -1.80672762     -1.62441611     -2.74618829
N       2.06787959     -0.68087172      5.33866689
C      -0.56596686     -2.66578104     -1.02648891
C       1.53677309     -4.18934845      0.60145587
C       2.67478488     -1.60883130      6.30122008
C       1.65510959      0.55840199      6.00878164
C       2.98446038     -0.36218844      4.22708202
H      -1.80194269     -4.24626947     -4.86507189
H      -3.38865649     -0.79981180     -6.12118939
H      -2.27945552      1.38271572     -2.71097277
H       5.32483521     -4.17434066      2.02043194
H       1.45487117     -2.24305697      2.63155424
H       1.25135569     -1.67858073     -1.80695069
H       2.89399178     -2.90251032     -0.55968676
H      -0.87253999     -2.79433899      0.02374607
H      -0.82843718     -3.60023939     -1.54810356
H       0.68901391     -3.92042577      1.25184333
H       1.27600049     -5.13337518      0.10740568
H       3.60490572     -1.19922387      6.73704574
H       2.91366003     -2.55447886      5.80547825
H       1.95908201     -1.80150806      7.10577603
H       0.96545179      0.30787432      6.82177182
H       2.51452478      1.10733120      6.43598679
H       1.14519720      1.21361590      5.29245858
H       3.90848627      0.11615850      4.60894867
H       2.48365307      0.37322668      3.58300959
O      -1.22078964      3.12564010      5.73167536
H      -1.89630279      2.88203767      5.05582055
H      -1.65826138      3.76008870      6.30928640
O      -0.46396215     -1.41517883      4.40518524
H       0.46909892     -1.25265753      4.72178090
H      -1.00709177     -0.95884860      5.07275612
O       1.19885804     -4.28962569     -3.68020091
H       0.20237654     -4.25903229     -3.65094451
H       1.47607421     -4.01394577     -2.79605635
O      -0.87369552      1.33618454     -7.16148576
H      -0.66529025      0.74111930     -7.92762454
H      -0.61936644      2.22298005     -7.43511570
O      -0.72517725     -2.62032054     -7.35682734
H      -1.56319281     -2.44351012     -6.90124927
H      -0.03823008     -2.55509983     -6.66525991
O       1.62666594      1.59061880     -0.34662531
H       0.76541222      1.12088915     -0.26361027
H       2.30975811      0.90320649     -0.23130854
O       0.94276773      4.20458451      4.19627478
H       0.22656576      3.87551325      4.77317422
H       1.69120155      4.34332474      4.78449545
O      -1.02533584      0.60402501      2.64190949
H      -0.19123626      1.13942557      2.61429805
H      -0.79968508     -0.19656947      3.18018248
O       1.40991138     -2.28448868     -5.45474722
H       1.39255111     -3.02095804     -4.78177971
H       2.27291665     -2.34860587     -5.87568294
O       0.63688562      2.34733130     -2.94511566
H       0.71822372      1.58391114     -3.56052659
H       1.18800776      2.13434912     -2.16697282
O      -2.92950748      1.91572431      3.97472643
H      -3.58096229      2.28395107      3.37027896
H      -2.26152148      1.43998261      3.40585990
O      -0.46678538     -0.51991140     -9.06635950
H      -0.52808420     -1.33964467     -8.51396926
H       0.34251070     -0.61384342     -9.57676140
O       0.33947754      0.29461773     -4.73458849
H      -0.01852250      0.62749418     -5.57592597
H       0.77681465     -0.54895062     -4.94362655
O      -2.06810406      0.25637658      6.24608420
H      -1.55725846      1.07409461      6.34929320
H      -2.77818570      0.52660419      5.64553018
O      -1.76960473      2.13647981     -2.07991546
H      -0.82245553      2.28005910     -2.46960965
H      -1.58721467      1.67686339     -1.20080494
O       1.28722792      2.02043927      2.45710025
H       1.47934858      2.16222383      1.51025284
H       1.24117266      2.88953558      2.90068725
O       3.62880902     -0.39235478      0.25808857
H       3.25042368     -0.97985922      0.93069800
H       4.41453200     -0.03201614      0.68349329
O      -0.58273836     -1.98589481      7.60394068
H      -0.57793836     -2.54014438      6.81523290
H      -1.27743469     -1.34073710      7.41505903
O      -0.96584986      0.64088469     -0.13517610
H      -1.14628243     -0.22731547     -0.65980620
H      -1.18102229      0.50276481      0.80883123
O      -3.52115331      0.77066746     -6.27279451
H      -3.44178100      1.00399374     -5.32643169
H      -2.67111490      1.06526997     -6.65704260
