93
charge=0
N      -3.15964027      2.46521253      1.30228146
N      -2.74805715      1.37240379      2.07040172
O      -0.96260932      2.31558531      1.19924819
C      -2.07718882      2.98445992      0.82210304
C      -1.45525974      1.31334075      1.98695639
N      -0.19439371     -0.87395941      1.85323911
C       0.79569537      1.12161237      2.98788929
C      -0.47516909     -3.36303620      1.71630130
C      -2.51842573     -1.97951546      2.16658421
C      -1.24039400     -0.71441483     -0.48699105
C       1.15752727     -1.40445926     -0.21727312
C      -0.48737356      0.35930373      2.63582671
C      -0.98853759     -2.05016069      2.30826466
C       0.00924414     -0.60444212      0.39563458
H      -1.95585607      3.83891941      0.16802514
H       1.40861652      0.52318778      3.66467519
H       0.54687443      2.06483660      3.48320349
H       1.38466633      1.34634150      2.09285096
H       0.60859720     -3.46296500      1.81176616
H      -0.93663731     -4.19304291      2.26378283
H      -0.74593018     -3.46947259      0.66231595
H      -2.93350330     -1.03738053      2.52817198
H      -2.96025151     -2.77632958      2.77966849
H      -2.84035323     -2.11199542      1.12947960
H      -1.00827904     -0.29264537     -1.46938018
H      -2.09465447     -0.16656649     -0.07631664
H      -1.53576914     -1.75452637     -0.65269432
H       2.07690170     -1.30994579      0.36580484
H       0.92842165     -2.46343590     -0.34067141
H       1.36383767     -1.00977932     -1.21891247
H      -0.97172912      0.05511144      3.57123768
H      -0.78563472     -2.09084419      3.39154813
H       0.33627684      0.44173007      0.35995649
O       2.88430031      1.45268279     -0.45951164
H       3.42350711      2.22753736     -0.64691915
H       2.07312747      1.58206644     -0.99190888
O      -1.96664896     -4.10043824     -1.61438991
H      -2.48438765     -4.23257553     -2.41421111
H      -2.45577682     -4.57347344     -0.91747758
O       4.26953484     -0.13246220      1.60332054
H       3.71282127      0.39904089      1.01447367
H       3.65033166     -0.50437558      2.24986067
O      -0.92301968      6.01160340     -4.15469661
H      -1.32896943      6.87646719     -4.03613060
H      -0.00984668      6.20060916     -4.39438774
O      -1.62439368      1.19042973      5.67340010
H      -1.46623173      1.32353998      6.61269590
H      -1.54231334      2.08207142      5.27045992
O       0.42419271     -1.44242494     -4.29178331
H       0.51472706     -1.86132267     -5.15451642
H       1.21290577     -0.81885704     -4.21518138
O      -1.63978915      3.58500325      4.23430817
H      -2.61815170      3.70232798      4.11993855
H      -1.32580183      4.42438895      4.58391130
O       4.23115638     -3.04237818      0.98806367
H       3.52751074     -2.98491716      1.64936837
H       4.55147215     -2.12520911      0.96178693
O       3.54124666     -3.34003613     -1.77495970
H       2.62204434     -3.61472333     -1.93754070
H       3.68181328     -3.40076887     -0.81096714
O      -3.12770394      2.14660395     -2.25770231
H      -2.65978326      1.39300069     -2.65562467
H      -3.47093115      1.83093315     -1.41410978
O      -1.27529516      0.63518941     -3.82999345
H      -1.24524565      1.15302651     -4.64160079
H      -0.80873124     -0.20695223     -4.05097888
O       2.27682059     -1.84984234      2.95655295
H       2.10268729     -2.02008496      3.88745150
H       1.43085468     -1.48561404      2.58156407
O       0.72390279      2.02959873     -2.18692077
H       0.22649466      2.86323983     -2.04754464
H       0.06568075      1.45887713     -2.62204907
O      -1.13634183      4.12137590     -1.95686357
H      -1.89347866      3.53192262     -2.15205226
H      -1.11345504      4.77164820     -2.67856120
O      -4.31469605      0.90726117      4.55781107
H      -3.93383307      0.81936370      3.66701475
H      -3.52226658      0.88028564      5.12212587
O       2.37291027      0.31110029     -4.05389500
H       2.04547173      1.09450635     -3.58902986
H       3.06731407     -0.06779330     -3.44348024
O       0.80072496     -3.87773084     -2.66083335
H       0.64428056     -3.02508563     -3.09900527
H      -0.02580552     -4.05607118     -2.18725415
O       4.11100512     -0.70465978     -2.29368792
H       3.90557202     -1.65767553     -2.12150355
H       3.87230782     -0.23952036     -1.47950653
O      -3.41493715     -5.20758515      0.59482699
H      -2.94160582     -5.88631852      1.08785592
H      -3.46405944     -4.45764003      1.19950591
O      -4.35262631      3.66695188      3.91556447
H      -4.52567875      2.76258293      4.25727475
H      -4.45092440      3.56205380      2.95923642
