106
charge=0
O      -1.77696388      2.87926818     -0.84216177
O       0.57885973      2.71573784     -1.76082004
C       1.49215762      0.73029690     -2.70075434
C       0.19417306      0.10737736     -2.68510857
C       2.07275045     -0.31788083     -3.36457194
C      -0.90888610      0.44112578     -1.96672357
C       6.01164193     -1.55805680     -4.30000944
C      -4.38360510     -2.02025795     -1.54624591
C       1.17460225      0.74806056      3.07873641
C       4.91944049     -2.32848979     -4.69933423
C       5.80789206     -0.36371117     -3.60486348
C      -4.06652649     -1.07530794     -0.57229993
C      -3.58665323     -2.11540179     -2.68901674
C       1.17644840      2.07966714      2.66951293
C       0.64288473     -0.23769847      2.25641170
C       3.62763226     -1.91303565     -4.40202777
C       4.52073145      0.05861048     -3.31090723
C      -2.96018238     -0.24768187     -0.72716081
C      -2.47710058     -1.29451229     -2.84354753
C       0.63803988      2.43096704      1.44125636
C       0.10904382      0.10346137      1.01840482
C       3.41016585     -0.71197722     -3.70426659
C      -2.12983223     -0.35684759     -1.85414131
C       0.10186119      1.43791463      0.61004462
C       1.82284368      2.02034149     -2.04342535
C       0.73979290     -1.06347113     -3.51366801
P      -0.61706542      1.92866246     -0.96561420
H       7.02137638     -1.88849763     -4.52495378
H      -5.25980125     -2.64655249     -1.40630333
H       1.57417273      0.48104651      4.05250380
H       5.07666090     -3.25946299     -5.23596031
H       6.65707967      0.22810753     -3.27760060
H      -4.70074154     -0.99007052      0.30339404
H      -3.83492106     -2.83124346     -3.46757711
H       1.57859580      2.84740249      3.32254361
H       0.63919589     -1.27498297      2.57796303
H       2.77693250     -2.52178321     -4.69578134
H       4.37823786      0.98470152     -2.76081036
H      -2.74486746      0.48739685      0.04359145
H      -1.87485875     -1.37453201     -3.74237942
H       0.62425166      3.47159114      1.12689021
H      -0.29286827     -0.66855155      0.36948435
H       2.40540214      2.69114625     -2.68316549
H       2.37529768      1.87827264     -1.10261400
H       0.66490050     -2.03626247     -3.01716953
H       0.36181444     -1.12283510     -4.54118644
O      -5.56526996      0.96321013     -2.86643662
H      -5.06955842      0.14027739     -2.95051005
H      -4.88570976      1.67307393     -2.95131333
O       3.87686810     -1.36977276      2.50323761
H       3.87910254     -0.40283279      2.45616903
H       4.79557728     -1.60124063      2.30730166
O       6.29696420     -1.05866376      0.41866282
H       5.55705572     -0.41424214      0.47157176
H       5.95831397     -1.77282526     -0.15017463
O       4.71943621     -2.92633506     -1.29058571
H       4.91242160     -2.62759450     -2.18991320
H       4.00535762     -2.32005765     -0.96732181
O       2.79330539     -1.42203406     -0.11797478
H       2.99255432     -1.57280817      0.82989992
H       1.92251852     -1.85134194     -0.28281152
O      -6.60967425      0.98212159     -0.35253342
H      -7.35375261      1.59140942     -0.38134092
H      -6.23723509      0.98640427     -1.27194072
O      -1.12917149      2.89131478     -4.42577599
H      -0.94176293      1.96152801     -4.24689128
H      -0.64527958      3.34578646     -3.72367808
O      -3.03813882     -0.73552665      2.86580060
H      -2.46744745     -1.20646157      2.24450678
H      -3.56778745     -0.11710326      2.32379512
O      -1.86286174      1.82181066      4.04238149
H      -2.14252826      0.92709742      3.79917720
H      -2.10385725      2.35390513      3.27263770
O      -4.76893715      1.22588234      1.77809842
H      -5.35776375      1.23155905      0.99657003
H      -4.28572164      2.07188858      1.76211868
O      -1.80581324     -2.90433598      0.85055977
H      -2.48571940     -2.58472464      0.23588645
H      -2.23681088     -3.61659339      1.33644185
O      -6.93898390     -1.87588828      0.68656187
H      -6.74437031     -1.68751916      1.62127901
H      -7.05791494     -0.99523730      0.30342230
O       5.57059071      2.53389585     -1.24562242
H       5.79760098      3.44747908     -1.04790163
H       6.41605400      2.03412682     -1.18321731
O       4.24984695      0.87572399      0.60011404
H       3.56314797      0.38382922      0.11792826
H       4.58703026      1.56699064     -0.00379272
O      -6.03036564     -0.96785520      3.34416305
H      -5.85270003     -0.04850335      3.09480400
H      -5.13664030     -1.31310556      3.47570459
O      -3.71347946      2.98988486     -2.96991071
H      -3.05446997      3.01447503     -3.68151280
H      -3.15997127      2.98720822     -2.16966029
O      -2.93763424      3.39833099      1.62025548
H      -2.51246061      3.30676009      0.74171439
H      -3.15495863      4.33087325      1.71062623
O       2.56467753     -4.80854198     -1.57375440
H       3.39032958     -4.29382547     -1.47693816
H       2.75952660     -5.66392221     -1.17965389
O       0.59988599     -2.92196450     -0.79114330
H      -0.14671450     -3.14310658     -0.21108494
H       1.10190885     -3.74121617     -0.96445217
O       7.74417431      0.80772561     -1.02401482
H       8.54988138      1.03648287     -0.55085450
H       7.34846321      0.06256451     -0.51266784
