100
charge=0
Br      2.85806540     -1.84362094      3.80851752
Br      4.88697148      2.42209980      0.38925573
N       2.58211091      0.65664447     -0.89441103
N      -1.20247144     -3.66034426      1.74081136
N       0.95614536     -1.09199663     -0.70195848
O      -1.43384082     -1.86953282      0.37091954
C       1.59760134     -0.08167013     -1.33564389
C      -0.65859628     -2.69008490      1.10956236
C       1.34772653     -1.40423735      0.53262888
C       4.05273231      0.34972688      2.31318057
C       3.11964599     -0.68998573      2.34841733
C       3.93587409      0.97059812      1.07484096
C       2.43141916     -0.71893055      1.13253122
N       0.69285887     -2.39624086      1.20861253
N       2.98172177      0.32807168      0.35890955
N      -4.59642146     -0.49374238      1.09021646
C      -5.63472672     -1.52310572      0.85818482
C      -4.24280221      0.14742722     -0.20342545
C      -5.12064167     -2.61418816     -0.12141650
C      -3.68585356     -0.88801274     -1.20686771
C      -2.62575412     -3.61908113      1.38749153
C      -3.39462242     -1.13667292      1.65823344
C      -3.68292430     -2.26570514     -0.54053887
C      -2.83670808     -2.23930846      0.72257324
H       1.25904956      0.15311149     -2.34267497
H       4.73238257      0.64032512      3.09930835
H       1.14415288     -2.84427103      2.00870772
H      -6.52417779     -1.01825010      0.46400648
H      -5.90413756     -1.95322956      1.83098107
H      -5.14483023      0.63906237     -0.58632002
H      -3.50443016      0.92437324      0.01106441
H      -5.73367931     -2.66667328     -1.02623311
H      -5.15718569     -3.60661238      0.34125733
H      -4.29666833     -0.93152092     -2.11302998
H      -2.67422628     -0.61631877     -1.52450646
H      -2.84163509     -4.43341375      0.68078593
H      -3.25171713     -3.74330628      2.27854323
H      -2.62833170     -0.37007806      1.82023817
H      -3.65984387     -1.55867039      2.63619983
H      -3.29765943     -3.03023627     -1.21721515
O      -2.41047821      2.51387138     -1.93743866
H      -1.83425847      2.01465202     -1.32591816
H      -3.02020880      2.96019004     -1.33177214
O      -2.57259352     -1.90907532     -4.25453843
H      -2.79132047     -0.96663733     -4.12225707
H      -1.80614462     -2.08249850     -3.68288259
O      -4.75631572      1.79740305      2.44617148
H      -5.56328711      1.93766810      2.95105175
H      -4.84254250      0.87915641      2.00675714
O      -3.30263566      0.84941671     -3.98325846
H      -3.08965568      1.35113693     -4.77541627
H      -3.02250030      1.43137261     -3.24218838
O       7.75513917     -0.03687358      0.76249400
H       7.06474077     -0.72297898      0.60040729
H       8.53865507     -0.52460897      1.03343527
O       1.02047040      2.65155678      1.27631955
H       1.61509875      3.17421855      0.72723415
H       0.24931606      3.24208989      1.52769133
O      -0.42130284     -2.82844193     -2.51433025
H      -0.04150501     -2.24145250     -1.82232670
H       0.33923410     -3.14758790     -3.01165435
O      -3.69175365      3.65486064      0.56612463
H      -4.13290360      3.04461826      1.19387459
H      -4.18970990      4.47616955      0.62837486
O      -1.07364394      1.13467809      0.09426227
H      -0.25424638      1.51477220      0.46077542
H      -0.97255234      0.17403240      0.13899702
O      -4.33171825     -3.86332273     -3.39646698
H      -4.66131071     -4.31321944     -4.17986585
H      -3.77431741     -3.13126944     -3.74954933
O      -1.16312338      3.87776757      2.12030099
H      -1.87465076      3.88299489      1.45755445
H      -1.48283243      3.21205003      2.77172402
O       0.91077413     -4.55427251      3.32507037
H       0.04345333     -4.53464323      2.86666386
H       1.32056413     -5.37933626      3.04831176
O      -0.50633449     -0.38288237      3.32904193
H       0.24594906      0.21521254      3.54213031
H      -0.40727101     -1.12683833      3.93304634
O      -2.22417165     -5.15312105     -1.74785571
H      -1.55121235     -4.48669040     -1.94781327
H      -2.95413370     -4.91198953     -2.34303118
O      -2.18833584      1.91892766      3.83960077
H      -1.75444468      1.05943347      3.68999780
H      -3.08429346      1.81797565      3.47302592
O       7.65054865      1.37538110     -1.58409888
H       7.78644807      0.91487031     -0.71952445
H       8.42101667      1.14873160     -2.11462656
O       5.24041350     -0.14101586     -2.15550460
H       6.01315595      0.44911736     -2.07671578
H       4.47528884      0.43597122     -2.02160607
O       5.72910056     -1.76910463      0.07336846
H       5.00331113     -1.68342696      0.70261261
H       5.44105148     -1.27265499     -0.72591441
O       1.36920161      1.59586333      3.85607062
H       0.88418753      2.23559522      4.39005058
H       1.42918339      2.01430949      2.97330918
O       6.85737805      4.13440478     -1.02506611
H       6.49583934      4.48281666     -1.84545225
H       7.21973616      3.26586378     -1.27130376
