95
charge=0
O       4.34678857     -0.99632726      2.57276191
O       1.30087565     -5.32377370      1.17761215
O       3.20042965     -1.02762489     -2.42137600
N      -0.49875455     -3.91575234      1.12923641
N      -0.11739487     -1.62910733      1.83143930
O       1.84753215      0.74658179     -2.12752228
O       0.98134400      3.41637327      3.80247210
O       2.50807244      1.16017341      2.98070496
S       3.21696303     -3.41442466      2.70424913
S       3.10023351      2.11384871      0.61708776
C       3.31921530     -1.62835988      2.60459539
C       0.74806600     -4.30120107      1.53701191
C       2.55844535     -0.28209958     -1.69277771
C      -0.92526147     -2.67583264      1.41128437
C       1.01821281     -1.97759561      2.32012534
N      -2.17589441     -2.33066057      1.15834633
N       2.02563868     -1.07028793      2.50721517
C       1.39699104     -3.38249941      2.59587368
C       1.37584133      3.27017301      2.44858979
C       2.64617654      2.42806621      2.40159394
C       2.49809281     -0.50819835     -0.20528517
C       1.74136153      0.31912674      2.14904544
C       1.96878931      0.64901409      0.62920953
H       1.99746143      0.85571818     -3.12066491
H       0.16310930      3.94852425      3.79420923
H      -2.43949365     -1.35548819      1.29899222
H      -2.83453279     -3.02286843      0.79350309
H       0.93643181     -3.67663585      3.55364272
H       0.58300807      2.78825585      1.84966721
H       1.60091075      4.24178568      1.98001074
H       3.47424148      2.92777259      2.91386947
H       3.49435524     -0.83040254      0.11228856
H       1.81870173     -1.36664589     -0.09783882
H       0.67433698      0.43898033      2.36277967
H       1.00289521      0.95771298      0.21669493
O      -1.30172883     -4.71371660     -1.39079485
H      -0.98331359     -4.57547767     -0.45799739
H      -0.86812172     -5.52423667     -1.67960831
O      -4.69546964     -1.69705502     -1.04468608
H      -3.88195503     -1.28226605     -1.39161389
H      -5.02884830     -1.08110592     -0.38495141
O      -1.65670573      1.72822189     -0.79145490
H      -0.81872505      2.09176350     -1.11710088
H      -1.87925046      0.97566354     -1.37908572
O      -2.42946256      0.63460465      1.71746460
H      -2.04376883      1.01748143      0.90586388
H      -1.68722809      0.58748931      2.34845959
O      -2.35761597     -0.55154671     -2.22456780
H      -1.56961791     -1.17477070     -2.19292479
H      -2.58397015     -0.48099998     -3.15815246
O      -0.71642263      0.96772037      4.11041978
H      -0.03369974      1.64774593      4.23239326
H      -1.54661508      1.41907245      4.35955502
O      -0.54824246      6.08344891     -1.63473838
H      -1.25919046      5.80211460     -1.03836907
H      -0.99278061      6.41052897     -2.42244705
O      -1.53800993      4.68811637      3.25548691
H      -1.63003085      4.62877751      2.27743452
H      -1.75984804      5.59679670      3.48280195
O       1.35740687     -1.85493706     -4.43531151
H       2.17729221     -1.72831278     -3.92846699
H       1.30369846     -1.03473190     -4.94109279
O       6.00344288     -0.35317717     -2.31627877
H       6.13176716     -0.07248678     -1.38986160
H       5.24536157     -0.95296309     -2.26830965
O      -0.25491659     -2.14904625     -2.12878869
H      -0.53716273     -3.07878305     -2.01491926
H       0.24259105     -2.10999053     -2.97290226
O      -3.93446844     -4.30084353     -0.12126187
H      -4.37391687     -3.54331270     -0.54993219
H      -3.26781984     -4.60221665     -0.76061776
O      -2.81242732     -5.36108631      2.50998448
H      -3.52089090     -5.12510287      1.89509118
H      -2.02533512     -5.33035242      1.94610636
O       5.08774673      1.18172329     -4.37578962
H       5.65515065      0.87950518     -5.09179073
H       5.43360649      0.71012049     -3.57593252
O       6.04963423      0.33528159      0.46319632
H       5.32306776      0.94088346      0.67418334
H       5.96994262     -0.34653924      1.14215812
O      -1.28004150     -3.60717638      4.25259931
H      -1.96784031     -4.13167534      3.80300467
H      -1.74050051     -2.84145638      4.60864040
O       2.43212893      1.03705456     -4.68977174
H       3.42963353      1.02462119     -4.62482385
H       2.22249707      1.90165679     -5.05900474
O      -1.68393609      4.35141620      0.51140703
H      -0.80120777      4.05189539      0.21032125
H      -2.24783750      3.61686689      0.22435462
O       0.54885770      3.57549445     -0.98836985
H       1.46712596      3.38989411     -0.73287610
H       0.52526984      4.43026932     -1.45332173
O      -3.22622165      2.34875727      4.02488423
H      -3.29163858      1.91879840      3.15717572
H      -2.82959198      3.21187831      3.82966530
