104
charge=0
O       1.68508261     -1.65151039      1.46128773
O      -1.72973450     -1.48287318     -2.68034456
O       5.49131970      2.14937936      0.93890678
O      -8.58875917      0.57876611      0.31965703
O      -8.47467973      0.10814450     -2.15962891
N      -1.58893173     -0.65691990      0.67813487
N       0.83892505      0.21371157     -1.67345282
N       1.08744094     -0.95153779     -1.31424905
O       0.18031096     -0.56169907      2.76447867
O       6.87711979      2.30285457     -1.25938824
O       6.12673730      0.05894599     -0.41501512
O      -7.90800246      2.34380764     -1.34691723
C       0.57920420     -1.16136485      1.66867479
C      -1.42332599     -1.30389079     -1.52333056
C      -0.42013299     -1.18713697      0.57981599
C       2.98084896      2.74195563     -3.26495144
C       1.88416920      1.94632330     -2.97205083
C      -4.01795630      0.31894336     -1.79279881
C      -4.42559208     -0.63306237      0.41140892
C       4.15457237      2.62313074     -2.52285227
C       3.15237894      0.87114787     -1.19730658
C      -5.35389435      0.67072528     -1.88604542
C      -5.75993426     -0.26570641      0.32078826
C       1.98846286      0.98868762     -1.96072820
C      -3.56563038     -0.33371094     -0.64230708
C       4.23742350      1.70040675     -1.47558146
C      -6.20801205      0.37905574     -0.82400045
N      -2.20592803     -0.69329720     -0.54059042
C      -0.11042520     -1.65854967     -0.81294996
P       5.71930759      1.58061800     -0.43132118
S      -7.93494793      0.81048076     -0.98276780
H       0.97314568     -0.45024398      3.42931128
H       6.93607346      3.28602355     -1.10231541
H       6.11713483     -0.38124322     -1.35765579
H      -7.50162306      2.92298497     -0.53895480
H       2.92615301      3.46524845     -4.07255825
H       0.95423174      2.03194692     -3.52597537
H      -3.32554193      0.55983425     -2.59129817
H      -4.06536788     -1.17043745      1.28097982
H       5.00644980      3.25132436     -2.76623717
H       3.18374833      0.16493660     -0.37004839
H      -5.72753029      1.18393668     -2.76680086
H      -6.44894293     -0.49334394      1.12696103
H       0.05742822     -2.73817827     -0.85136753
O      -2.85658365      1.02427628      2.80597824
H      -2.35402215      0.44752460      2.20609896
H      -2.20890302      1.32662040      3.44975298
O       7.19143370      4.04028604     -3.72651581
H       7.54181258      4.56355004     -4.45368306
H       7.59965304      4.40607879     -2.92997857
O      -6.96531508     -2.24741432     -2.70659988
H      -7.50149503     -2.83279274     -3.25201882
H      -7.52016616     -1.45439405     -2.57427608
O      -8.03617184      2.09754185      2.65441105
H      -8.32513509      1.48879603      1.95018436
H      -8.71939064      2.05239532      3.32992356
O      -2.11268847     -3.69749822     -0.22891780
H      -2.56629562     -4.17301504     -0.94327601
H      -2.76452595     -3.69818690      0.49593744
O       7.11278950      4.94073007     -0.83769990
H       7.22943178      4.84251320      0.14480090
H       6.27323325      5.40363229     -0.93767485
O      -5.11564826      2.61132942      2.16148522
H      -4.30102650      2.08665517      2.27709328
H      -5.79121297      2.16478020      2.68812876
O       5.97997136     -0.99568561     -2.71070740
H       6.02161946     -0.26921154     -3.36884859
H       5.08166251     -1.37044542     -2.71160188
O      -4.25574932     -2.56994889     -3.72667598
H      -5.08883910     -2.21913941     -3.36679673
H      -3.54981583     -1.99019056     -3.40032726
O       5.55379235     -2.70220783      0.64886188
H       6.01846320     -1.85948085      0.56167030
H       4.87879886     -2.64922056     -0.04601031
O      -6.98563562      3.70184765      0.53204262
H      -6.13344125      3.35344024      0.89010750
H      -7.58188343      3.56467336      1.28922863
O       2.08071647     -0.13437943      4.39903507
H       2.55145917     -0.93825526      4.65780107
H       2.79016810      0.39803404      3.95292419
O      -5.96662583     -4.06500679     -0.55693105
H      -6.35954653     -3.35282156     -1.08602375
H      -5.31821854     -4.47300157     -1.15912886
O       3.65592051     -2.35796232     -1.72002270
H       3.40729115     -3.22990579     -2.04476887
H       2.80840040     -1.91327523     -1.50544045
O       7.23215646      4.14692953      1.71782302
H       6.61333103      3.39068516      1.60955879
H       6.96061856      4.59227957      2.52560496
O       6.57489322      1.15938722     -4.40851390
H       7.40477498      0.89769977     -4.82055098
H       6.78745297      1.99441546     -3.95925739
O      -3.83334493     -4.84241054     -2.32022084
H      -3.71855693     -5.61510811     -2.88087493
H      -3.95116812     -4.07121298     -2.93133750
O      -4.32939470     -3.56898108      1.61881654
H      -4.99656502     -3.70237305      0.90707036
H      -4.47933620     -4.28956756      2.23794123
O       4.33357896      0.80545640      3.24940108
H       4.52266337     -0.13498624      3.05331401
H       4.61578143      1.29683656      2.46066007
O       4.09753625     -1.97194104      2.99010639
H       4.67906494     -2.39360040      2.32889220
H       3.25305065     -1.90134757      2.51344826
