97
charge=0
N      -0.43243938      1.65822270      2.57950364
C       0.65237850      4.95426902      3.88269048
C       1.69561440      5.21210537      2.96466375
C      -0.08440543      3.78210348      3.83509431
C       2.00888059      4.29538783      1.96849736
C       1.91822779      1.64265899     -0.18314955
C       0.21164638      2.84558460      2.83311437
C       1.26271421      3.11134498      1.88848509
C       1.23248689      2.00640427      0.98797689
C      -1.57563067     -1.96898007      0.44941073
C      -0.83927943     -2.25326277     -0.73605961
C      -1.23820732     -0.83789809      1.15926159
C       0.17889619      1.18042978      1.46470362
C       1.55550514      0.50537210     -0.83768710
C       0.17793653     -1.41919214     -1.10826002
C      -0.19668146      0.01128782      0.76472455
N       0.51438682     -0.29541997     -0.38686303
C      -2.64469172     -2.89894437      0.95341435
C      -1.19762094     -3.42483811     -1.61491675
C      -3.15855166     -3.86428103     -0.11327327
C      -1.98583865     -4.49597229     -0.86197407
H       0.41714084      5.70225079      4.63444558
H       2.24171389      6.14873424      3.02815513
H      -0.89974314      3.60068327      4.52963888
H       2.80116015      4.50579434      1.25376985
H       2.71927068      2.23541613     -0.61282546
H      -1.77112956     -0.57573119      2.06831002
H       2.03631629      0.16173415     -1.74227583
H       0.76213379     -1.59771729     -2.00752274
H      -2.20923963     -3.49042326      1.77360959
H      -3.45880646     -2.30302906      1.37986570
H      -0.29509435     -3.83051109     -2.08166815
H      -1.81610670     -3.03114544     -2.43614052
H      -3.80457077     -3.31877645     -0.81577163
H      -3.77445849     -4.63417440      0.36441215
H      -2.33441179     -5.25755979     -1.57082246
H      -1.33396740     -5.00728509     -0.14121127
O       3.67774191     -0.63895146     -3.73294957
H       2.71963405     -0.58821959     -3.90030641
H       3.78156214     -1.25395612     -2.98471402
O       1.08779211      0.53944678     -4.13267234
H       1.60102042      1.33017677     -3.90041979
H       0.25803057      0.63122440     -3.63106419
O      -1.64211636      2.74904769     -0.85317168
H      -2.16335766      2.50927759     -0.06235205
H      -1.19562331      3.58446772     -0.60425361
O      -3.10269472      4.97315918      1.88883511
H      -3.23316095      4.00581325      1.82649579
H      -3.88146054      5.35325348      1.47127906
O      -1.46234172      0.97671070     -2.79469552
H      -1.90641534      1.43987888     -3.51437992
H      -1.43338933      1.65886658     -2.06458001
O       3.80886543     -2.61360969     -1.62649600
H       4.61858703     -3.12735201     -1.55204207
H       3.57336468     -2.35772367     -0.69355075
O       3.18584949     -1.82107367      0.84506590
H       2.52880552     -2.27920517      1.40378084
H       3.95334541     -1.65369197      1.42992851
O      -4.52639066     -0.05704229      0.80697067
H      -4.22742963     -0.25537799     -0.10915910
H      -5.46732917      0.12417472      0.72085745
O       3.10778140      2.96335704      4.89969602
H       2.92644561      3.71127270      4.30872161
H       2.27261019      2.86074765      5.37196410
O       0.81832483     -0.67573489      4.14609276
H       1.67694400     -0.24806280      3.96157449
H       0.18196290     -0.00336067      3.84683678
O       1.69107758     -3.26213358     -3.44016050
H       2.44375419     -3.22083945     -2.82370810
H       2.05973160     -2.96759743     -4.27924848
O      -0.55695710     -5.24107256      2.50610586
H      -0.56570374     -5.78968062      3.29525972
H       0.10466566     -4.55300904      2.68980422
O       1.01885083     -2.82424127      2.41576939
H       0.90714167     -2.10864631      3.09067867
H       0.34875962     -2.59893574      1.75564683
O      -4.28601018     -2.78441662     -3.61020315
H      -3.81674886     -2.76668413     -4.45119969
H      -4.14883424     -3.67712075     -3.27490766
O      -3.65669964     -0.55557846     -1.76070199
H      -2.85935197     -0.11385554     -2.11029029
H      -3.84890663     -1.29022109     -2.36261847
O       3.19432736      0.70309798      3.30474363
H       3.22279470      1.53442268      3.83235828
H       2.84604786      0.96539020      2.43941302
O       5.23112170     -1.08989340      2.62703543
H       5.40054625     -1.69249755      3.35759953
H       4.65970314     -0.39180454      3.00514796
O       3.42726897      2.07470609     -3.14034810
H       3.97302177      2.65918948     -3.67434669
H       3.76453557      1.17241094     -3.32452253
O      -3.02948886      2.18758613      1.57220383
H      -2.25369766      1.89269081      2.10036405
H      -3.59163167      1.40187499      1.40850178
O      -0.79292274      5.19771771      0.24285522
H      -1.56023825      5.23530723      0.84993213
H      -0.03198625      5.10638736      0.82989510
