84
charge=0
O      -1.28184062     -2.29273922      2.03193182
Cl     -0.93145400     -2.08052778     -4.30060110
Cl     -2.87023053      0.11939385     -4.54389790
Cl     -3.75403656     -2.52787946     -3.63704338
O      -3.24288243     -0.41232339     -1.51208275
O      -1.29820401      0.42008916      3.43854128
O      -1.06958769     -0.03732531     -2.10835562
O      -3.21257097      0.97806540      0.37431572
O      -0.79218316     -0.78935394      0.45600300
C      -1.36612728     -1.15168137      1.61806895
C      -2.42276676     -1.34136409     -3.60832577
C      -2.11510002     -0.98110510     -2.12903322
C      -2.91179645      0.89485767     -0.98375906
C      -2.03804707      0.04472906      2.28609752
C      -1.39050403      0.95722606     -1.14896521
C      -2.01160137      1.09346981      1.17990582
C      -0.87948568      0.65732349      0.26126319
H      -0.30749962      0.35688933      3.23654016
H      -1.82929882     -1.91811386     -1.62722825
H      -3.49999603      1.63471067     -1.53550717
H      -3.06548255     -0.18539600      2.59793829
H      -1.02182347      1.92216465     -1.50585514
H      -1.91344765      2.11679681      1.55102457
H       0.09870327      1.08495887      0.48685698
O       1.79624347     -3.23513429     -5.78523372
H       0.96212555     -3.45124570     -6.21233483
H       1.91734780     -2.26721918     -5.89875964
O      -4.14898811     -2.63331600      0.32019053
H      -3.43154782     -3.13798268     -0.08669694
H      -4.13592492     -1.78369767     -0.14176487
O      -0.58296917      3.88497641      0.28799073
H       0.25569474      3.41654289      0.13011008
H      -0.45657811      4.31649018      1.15065707
O      -1.72230636      3.09054113      4.27586285
H      -1.61637303      2.17017275      3.96830597
H      -1.99701740      2.98203355      5.19390367
O       2.67935994     -3.76352494     -3.24804006
H       2.28404377     -3.67796902     -4.14627155
H       3.14886207     -4.60326244     -3.24745087
O       1.21511347     -2.59962191     -1.11786693
H       1.67965709     -3.11271630     -1.80600008
H       0.33949678     -3.01019900     -1.02478368
O       0.18509616      4.52658484      2.98256651
H       0.37906620      5.36871368      3.40451026
H      -0.47023071      4.07543004      3.56770313
O       2.37077891     -0.53577982     -5.78187848
H       2.67227952     -0.03773046     -6.54777281
H       1.75072963      0.06859838     -5.28803313
O      -4.03798879     -2.86570566      3.22666187
H      -3.07346987     -2.84369092      3.25161016
H      -4.22278780     -2.78596096      2.27408996
O      -1.34737128     -3.84078821     -0.29291329
H      -1.24241154     -3.47635228      0.60940424
H      -1.32234905     -4.79822533     -0.19191901
O       1.20298713      0.24046226      2.83803226
H       1.66089476      1.05037523      2.52015854
H       1.57687726     -0.53779557      2.37479646
O      -2.46838341      0.64138418      6.04379014
H      -2.13029519      0.11889434      6.77729744
H      -1.99438805      0.31495569      5.26001021
O      -0.24709506      4.06702015     -2.45750791
H      -0.54392113      4.40897912     -1.59528556
H      -0.26691627      4.81338754     -3.06287156
O       0.88312477      1.05429273     -4.22899870
H      -0.07361691      0.93030985     -4.22458065
H       1.16667032      0.70794592     -3.35217683
O       3.98862049     -1.11524723     -3.36719598
H       3.65751740     -0.89086709     -4.25306447
H       3.76897878     -2.05696212     -3.27509678
O       1.74870385      2.66138433     -0.87248370
H       1.89817002      1.73844659     -1.16236192
H       1.42091677      3.12771913     -1.65918304
O       1.98061187      0.06184067     -1.86727721
H       1.50357797     -0.73635312     -1.56958228
H       2.80419062     -0.29288141     -2.27733478
O       1.90180449     -2.21580396      1.67696148
H       1.79660592     -2.31334676      0.71247914
H       1.15223257     -2.70491832      2.03634089
O      -4.69537534     -0.16655051      4.11529542
H      -4.61263404     -1.12918255      3.99935159
H      -4.24779292      0.02495474      4.95010581
O       2.23438414      2.66985144      2.03578175
H       2.28016198      2.83632637      1.08170308
H       1.64344975      3.35446093      2.39477881
