98
charge=0
N      -4.33493213     -1.13728675     -2.35074023
N       1.74605687      1.28740818     -6.24661338
N       4.34621561      1.27979322      0.97903916
N      -1.50084473     -1.02968818      0.74266704
N       1.44330208     -0.21273861      2.66240758
S      -3.37035394     -1.51182997     -3.68041654
C      -3.55042437     -0.86976540     -1.32837654
C       1.55229160     -0.00624801     -6.40208638
C       4.29111818      1.50367644     -0.31578705
C      -1.88071097     -1.28452405     -2.86198056
C      -2.13974546     -0.93155573     -1.55645446
C       2.65440693      0.28386026      2.54258115
C      -1.13140566     -0.68264035     -0.52142019
C       2.45543086      2.57639052     -4.20256371
C       2.77006644      2.43217924     -2.86076059
C       2.55120731     -0.01298898     -2.97612495
C       2.15498503      1.42510997     -4.92987966
C       3.14978564      0.67202675      1.28502974
C       2.20111996      0.15639651     -4.30754157
C       2.80914711      1.15617109     -2.27508377
C      -0.64269589     -0.85937542      1.72636956
C       0.10989205     -0.14631094     -0.81110878
C       2.36843764      0.52823354      0.13450463
C       0.65838335     -0.34780724      1.54852667
C       1.05182243      0.01225316      0.22217555
N       1.82163273     -0.73800787     -5.28246795
N       3.12853081      1.05550100     -0.88492984
H      -4.00220103     -0.59768507     -0.37445021
H       1.20524151     -0.47735283     -7.31473213
H       5.05956771      1.98855328     -0.90604869
H      -0.91105640     -1.47499146     -3.31106885
H       3.23608611      0.42121037      3.45367406
H       2.41382781      3.55617049     -4.66785642
H       2.95866478      3.29958426     -2.23576921
H       2.56790526     -0.99028000     -2.50446714
H      -0.96119744     -1.15079784      2.72722639
H       0.34142686      0.14866041     -1.82760775
H       1.67220535     -1.74264262     -5.19180599
O       3.62841990      5.65191745      1.00400513
H       3.58618449      5.51326385      1.96151523
H       4.51014540      5.31535415      0.75291537
O       6.13128369      4.38281375      0.39414753
H       6.24893710      3.91619700      1.24465822
H       6.91125693      4.93745668      0.29593603
O       5.77765973      2.83010524      2.69321887
H       6.33515594      2.38185096      3.33685828
H       5.37121079      2.12066436      2.12113807
O      -0.92226899      1.80892766     -3.59755276
H      -1.38705344      1.16468354     -4.15613070
H      -1.44349228      1.84444136     -2.78847149
O       3.04552119      3.71935492      3.37381391
H       3.96640537      3.43342914      3.24483962
H       2.58934633      3.44695452      2.55810747
O      -0.62819870      2.86940404     -6.39137965
H       0.26623014      2.50527466     -6.56108000
H      -0.62486471      3.02034743     -5.43321561
O      -1.24413082     -2.83213878      4.66516666
H      -0.66807227     -2.10328188      4.97112325
H      -2.13705120     -2.44926575      4.56189413
O      -3.14412609     -3.27535975      1.14366570
H      -2.68798330     -2.41280603      0.97773146
H      -2.45532986     -3.81616784      1.57708622
O       1.02625177     -2.77608277     -2.68293305
H       0.88486598     -3.39900635     -3.40775681
H       0.58803549     -3.17552010     -1.90910810
O       2.57103388      1.67756562      5.46312447
H       2.58027709      2.43783056      4.85682747
H       1.64473460      1.41160216      5.51040615
O       0.74943671     -3.44132665     -5.50338164
H      -0.07699353     -3.05091968     -5.86206639
H       1.01521712     -4.11566754     -6.13539857
O      -5.97773199     -2.88494031      1.33597804
H      -6.12679586     -3.21170834      2.23060918
H      -5.07918884     -3.19890617      1.12572307
O      -0.44598457     -3.97276204     -0.51722056
H      -0.29493419     -3.93957853      0.44093804
H      -1.39614918     -3.82242001     -0.59834443
O       0.52075062     -0.69152140      5.27828758
H       0.87892220     -0.55068341      4.36502543
H       1.27858928     -0.98407754      5.79632321
O      -0.79324197     -4.23621144      2.41895594
H      -0.86476210     -3.70048885      3.25581290
H      -0.63219294     -5.13784843      2.71361654
O      -2.00881859      0.57825644     -6.05571137
H      -2.94899122      0.77671697     -6.11924735
H      -1.54084470      1.40968045     -6.34180009
O       1.89512586      3.53927354      0.62591423
H       0.98484985      3.84157978      0.55009766
H       2.43979738      4.35871398      0.59114647
O      -1.42920771     -2.10116847     -6.53985275
H      -1.58563039     -1.14165122     -6.40577340
H      -2.30521765     -2.49412976     -6.59726722
O      -5.08939356     -0.26353968      1.81823864
H      -5.55477202     -1.09807510      1.59633630
H      -5.77639227      0.40924746      1.83714604
O      -3.83088411     -2.08277648      3.77000349
H      -4.15785944     -1.22049500      3.46890230
H      -3.68323742     -2.54777850      2.92820351
