104
charge=-1
O       0.75106857     -0.83546654     -3.68133485
O       3.22555147     -4.05877150      0.77076707
O       0.61563013      0.23299249      5.95138465
N      -0.65576939      1.80084452      0.90280468
C       0.46111432     -0.18736988     -2.60860920
C       2.55372478     -3.04705490      1.01809092
C      -0.24370713      1.14953023     -0.20422697
C      -0.34088450      1.00409454     -2.63317589
C      -0.66275688      1.64966285     -1.46881764
C       0.91110555     -0.65264542     -1.33297015
C       3.22742892     -1.73943160      1.13487857
C       1.09505709     -3.12645379      1.16631934
C       0.56137816     -0.02562537     -0.17084021
C       2.50744882     -0.59929664      1.19742864
C       0.35716740     -1.99945910      1.22990034
C      -0.49502856      1.74091221      4.51430240
C      -0.79533765      2.11170203      3.24396826
C       0.75620399     -0.19078318      3.62704292
C       0.30957165      0.56853301      4.77186197
C      -0.32094397      1.36606347      2.11881625
C       0.47374249      0.19364653      2.35279733
C       4.72965358     -1.77346059      1.08014951
C       0.46756290     -4.49014243      1.14065726
C       3.12364718      0.76950002      1.23505794
C      -1.14143327     -2.03367801      1.25908370
C       0.99261565     -0.62765449      1.17345040
H      -0.69773810      1.37402262     -3.59125225
H      -1.28097646      2.54410364     -1.48558002
H       1.50457459     -1.56283323     -1.30553841
H      -0.84528238      2.30741045      5.37222545
H      -1.40200539      2.99011335      3.03881430
H       1.34422606     -1.08651115      3.81426973
H       5.17758946     -0.84844002      1.44709882
H       5.06865797     -1.94578449      0.05092934
H       5.11090518     -2.61131295      1.66990607
H      -0.36838434     -4.55840552      1.84244159
H       1.20995352     -5.25325354      1.38247230
H       0.07143186     -4.71248681      0.14182972
H       3.49073078      1.00012767      2.24433321
H       2.40697197      1.55286594      0.97188505
H       3.97324090      0.84654245      0.55102503
H      -1.58222341     -1.03670548      1.17544956
H      -1.53400798     -2.65426241      0.44535534
H      -1.50650571     -2.47556894      2.19447712
O      -3.48582254      2.59175924      0.70438773
H      -3.80693884      1.68052209      0.82492068
H      -2.51834829      2.50516359      0.79419356
O      -0.15725320     -3.47485954     -2.45933987
H       0.23553931     -2.77281525     -2.99757086
H       0.59606334     -4.05801637     -2.23034965
O      -4.13888041     -3.30049805     -0.15663444
H      -4.11063591     -2.39061619      0.16856177
H      -3.92951689     -3.22511003     -1.09732235
O      -2.78445185     -2.76001146     -2.88792114
H      -2.59422719     -2.56833559     -3.82997535
H      -1.93879915     -3.14556713     -2.57711028
O      -3.46344450      0.52310889     -5.00232488
H      -3.67064611      0.33313356     -4.07583426
H      -3.19964256      1.47158749     -4.99545687
O       2.12626702      2.57267174      6.76912470
H       1.92612700      3.07673290      5.96612050
H       1.51382827      1.81878103      6.72369977
O       4.18438890     -1.16479870      4.32613174
H       3.57469659     -1.52314624      5.00671085
H       3.75705058     -1.37175544      3.48552576
O      -2.77510073      3.19995000     -4.69937469
H      -1.81904888      3.37104650     -4.78643332
H      -3.00110183      3.31983943     -3.76193903
O       1.64886952      4.00100241      1.10105845
H       1.83101761      3.78440920      2.03230409
H       0.71844132      3.77983093      0.98499016
O      -1.69780371     -1.59135861     -5.28063050
H      -2.26100306     -0.78422060     -5.25915612
H      -0.91057740     -1.35368225     -4.76588120
O       0.03287963      3.36638324     -5.24925821
H       0.66690236      3.49284824     -4.53662081
H       0.22136949      2.46399135     -5.58567167
O      -3.33315715     -0.26331835     -2.06810365
H      -2.47401348      0.18433271     -2.01834818
H      -3.10575199     -1.20060760     -2.33078014
O       2.48954369      3.57145698      3.85743681
H       3.08276120      2.80045375      4.02992967
H       3.08053874      4.33034305      3.90984405
O       0.51594298      0.70844877     -6.06187160
H      -0.22898497      0.26287272     -6.48381114
H       0.67996910      0.16374651     -5.26527690
O       2.29721695     -4.74215776     -1.94622394
H       2.61608503     -4.71919172     -1.02995636
H       2.77061505     -4.01534505     -2.38794819
O       4.11752076      1.61797570      4.84888671
H       4.15577034      0.65688029      4.66452545
H       3.65075234      1.70358346      5.69887755
O      -4.37623048     -0.21557568      0.47543973
H      -4.06053840     -0.21982356     -0.45876404
H      -5.33678780     -0.24498497      0.41017783
O       2.32454415     -1.86480353      6.28360951
H       1.80377619     -2.67290375      6.27216238
H       1.66587786     -1.13091045      6.20460068
O      -3.96046613      2.83880977     -2.07840125
H      -4.21042734      1.92262114     -2.24576340
H      -3.81173248      2.86303008     -1.10982014
O       3.15011216     -2.34166435     -3.38450722
H       2.34332551     -1.81478669     -3.56226889
H       3.78540706     -1.70090139     -3.05170785
