66
charge=0
F      -0.57128523      0.94243887      1.47816677
F      -0.03536968      1.32133862     -1.07088683
F       1.64562999     -1.75595789     -0.22696720
F      -0.23585597     -0.94547539     -1.70191253
S       0.29840556     -0.39401488      1.10364444
S       0.87219867     -0.06256087     -0.86449406
O      -3.01992577     -0.40986676     -0.13320858
H      -2.79220334     -0.91980411      0.66093690
H      -2.82778198     -1.00451144     -0.87382900
O       1.43370608     -0.31690633      4.15892964
H       1.66613801     -1.13478451      3.69142157
H       0.45895862     -0.31820398      4.22541229
O       3.34679219     -0.72914140     -2.78604907
H       3.55440655     -0.67977240     -1.84550397
H       2.76185698     -1.50517229     -2.87528046
O      -0.73328316      0.89590720     -4.18144056
H      -1.22114456      1.19825690     -3.40697232
H       0.20748792      1.14848056     -3.99268937
O      -0.45908614     -4.02205288     -0.98452102
H      -1.22688353     -3.57214945     -1.37757509
H       0.29816171     -3.55781698     -1.37250805
O       1.41938356     -2.84749709     -3.21589774
H       1.70770267     -3.59721260     -3.74596518
H       0.64903972     -2.47906165     -3.69437234
O       2.81753434      1.38860293      0.01593216
H       2.68440110      1.55979597      0.96911740
H       2.62712574      2.23740953     -0.42988627
O       2.11077174     -2.69256180      2.40945924
H       2.23676102     -2.38881377      1.49349848
H       2.85516779     -3.27457297      2.59311089
O      -2.89372557      2.44994389      0.34297858
H      -2.89385206      1.50775478      0.09399511
H      -2.05044394      2.79612893      0.01396676
O       0.11857969      3.85519400      2.41976391
H      -0.71266375      3.45392103      2.77030507
H       0.80211582      3.18049032      2.57328388
O      -0.37690201      4.13122727     -0.16660223
H      -0.79676329      4.99377750     -0.24986190
H      -0.16238855      4.04098464      0.81211887
O      -2.43052922     -1.95019132      2.33366750
H      -1.74046932     -2.64857790      2.12555609
H      -3.22735582     -2.44038429      2.56163692
O       2.28211897      1.89116187      2.78904891
H       1.97958627      1.08854065      3.28452758
H       2.97285084      2.27640475      3.33778232
O       1.83866831      1.53409623     -3.62357434
H       2.44062471      0.81481572     -3.34546894
H       1.92511924      2.24091153     -2.96185145
O      -2.59093213     -2.47749891     -2.28360615
H      -2.11016344     -2.22444942     -3.10014145
H      -3.42100349     -2.86324486     -2.57998246
O      -2.28451901      2.64994342      3.13029183
H      -2.06175922      1.75379407      3.42312301
H      -2.61429057      2.53463745      2.21322490
O      -0.60475877     -3.78499559      1.76749696
H       0.28480199     -3.55402721      2.07636468
H      -0.51724356     -3.87594004      0.78853576
O      -1.43243807     -0.14186050      4.17248339
H      -1.84895258     -0.80221902      3.57127799
H      -1.83555688     -0.29309272      5.03365061
O       1.92261269      3.58030166     -1.52582938
H       1.06606007      3.82362151     -1.09074133
H       2.40115255      4.40697680     -1.63920183
O      -0.92264755     -1.72441267     -4.41587540
H      -0.84495441     -0.72434901     -4.33745477
H      -1.13329176     -1.88811796     -5.34076871
