75
charge=0
N       0.91313586      2.43939844      1.78741673
N       1.40481780      1.37065826      2.39737258
N      -0.13996870      2.15919793      1.01030848
N      -1.30567183      0.08555517      0.52936609
S       1.68732226     -2.03989747      3.17491336
C      -0.34535099      0.83330983      1.12508003
C      -1.30699748     -1.17515694      0.82797608
C       0.71621624     -3.43227346      2.75960637
C       0.63365659      0.33103613      2.00406305
C      -0.33019387     -3.11952035      1.97841082
C       0.62782163     -1.03383679      2.27320801
N      -0.38387794     -1.75685525      1.68815895
H      -2.04939662     -1.85619562      0.42303801
H       1.02597730     -4.41118524      3.09450087
H      -1.07110101     -3.77703153      1.54021146
O      -1.37511269     -1.27153995     -2.92756013
H      -1.47532409     -1.22125902     -3.88391250
H      -2.06915681     -0.66399163     -2.55743482
O       1.76205163     -2.76302924     -0.22385666
H       2.70094764     -2.79474483      0.03243006
H       1.67760910     -2.08231767     -0.93332233
O      -3.15296458      0.35450457     -1.70538338
H      -3.20010745      1.22018005     -2.18804505
H      -2.61038376      0.54289229     -0.91581681
O      -3.51932888     -3.58110598      0.37009620
H      -3.01955095     -3.74615956     -0.47558686
H      -4.12636646     -4.32133202      0.46256580
O      -4.84953678     -1.03318210      0.17586167
H      -4.50787363     -0.62621391     -0.63869057
H      -4.47883203     -1.93544641      0.19136950
O      -0.63239490      3.72428105     -1.46044537
H      -1.31604005      4.38455991     -1.25755695
H      -0.55086299      3.20908983     -0.63393431
O       3.67044948     -4.23267635      3.21182556
H       4.00891411     -3.73861518      2.44120526
H       4.38440043     -4.19448463      3.85494222
O      -2.94345414      2.72990523     -2.99238140
H      -2.01550945      2.90676480     -2.75948381
H      -3.40185832      3.41990960     -2.48330656
O      -3.06305529      3.12317408      1.25569226
H      -3.45029046      2.25754123      1.50828197
H      -2.10688043      2.98555953      1.31426360
O       3.81573702      0.75247689      3.68376474
H       4.27065863      1.42483772      4.19912056
H       2.96917768      1.15919228      3.39186212
O       0.29045252     -4.97408453     -0.58482362
H       0.92468554     -4.21848648     -0.48310285
H       0.75666774     -5.62843775     -1.11343065
O       4.38874581     -2.69619226      0.88567900
H       5.16182591     -2.92641591      0.36097822
H       4.41211548     -1.70067888      0.96360891
O       2.17613042      4.99573801      1.34710652
H       2.99434214      5.06651155      1.84744151
H       1.75559610      4.16735175      1.65968815
O       1.34861310     -0.84223769     -2.09626201
H       0.41348837     -0.80471450     -2.36343264
H       1.59309741      0.02600700     -1.72920818
O      -3.34494119      4.68885994     -0.93059948
H      -3.37840845      4.11659326     -0.12527275
H      -3.82032369      5.49189968     -0.69979023
O      -1.95944615     -3.84318117     -1.76695094
H      -1.12102167     -4.24324190     -1.45031402
H      -1.71756520     -3.01270191     -2.21640329
O       4.42067737     -0.03852931      1.03807212
H       4.32158017      0.30082653      1.94865441
H       3.80224079      0.47571662      0.48572609
O       2.83946671      1.31404881     -0.98716590
H       3.50542219      1.23831262     -1.68049713
H       2.58526611      2.27908151     -1.02032411
O      -3.98114498      0.63811050      2.16883858
H      -4.30855769      0.01462449      1.47611878
H      -4.71996927      0.73575822      2.77727268
O       2.24415758      3.91633134     -1.27232314
H       2.32400175      4.40317834     -0.42799454
H       1.30649270      4.02131734     -1.51275883
