100
charge=0
O      -0.35250644     -3.75193938     -1.80830266
O      -2.01035969     -0.12982737      0.82805273
N       1.81542457     -2.96622227     -4.21219896
N       3.20011482     -1.32009143     -3.28171515
N       1.20456252     -0.99124989     -1.34739019
O      -1.18088082     -2.10676414     -3.10807893
O       0.13499868     -0.90693106     -0.48438602
O      -0.74806141      0.96571556      2.36761406
S       3.15633422     -2.97753182     -5.24484134
C      -0.24780191     -2.67883054     -2.38323037
C      -0.93788302      0.27335284      1.27043309
C       2.04427900     -2.05304430     -3.28960985
C       3.95845777     -1.68180689     -4.30102802
C       1.00717405     -1.84667699     -2.28505062
N       5.14625400     -1.18836096     -4.62140753
C       0.62467243      1.48067877     -0.18849889
C       1.55458692     -0.25714181      1.40224223
C      -1.10674408      2.38440446      4.21400740
C      -2.69031749      0.50207661      3.83212514
C      -2.64563044      2.50697683      2.24240319
C       0.38972461      0.13962546      0.51037834
C      -1.86063654      1.58554687      3.16530996
H      -2.04667558     -2.62579863     -3.01057660
H       5.51903954     -0.38531818     -4.11148076
H       5.60353136     -1.54531066     -5.46307369
H      -0.17787328      1.68463926     -0.90499189
H       1.58311567      1.44925453     -0.71120869
H       0.64833252      2.28863701      0.54675569
H       2.46130749     -0.32919654      0.79640677
H       1.70299200      0.50693389      2.16809449
H       1.35809235     -1.21367507      1.89356562
H      -1.82805433      2.89413739      4.85991850
H      -0.46608689      3.13403935      3.74510855
H      -0.49194195      1.72162205      4.82812016
H      -2.06161354     -0.09201770      4.50158030
H      -3.46968890      0.99100054      4.42565316
H      -3.16323037     -0.16308744      3.11162569
H      -3.27188709      1.95798400      1.53608590
H      -3.28946847      3.14552409      2.85270904
H      -1.95734233      3.15315418      1.68791933
O       4.12592699      0.35912934     -0.97374711
H       5.06022568      0.37005870     -1.22158708
H       3.73045553     -0.27983239     -1.59844534
O      -3.22238003      5.26101901      4.84876358
H      -3.73668460      6.06331350      4.72165728
H      -3.87062636      4.53500696      4.79193505
O      -4.82482793     -0.33845921      1.27246791
H      -3.87267578     -0.19763818      1.11050202
H      -5.16214385     -0.73236165      0.46126078
O      -0.67480319      5.86451402      3.54980249
H      -1.46422069      5.52989839      4.00871308
H       0.08656505      5.42621437      3.96838354
O       0.07366162      4.65042269      1.18288761
H      -0.32434204      5.15333835      1.93061460
H       0.37452530      5.32549811      0.56738985
O       3.48181253     -2.16321134     -8.60756018
H       3.37120004     -1.34193942     -9.09757114
H       2.86594637     -2.09476110     -7.86695756
O      -2.71140593     -2.76342183      0.09678730
H      -2.30360830     -1.87513107      0.14730181
H      -1.97435129     -3.36495550      0.31702103
O       2.34778451      1.57405497      4.50883442
H       3.19919818      1.21808473      4.23940186
H       1.76306768      0.79662231      4.58640526
O       5.88165151     -2.55623510     -7.01227478
H       5.93414712     -3.51335720     -6.84822012
H       5.18078564     -2.44985053     -7.67764528
O      -0.31983120     -4.20926135      0.89738900
H       0.00117657     -4.09246810     -0.01800716
H      -0.30203368     -5.15810203      1.05675959
O       6.05663812      1.19450709     -3.18261051
H       5.27915377      1.79665731     -3.16977972
H       6.80999688      1.74053708     -3.42549068
O      -3.44619319     -3.30379528     -2.51656880
H      -3.38058839     -4.25671675     -2.64550472
H      -3.28026079     -3.17243781     -1.55311946
O      -5.04774059      3.06815517      4.77999011
H      -5.44824933      2.62225716      4.00411277
H      -5.68970875      2.97183033      5.48892348
O      -3.62723391     -2.87235787      2.82892461
H      -3.52893321     -2.86145072      1.85972752
H      -4.27013733     -2.17130946      2.98704086
O       1.80199839      4.31664204      3.62194357
H       1.54302468      4.21599371      2.69357927
H       1.94528732      3.40822046      3.93764285
O       5.69759531     -5.31590727     -6.12402364
H       4.95534723     -5.19934322     -5.51811467
H       5.41020370     -6.00657998     -6.73015599
O      -0.79926701     -2.26642885      3.06589628
H      -1.76173356     -2.41205985      3.13579392
H      -0.49056854     -2.92406490      2.42588154
O      -6.18948464      1.83523602      2.53338410
H      -5.71215322      1.08645521      2.12613343
H      -6.26439784      2.48132983      1.82402138
O       3.65985125      2.50195954     -2.71987000
H       2.94379529      2.21098605     -3.29466557
H       3.63616697      1.86615448     -1.97168150
O       0.65819129     -0.69433163      4.86304323
H       0.18002059     -1.22986305      4.19770293
H       0.82617264     -1.29682082      5.59283716
