78
charge=0
Cl      4.10753902      1.16706403      0.43429992
Cl      2.95405985      1.18002374     -6.20117368
Cl      2.39105677      3.69953368     -4.42485365
Cl      2.91589863     -1.68213635     -4.90847005
Cl      1.79814892      3.33205411     -1.34329928
Cl      2.27319544     -1.98722032     -1.83788041
Cl      2.17560818      1.83798842      2.95626123
Cl      0.19937994     -0.05983980      1.92867023
Cl      2.87625292     -0.99409738      2.60157898
N       1.68727982      0.50050533     -0.46492713
C       2.42727854      0.66231182      0.53007946
C       2.63653949      0.99300692     -4.51172667
C       2.39075339      2.11895105     -3.71806295
C       2.61520278     -0.28614670     -3.94207621
C       2.13042246      1.96822713     -2.35535989
C       2.33364799     -0.43131549     -2.58306145
C       2.09730319      0.69266028     -1.78886339
C       1.91978774      0.38735902      1.95052142
O      -3.29755348     -0.62113655      0.38649384
H      -3.07013007     -1.28449273      1.07407723
H      -2.57594351     -0.70601420     -0.26185533
O      -3.90595687      3.61615981     -1.15047111
H      -3.48135493      3.31835496     -1.98088435
H      -4.81140358      3.83962347     -1.38621100
O      -0.75333680     -3.39780555     -0.42130117
H      -0.75780151     -4.01294092     -1.16122918
H      -0.77745952     -2.50268699     -0.82742507
O       1.21462537     -3.88346991      1.54484812
H       0.97634875     -4.76739149      1.84643686
H       0.56544576     -3.68217875      0.83919975
O      -3.55531534      2.01345601      3.73585672
H      -3.89841122      1.13812331      3.94311565
H      -3.52737653      2.04238011      2.75033979
O      -0.60969956      3.20371689      1.34135972
H      -1.40294886      2.64643122      1.20506215
H      -0.48315245      3.17232392      2.30086283
O      -2.39080433      2.99424190     -3.49236566
H      -1.74185239      3.75052222     -3.33687021
H      -2.83479161      3.21929582     -4.31723766
O      -0.93499310      2.39730057      4.35163834
H      -0.91225622      3.09226041      5.01742498
H      -1.89915028      2.24916693      4.17866094
O      -0.79979457      5.01332424     -2.95417732
H       0.14081013      4.82113743     -3.04244598
H      -0.94956050      5.14217737     -1.97960865
O      -2.42882913     -2.70505011      2.01223560
H      -1.75920855     -2.67006506      2.72892223
H      -1.98887194     -3.18183539      1.29478821
O       3.85127608     -4.24879291      0.29893947
H       2.98571316     -4.06025135      0.69942980
H       4.42469897     -3.49252522      0.53604740
O      -1.50859849      5.25036357     -0.35081220
H      -1.09886992      4.64200720      0.30111563
H      -2.41855111      4.92606148     -0.42477526
O       4.56800081     -4.34269500     -2.35625530
H       4.21315177     -4.37623701     -1.43621551
H       5.22895403     -5.04153321     -2.37736397
O      -0.32990683     -2.72158843      3.90138638
H       0.39936443     -2.85990809      3.27867795
H      -0.15626592     -1.85271276      4.30743081
O      -0.96322241     -0.76226907     -1.25698486
H      -0.94433660     -0.34143901     -2.14376477
H      -0.27596564     -0.29738120     -0.75300214
O      -3.11741134      1.94247324      1.04436944
H      -3.20629670      0.97838892      0.80169402
H      -3.54774869      2.44527461      0.33139500
O       5.51465492     -1.70158941     -2.28443494
H       6.35563385     -1.64274616     -2.74796023
H       5.20329342     -2.62190304     -2.44070945
O       5.65700147     -2.07453902      0.51932364
H       5.31498807     -1.29891614      0.97546109
H       5.65266943     -1.82680156     -0.42868012
O       0.13507632     -0.16315218      5.20495486
H      -0.21137409      0.69981821      4.90676612
H      -0.00463727     -0.17278513      6.15609392
O      -0.77432703      0.68427613     -3.61171965
H      -0.85503394      0.29964037     -4.48961214
H      -1.37014541      1.46302243     -3.60790273
