72
charge=0
O       0.47259989      0.99244356      2.24404082
O      -0.48181810     -0.75207938      4.10001526
Br     -0.60301500      1.72991178     -0.48722228
Br     -2.74558273     -2.74845196      3.93047515
Br     -3.02493834     -0.36870269     -1.30636831
Br     -4.03688011     -2.65573317      0.84680269
C      -0.50769183      0.32386509      1.97380247
C      -1.02956843     -0.68844739      3.01285684
C      -1.21442003      0.40098572      0.69647706
C      -2.15463232     -1.53333141      2.61734659
C      -2.22178490     -0.45586484      0.39597952
C      -2.68232052     -1.45370398      1.36738293
O      -0.46641788     -6.25974561     -1.44884004
H      -0.97501568     -6.90183898     -0.94526435
H      -1.12233493     -5.62510945     -1.78092931
O       2.70524511     -0.08820020      0.06235780
H       3.18403291      0.22555863      0.84918063
H       1.95130963     -0.58448771      0.44874875
O       0.86732276      3.61596213     -2.50740889
H       1.54365559      2.89430421     -2.36413571
H       1.22425505      4.14797060     -3.22677597
O       3.27385616      0.83006102      2.79819235
H       2.30887815      0.90826264      2.87526538
H       3.56199631      1.75134093      2.76178239
O      -1.77602757     -3.70356983     -2.01556926
H      -1.64300996     -3.14656105     -2.82934562
H      -2.53782089     -3.32044519     -1.56494531
O      -2.26866164      0.82946758      5.81580712
H      -1.69538823      0.07182455      5.62899067
H      -1.75384754      1.38042634      6.41436501
O       2.55653042     -2.15243169     -1.96907929
H       1.95662390     -2.78430425     -1.52204408
H       2.88184458     -1.56674037     -1.26352690
O       2.01021120      3.36332978      1.74734816
H       1.56147074      2.58121801      1.39297801
H       1.77904398      4.06163520      1.11315750
O       0.47292909      5.03514602     -0.07584719
H       0.58192807      4.61735531     -0.95472183
H       0.54272966      5.98173351     -0.23190075
O       2.53987641      1.55184270     -2.23950706
H       2.24043357      0.86666382     -2.85866861
H       2.55616332      1.09193747     -1.37446582
O      -2.45867068      1.65728634      3.10059154
H      -1.93396759      2.46850624      2.91822611
H      -2.44183438      1.52976073      4.06978912
O       0.62902423     -3.73997666     -0.64299433
H      -0.23321909     -3.56621802     -1.08378230
H       0.65268503     -4.71153324     -0.64379618
O      -2.91701492      0.13419828     -4.36562343
H      -3.32750794      0.33733584     -5.21172203
H      -2.16218280      0.75964915     -4.28985064
O      -0.85372291      3.90036573      2.53659153
H       0.08582335      3.67575027      2.64122119
H      -0.87781360      4.24415209      1.63264327
O      -1.26316339     -2.17094122     -4.17074759
H      -0.41269984     -1.71873473     -4.04168825
H      -1.90530716     -1.44346087     -4.29540038
O      -4.70931470      0.65738306      1.71094939
H      -5.13146349      1.32448697      1.16221105
H      -4.02438573      1.14045940      2.20794796
O       2.29810283     -1.82130565      3.72249806
H       1.59242209     -1.38208007      4.21768643
H       2.97741968     -1.13910373      3.62199660
O      -0.52540382      1.53201686     -4.21684158
H       0.09192947      0.82036816     -3.98167506
H      -0.32186566      2.24531045     -3.59190570
O       0.86748450     -1.80549652      1.31762421
H       0.77825090     -2.63027305      0.79828145
H       1.40402406     -2.00655129      2.11437914
O       1.34461316     -0.72805708     -3.82269568
H       1.83048761     -0.92585296     -4.63125114
H       1.77790262     -1.29671538     -3.11405871
