83
charge=0
Cl      5.08395529     -1.28444524     -0.69727008
Cl      4.10098756      1.29574873      1.76242895
C       0.40251543     -0.14944370      2.28549845
C       0.57179299     -0.51570621      1.00647857
C      -0.88598793      0.14058634      2.98066098
C      -0.49150159     -0.76283789     -0.00836652
C       4.06718120     -1.69818685      2.55625319
C       1.64820294     -0.03503605      3.13873068
C       1.98479813     -0.73651250      0.51044765
P       2.99691554     -0.37602175      1.96410251
H      -0.80552374      1.08439720      3.53087414
H      -1.11593422     -0.65515420      3.70067001
H      -1.71930702      0.22868193      2.28218188
H      -0.49038769     -1.82522471     -0.28731637
H      -0.29127159     -0.19478520     -0.92352474
H      -1.48878057     -0.50402005      0.34995492
H       4.86276403     -1.86642364      1.82420119
H       3.44911938     -2.59891773      2.65243266
H       4.47459127     -1.42024460      3.53299495
H       1.74613596      0.96868222      3.57254024
H       1.65725575     -0.77844368      3.94962531
H       2.24960663     -0.05318818     -0.30758364
H       2.18309525     -1.76314986      0.17323503
O      -1.66378600      3.38209914      1.59390570
H      -0.82514058      3.11820645      2.02367903
H      -1.72243210      2.88808952      0.73730365
O       1.13105572     -4.22069861      1.28373666
H       2.06430714     -4.10259054      1.01397667
H       0.70385395     -4.34439536      0.41842471
O      -0.02504558      1.83838543     -2.75616462
H      -0.15499896      2.40030792     -3.52647972
H       0.10050737      0.91278397     -3.11256028
O      -0.45065172     -3.16742323      3.18102735
H      -0.51428897     -3.91714763      3.78167784
H       0.17965781     -3.47670019      2.48253382
O       3.15934921     -0.97352282     -3.34388449
H       3.56675180     -0.10165549     -3.44666022
H       3.63430822     -1.32255082     -2.56735358
O       0.74966694     -4.49388909     -1.53749872
H       0.09262512     -3.96413634     -2.03958015
H       0.65395672     -5.39175979     -1.86981426
O      -2.83979789     -2.66679894      1.85111054
H      -3.42774061     -3.35924719      2.17079772
H      -1.98719087     -2.82186068      2.32392165
O      -3.82198310      2.22503454      2.91092024
H      -3.05987990      2.68231520      2.48539598
H      -3.68717772      2.33692647      3.85602294
O      -0.40506977      5.63289661      0.36293383
H      -0.98861252      4.97977399      0.79818381
H      -0.63197953      6.47801416      0.76059702
O      -4.05193324      0.11870976     -0.88020609
H      -4.25966470      0.04994549      0.09560685
H      -4.87316888      0.39692864     -1.29864919
O      -2.09668409      2.25708165     -0.82574942
H      -2.72289750      1.51703700     -0.90654135
H      -1.39339756      2.08509792     -1.47810059
O       2.02789339      4.18604812      0.86696444
H       1.31732723      4.78739964      0.57619033
H       2.11062128      3.51973802      0.15045177
O       0.84060966      3.08681130      2.98572911
H       0.84009153      3.80066943      3.63150409
H       1.35676898      3.46163311      2.21415965
O      -3.17857753     -2.56469362     -1.08141128
H      -2.95817523     -2.68220360     -0.14087482
H      -3.51791159     -1.64735903     -1.12631357
O      -4.43309350     -0.20761250      1.72732321
H      -3.83174862     -0.92181098      1.99404893
H      -4.18241710      0.59360622      2.23710760
O       4.62897374      1.39747458     -2.28818625
H       4.90559294      0.64104147     -1.72270436
H       5.42984057      1.91027855     -2.43310070
O       0.43013497     -0.61791546     -3.63834890
H       1.37593140     -0.84021493     -3.48827312
H      -0.08883928     -1.36032027     -3.28642623
O      -1.16049014     -2.90731044     -2.78772591
H      -1.57259825     -3.23129135     -3.59538001
H      -1.91372968     -2.76699417     -2.14528290
O       3.44660437     -3.98501774     -0.21967695
H       4.05474314     -3.24171825     -0.41193671
H       2.87978403     -4.04933624     -1.00136565
O       2.20081715      2.15510171     -1.02137491
H       1.49005305      2.13076545     -1.68927730
H       3.03699900      2.03671454     -1.50874291
