87
charge=0
Cl      0.02467599     -3.35633625      5.14815472
Cl      0.36903547     -0.28414988      4.34710463
Br     -3.74366283      2.92685801     -4.79744769
N      -3.64814792      0.34086688     -1.58291285
O      -2.07018732     -0.83972352     -0.49614604
C       0.00537402      0.17106010     -2.08773230
C       0.28366318     -0.78191466     -1.19329818
C      -4.04462001      1.19262153     -2.54290527
C      -2.37200099     -0.00689668     -1.51530932
C      -0.45570268     -3.78400662      2.52145790
C      -1.78541964      1.39847910     -3.35642923
C      -0.64761915     -3.37890557      1.20630005
C      -0.21469049     -1.09229378      1.82395737
C      -0.16484373     -2.83725389      3.49694370
C      -0.03628289     -1.49264314      3.13976951
C      -3.13588279      1.71795352     -3.44517935
C      -1.37604178      0.51386920     -2.36388523
C      -0.53927037     -2.03683174      0.85112176
C      -0.81300429     -1.58938090     -0.56207686
H       0.79856730      0.69806651     -2.61142166
H       1.30658947     -1.06360072     -0.96566518
H      -5.10162470      1.44882047     -2.54923792
H      -0.50290496     -4.83423362      2.79485245
H      -1.05019059      1.84201451     -4.02117955
H      -0.87598083     -4.12444423      0.45021487
H      -0.09794227     -0.04772705      1.55395625
H      -0.99111328     -2.48292157     -1.18203612
O       2.73463609      1.40458949     -0.38679382
H       1.78598638      1.24608540     -0.26189829
H       2.99135134      1.87281629      0.42256122
O       2.77325279     -3.02845889      0.65183365
H       2.20834298     -3.28287525     -0.10900655
H       2.22775519     -2.47484907      1.22886209
O       3.10480020      1.25098298     -3.27683330
H       2.49758598      1.92055889     -3.62821794
H       3.17546209      1.47950008     -2.33727178
O      -0.10178710      4.21187035     -1.30306894
H      -1.05681120      4.31187274     -1.08730550
H       0.29985619      5.05160326     -1.05473266
O       3.17907258     -0.65788400      2.46238434
H       2.91476597      0.27119364      2.56760140
H       3.92454813     -0.64298427      1.84193969
O      -2.71355784      4.26476878     -0.33500297
H      -3.01324093      5.06359599      0.11373679
H      -2.75573763      3.55246640      0.35225228
O       0.81370755     -6.62055340      2.86520401
H       1.62139393     -6.06688270      2.92217053
H       1.04617078     -7.43227769      3.32335348
O      -5.25762382      4.35688165     -1.76584025
H      -5.23863003      4.25302328     -2.72429489
H      -4.34640186      4.17277686     -1.48660964
O      -2.63491558      2.19591043      1.42967255
H      -2.55535702      2.29063591      2.39992269
H      -3.34881518      1.52692034      1.28908173
O       0.11986683      2.26901000      0.83536605
H       0.15358626      2.92843998      0.11870369
H      -0.83439388      2.11569090      0.98669743
O       4.48401173     -0.96178341     -0.26858985
H       3.84076565     -0.23721109     -0.35216218
H       3.94880047     -1.73587952      0.00046499
O       2.40035558      2.17767937      2.38201520
H       2.52914240      2.80209468      3.10189642
H       1.48412922      2.30849734      2.06034786
O      -2.05757552      2.21048306      4.17773509
H      -2.74177668      2.09566845      4.84553573
H      -1.47515582      1.44587421      4.28770039
O       1.51637662     -3.49407218     -1.81814488
H       2.07737724     -2.84868627     -2.30974325
H       1.74267410     -4.35258282     -2.19001079
O      -6.78740408      1.97664934     -0.88477512
H      -6.37900708      1.63822743     -0.07860404
H      -6.37686380      2.84493301     -1.02477854
O      -4.74080506      0.49603493      0.93487897
H      -4.77938554     -0.34828573      1.39665356
H      -4.48355936      0.26555076      0.00311317
O       3.27008603     -1.64143042     -2.90454542
H       3.08282785     -0.74439556     -3.23324555
H       3.94812357     -1.49514719     -2.22332649
O       0.95606790      3.20521424     -3.82585351
H       0.57639418      3.58173083     -3.01224010
H       1.01098002      3.94011456     -4.44403863
O       3.39496875     -2.61448311      4.53577695
H       2.62367419     -2.49796127      5.10047459
H       3.34884759     -1.87556760      3.90094830
O       3.07384526     -4.96997367      2.87332374
H       3.08730916     -4.49718957      2.02690432
H       3.19760788     -4.25801476      3.52806962
