90
charge=0
N       2.06223517     -0.59638549      4.76108892
N      -0.00119893      3.12939860     -3.91052831
S      -1.60950224     -0.80092650      4.34437291
C       1.37544494     -0.72264293      3.83432957
C      -0.25410451      2.58129108     -2.92079004
O       0.50671830     -1.96168975      0.55993239
C      -0.85012598     -0.63124606      2.82638361
C       0.56698693     -0.91302846      2.69027640
C       1.19223747     -1.40218835      1.53717865
C       0.30829967      1.91791007     -0.62791891
C      -1.76427809      1.15832417     -1.63837301
C       0.00539090      1.22063162      0.52657109
C      -2.05383542      0.44433872     -0.48949043
C      -0.57075243      1.88834462     -1.72133592
C      -1.17029920      0.46642129      0.59911781
N      -1.57679487     -0.20349038      1.76793503
C       3.35757424     -2.60051401      0.87436462
C       3.21618123     -1.45456912     -0.04719112
C       2.62992818     -1.33936307      1.35693924
H      -0.34569822     -2.45605364      0.89400680
H       1.22543696      2.49048184     -0.69173151
H      -2.44957772      1.13399249     -2.47816747
H       0.68209837      1.27950422      1.37045950
H      -2.97539584     -0.12568764     -0.43091946
H      -2.59710763     -0.23533318      1.89208001
H       4.31682467     -2.78610964      1.34546560
H       2.73145411     -3.47006392      0.70362021
H       4.07547793     -0.81837943     -0.22169561
H       2.52177368     -1.55375282     -0.87323053
H       3.16259016     -0.69884333      2.04980146
O       2.20252394     -0.31112516     -3.89737807
H       1.52653218     -0.82904760     -3.43360260
H       2.28838772      0.54045577     -3.40049716
O      -0.53079438     -3.87838559      3.92473446
H      -0.70782958     -3.02898775      4.37049182
H      -0.82883324     -4.55377595      4.54210090
O      -1.49699349      2.69929474      3.49046654
H      -1.42412187      1.85671563      3.95773670
H      -2.24977601      2.59263473      2.87600444
O       5.03719825      1.26072325      0.96773628
H       4.21864387      1.61726304      1.38550085
H       5.74964530      1.78239913      1.34937807
O       3.63006147      1.80709994      5.09855823
H       4.55245058      1.57989579      5.25100210
H       3.14851857      0.96992856      5.23387431
O       2.81431869      2.01855557      2.37974204
H       2.18491185      2.76597737      2.32303492
H       3.10246763      2.00174470      3.31391951
O      -1.34910196     -0.48185521     -4.63215629
H      -0.78429516     -0.63757874     -3.85905133
H      -0.80100868      0.06789341     -5.23713842
O       2.73208725      2.06255674     -2.65153290
H       2.70304751      2.81063690     -3.25698917
H       3.68178368      1.95109772     -2.37396645
O      -3.61585453      2.57475236      1.57879170
H      -3.21216814      2.82846422      0.74147355
H      -4.01757154      1.70754946      1.40112898
O       4.80348462     -1.11246429     -3.07716684
H       5.34837062     -1.34992348     -3.83332430
H       3.91542898     -0.94000872     -3.45176853
O       5.21308724      1.45237867     -1.85679817
H       5.24306764      0.54088097     -2.20438733
H       5.17154977      1.36745225     -0.88338695
O      -3.76620952     -0.73936780     -3.63067413
H      -2.93940262     -0.54290474     -4.15013849
H      -4.46731522     -0.85490995     -4.27901073
O       0.72720923      3.89828924      2.28199110
H      -0.03744258      3.45947514      2.71391193
H       0.84353724      4.71663646      2.77423542
O       0.57140064      0.94120468     -6.02190881
H       0.49703141      1.82954685     -5.64368585
H       1.26816989      0.51998185     -5.48664095
O      -1.36287203     -3.44606072      1.34130769
H      -1.20273267     -3.67441227      2.28557189
H      -2.29523907     -3.17778384      1.24747657
O       0.01049441     -1.65445660     -2.33351438
H      -0.82293633     -2.15034934     -2.26837304
H       0.20900804     -1.42603646     -1.41395098
O      -3.97267857     -2.74256957      0.39240705
H      -3.62318756     -2.75258302     -0.52974356
H      -4.60452105     -3.46833136      0.42932544
O      -2.79964113     -2.72436077     -2.12125661
H      -3.22873916     -2.04492786     -2.71280183
H      -2.83580581     -3.55067311     -2.61562712
O      -4.49524814     -0.16351928      1.64705588
H      -4.60928708     -1.03768335      1.24176531
H      -4.82456862     -0.21249115      2.57093220
O      -4.85884949     -0.00164193      4.36445118
H      -4.97223465      0.92160211      4.61663510
H      -3.90183016     -0.16805557      4.46828829
