85
charge=0
F       2.98266509     -0.73686179     -3.30037415
F       0.80803087     -0.80045184     -3.38587566
F       1.79477705      0.45985028     -1.92785766
F       3.33290372     -3.37539388     -2.69998804
F       1.24733085     -3.39182112     -3.31988132
F       1.82564428     -4.28648294     -1.42955917
F       2.10894062      0.74402782      0.73480161
F       2.00181723     -0.16530630      2.69787424
F       3.90464245     -0.08943134      1.64927002
F       2.23827592     -3.96781362      1.23191259
F       4.06201186     -2.90299128      1.74769307
F       2.28495261     -2.69098003      2.98257922
N       0.58182707     -1.90359213     -0.83168828
C       0.78853931     -1.72461431      0.44160994
N      -0.15320919     -1.64658545      1.37188281
N       2.89597796     -1.75135457     -0.50018056
C       1.86699918     -0.72618761     -2.54419876
C       2.07182247     -3.25887623     -2.25656059
C       2.58641632     -0.25984116      1.47869057
C       2.73062892     -2.80709120      1.70583023
C       1.85708281     -1.89665643     -1.50779127
C       2.27941369     -1.62000126      0.79327228
H      -1.15097941     -1.62781139      1.11445351
H       0.09271458     -1.42395997      2.32375888
H       3.67103906     -1.10243985     -0.71426590
O       4.93644585      0.18857020     -1.03244770
H       5.20752684      0.34044133     -1.94248564
H       4.71333757      1.08369017     -0.68100186
O      -1.12326151     -4.89539337      1.46543685
H      -0.36474326     -4.80841801      0.87742007
H      -0.85845373     -4.46156631      2.30160075
O      -0.73910869      2.11254178     -0.33200044
H       0.19169486      2.29405371     -0.57049062
H      -1.01364051      1.30627731     -0.80957740
O       2.91906046      2.84368166      2.95906732
H       3.52293395      3.22543492      3.60423369
H       2.28987939      2.31170343      3.48206014
O      -2.91800661      0.28027159      3.05075208
H      -2.27181414     -0.25307861      3.53725724
H      -3.11231589     -0.24855609      2.25724832
O      -0.22604628      1.97348587     -4.68628033
H       0.63586331      1.54849800     -4.64102533
H      -0.86245548      1.24226599     -4.59510817
O      -0.38201109     -3.82911287      3.99340945
H      -0.25929648     -2.87431976      4.11499913
H       0.47160803     -4.21161353      4.22309468
O      -2.91202392     -1.37801840      0.68084126
H      -3.30776956     -2.25308356      0.50897840
H      -2.78027533     -0.95414348     -0.19150118
O      -3.36981069     -4.09539984      0.18410674
H      -2.62260019     -4.45581615      0.72278948
H      -4.09334246     -4.72366975      0.26578590
O      -0.33241122      4.06636165     -2.72243484
H      -0.92312546      3.68857998     -2.05660793
H      -0.32837917      3.39630360     -3.43210989
O       4.26556399      2.68628529     -0.02435680
H       3.44144851      2.99633716     -0.45067886
H       4.01158005      2.60402307      0.90453351
O       0.92926283      4.56793745      1.66729251
H       1.60824745      4.08047361      2.16507056
H       0.09584062      4.15277400      1.92770295
O      -1.53534883     -3.72568304     -2.02366982
H      -2.28526533     -3.86331928     -1.42000006
H      -0.91428504     -3.15328501     -1.54238146
O      -0.52056684     -0.90436437      4.50771723
H      -0.03122251     -0.04795013      4.50824239
H      -0.81904922     -1.01753832      5.41688212
O       1.67648988      3.48910567     -0.83520032
H       1.20668900      3.86407037     -1.60846856
H       1.39932166      4.03366802     -0.06872214
O      -1.76202097     -0.21677671     -1.56154494
H      -2.02310348     -0.11084727     -2.50156761
H      -1.01255067     -0.83915636     -1.57441170
O      -1.05860605      2.26037829      2.35051860
H      -0.90553832      2.12856015      1.38116301
H      -1.84074194      1.70361380      2.55547252
O      -1.74433762     -2.72056125     -4.57447928
H      -0.90529192     -2.97685200     -4.97060279
H      -1.72009402     -3.11120489     -3.66943687
O       0.59436235      1.66251756      4.28623564
H       0.01081817      1.89645317      3.49449687
H       0.31027234      2.27434634      4.97474975
O      -2.21136623     -0.10036384     -4.30541025
H      -3.06414953      0.09138791     -4.70841130
H      -2.03240136     -1.06167512     -4.49250525
