89
charge=0
N      -4.46696176      2.20794597      0.14972547
O       3.54132340      3.61796786     -2.73379015
O      -2.18802966      1.52856123      2.51714429
N       3.73112527      2.90612874     -1.72377724
N      -3.50573394      1.64352504      0.13033731
O       1.01838319     -2.63381030     -0.36111709
C      -1.72994634      0.89342207      1.51475124
C      -2.35625675      0.97007462      0.20355554
C      -1.86117877      0.31187501     -0.94753328
C      -0.75498041     -0.47120294     -0.81492672
C      -0.60638006      0.02406444      1.56295079
C      -0.14315152     -0.64034324      0.45298437
N       3.86527975      1.63921826     -1.95667442
C       1.03762439     -1.57348175      0.61116433
C       3.86209810      0.71470818     -0.82641945
C       2.38141805     -0.84628546      0.51438180
C       2.50873998      0.01200944     -0.73720101
H       0.10923290     -3.03433424     -0.31980473
H      -2.37389406      0.43248475     -1.89411086
H      -0.36430734     -0.99419280     -1.67716151
H      -0.13390299     -0.12286836      2.53024030
H       3.67584652      1.27067206     -2.90505334
H       0.95926877     -2.01730547      1.61426952
H       4.04972682      1.30321252      0.07668175
H       4.67796356     -0.00708009     -0.96038211
H       3.17647754     -1.60368801      0.55518814
H       2.49077650     -0.21484982      1.40188275
H       1.72787636      0.78012300     -0.73724794
H       2.36359186     -0.59747198     -1.63452110
O       1.56336809      5.30187420     -1.69576600
H       2.38303947      4.93551611     -2.08071440
H       1.83343823      6.09287313     -1.22079077
O      -4.62608505     -1.00099896     -0.95890944
H      -4.10741022     -1.48646422     -1.61724382
H      -4.36585792     -1.42803349     -0.12674330
O      -0.88519947     -1.05688104     -4.13025378
H      -0.69862122     -0.12661988     -3.91349067
H      -0.05261986     -1.52237575     -3.94071724
O       1.75619454      3.03178322     -5.00405741
H       2.47416498      3.26219153     -4.39040368
H       2.09106604      2.24582572     -5.45422408
O      -0.59352623     -2.56286199      4.03486285
H      -0.63682136     -3.34916401      3.45259424
H       0.35080428     -2.33473099      4.05976577
O      -3.50274186     -2.44048423      1.36974951
H      -4.07847088     -3.15927131      1.65239059
H      -3.29623619     -1.94438829      2.20853650
O       2.39498248     -4.24558423      1.86324604
H       2.23485140     -3.86258374      0.98863054
H       2.49335324     -3.47603913      2.44799612
O       2.26689033     -1.93471414      3.82538600
H       2.23065256     -0.94390624      3.78652200
H       2.76674723     -2.13007504      4.62470061
O       2.52336251      0.21132899     -4.15236881
H       2.46625486     -0.74539607     -4.01558649
H       1.69842528      0.55138100     -3.75234549
O       1.50652738     -2.45954916     -3.13419208
H       1.66699977     -3.36053370     -3.43251323
H       1.40142556     -2.52509059     -2.15901121
O       1.97364100      0.76230809      3.87353365
H       2.00022810      1.34909373      3.09668250
H       1.11346534      0.95654346      4.29883432
O       0.15041889      1.55146915     -3.23110351
H       0.48506382      2.25655295     -3.82412511
H       0.09331013      1.95195336     -2.34484329
O      -2.71938893     -2.57681234     -2.72961625
H      -2.11315378     -1.99025380     -3.24060798
H      -3.15625370     -3.12174159     -3.39201685
O      -0.62697403      1.25384674      4.86763693
H      -1.20209481      1.39934522      4.08786366
H      -1.05352163      0.54483756      5.36113887
O      -1.82257197      3.95283485      1.14465552
H      -1.73451851      4.80554119      1.57992893
H      -1.98062082      3.30726573      1.85983880
O      -2.92290338     -1.16645511      3.67269924
H      -2.79326003     -0.22569675      3.48477264
H      -2.02684486     -1.54098545      3.84308474
O      -1.53539806     -3.58675268     -0.28491142
H      -2.13071277     -3.11986174      0.34156064
H      -1.91888994     -3.38302386     -1.15915393
O       0.29885388      3.04977026     -0.59639878
H       0.69852172      3.87793438     -0.94070486
H      -0.47798571      3.34907999     -0.08447951
O       2.10816109      2.42070990      1.51527235
H       1.45119877      2.58158682      0.80541596
H       2.64218244      3.22085123      1.53186803
O      -0.41124263     -4.79498700      2.29030104
H       0.55583905     -4.78360979      2.15633916
H      -0.78403920     -4.73616828      1.40082323
