84
charge=0
O       3.07243843      0.51698023     -0.54377993
O       2.36502683      2.13226498      1.27302811
F      -2.47557857      1.99494606      0.38998658
F      -1.88965954      0.23616674      1.51494791
Cl      3.13859552     -0.53291504      2.16223080
C      -1.96927575      1.95006948     -2.36915591
C      -0.90418573      2.68665489     -1.79540206
C      -0.69652337     -1.85167716      0.07456286
C      -2.38191939      0.66756269     -2.03662425
C      -0.02595403      2.27759047     -0.80138649
C       0.37211629     -1.13573960      0.66773405
C      -1.70136200     -1.35368060     -0.73364015
C      -2.01694443      0.01434231     -0.84652484
C      -0.26651382      1.19398241      0.06091260
C       0.63999614      0.21590570      0.54697725
C      -1.69682584      0.87129989      0.32481030
S       2.35520884      0.76981522      0.72654212
H      -2.34129812      2.34447892     -3.31078077
H      -0.60543531      3.58035871     -2.33751768
H      -0.58534302     -2.93218950      0.11659808
H      -2.88224140      0.07940947     -2.80472786
H       0.94762799      2.76083126     -0.77258091
H       1.12536686     -1.76162803      1.14227097
H      -2.19864174     -2.04301633     -1.41355477
O      -3.55213504     -0.89812562      3.88652296
H      -3.78536451     -0.13702427      3.33588331
H      -2.59322150     -0.81984078      4.05041019
O       1.22111790      5.16794925     -2.57253738
H       1.65974251      5.89323794     -2.11827628
H       1.83816400      4.41668305     -2.52067429
O       2.55610569      2.71335014     -3.20817864
H       2.28341971      3.08436548     -4.08161952
H       1.94903522      1.96007054     -3.09425653
O      -5.22979944      0.68465995      2.03512413
H      -6.01617077      0.90398896      2.54484336
H      -5.25088013      1.26928633      1.24861894
O       3.56973076     -0.85364037     -4.29938542
H       4.06212967     -1.14167810     -5.07349439
H       4.13123820     -0.16229891     -3.85165777
O      -5.31016513      1.57373632     -0.62117746
H      -5.22092448      0.62992349     -0.82864627
H      -4.45803446      1.94763120     -0.87877315
O      -1.09968759     -3.80822212      2.90517259
H      -1.31430667     -4.45628510      3.58386459
H      -1.97396873     -3.57448276      2.49358333
O       1.01306984      0.27266394     -3.73520487
H       0.84366709     -0.37412771     -3.03383046
H       1.81750246     -0.08117434     -4.16239689
O       1.30405415      3.97340212     -5.32420136
H       0.53017918      3.38398442     -5.40520372
H       1.02311888      4.67789103     -4.72179850
O       4.82536098      1.11227733     -2.97760378
H       4.14194846      1.81053864     -3.07889322
H       4.81231741      0.92541084     -2.03073310
O       1.65885160     -0.58547859      5.51536639
H       1.78847089     -0.29261833      6.42234298
H       1.52527813      0.23328126      4.99183887
O       3.51388208     -2.47929960      4.08238473
H       2.92045906     -3.01014956      3.52336244
H       2.91902486     -1.95088609      4.63636672
O      -0.66774496      1.88098278     -5.36432757
H      -0.72439577      1.45959814     -6.22761057
H      -0.18535326      1.24159578     -4.80475736
O      -5.02031553     -1.33261882      0.06049230
H      -5.76258677     -1.94494453      0.01259315
H      -5.17664868     -0.82174484      0.88103640
O       0.62557560      1.42687859      3.87117249
H       0.05808504      0.75095122      3.46555796
H       1.09137276      1.85518730      3.14183924
O      -0.70805470     -1.17186119      4.00186695
H      -0.05487118     -1.20290067      4.72098949
H      -0.71320976     -2.06855073      3.61748324
O       2.18727630     -1.88336403     -2.03550602
H       2.55255045     -1.20364681     -1.44648948
H       2.76514226     -1.83737661     -2.81849275
O      -3.53758867     -3.01516024      2.11074251
H      -3.69446415     -2.58713098      1.25694631
H      -3.62556993     -2.27712346      2.76249461
O       1.68512412     -3.79601400      2.19478804
H       0.73655298     -3.91665569      2.36193142
H       1.80811181     -4.04877086      1.26303095
O       1.69933188     -4.29331407     -0.63820097
H       2.30741038     -4.96693730     -0.95671934
H       1.91648995     -3.49164727     -1.15434043
