100
charge=0
Br      4.72463720     -0.18156881      4.63515649
Br      6.31371462      3.84502122      0.73201294
N       3.67187970      2.29648653      0.08280635
N       0.67896448     -2.20050022      3.29855895
N       2.04569708      0.65742024      0.58701025
O       0.22095792     -1.25406326      1.31441671
C       2.58816801      1.63533271     -0.15734076
C       1.02182463     -1.39660248      2.37173759
C       2.66507247      0.30996837      1.70222013
C       5.76806803      1.89528034      2.87691342
C       4.77921271      0.94342368      3.12523775
C       5.43974689      2.50111979      1.67851888
C       3.85982723      0.98061959      2.08287582
N       2.17126815     -0.66023120      2.49613164
N       4.30402467      1.96204335      1.20830016
N      -3.30865180     -1.31292774      1.11156213
C      -3.72656380     -2.69397860      1.31284717
C      -2.99936441     -1.09223216     -0.29967716
C      -2.64708075     -3.67893858      0.81644113
C      -1.79073468     -1.93915456     -0.73540080
C      -0.53816631     -2.84073789      2.85572931
C      -2.13068381     -1.03123674      1.91545906
C      -1.40835661     -2.86879266      0.41964189
C      -0.98025459     -2.01838899      1.61771488
H       2.05976101      1.89827054     -1.06160617
H       6.62274254      2.11229245      3.48484011
H       2.69980192     -0.89861099      3.32700438
H      -4.66788825     -2.83966727      0.77889046
H      -3.92137080     -2.83123355      2.37971916
H      -3.88924893     -1.34172814     -0.87860338
H      -2.79661153     -0.03014427     -0.43420825
H      -2.99404104     -4.22287843     -0.06171092
H      -2.40687550     -4.40951048      1.58878171
H      -2.02688789     -2.53628821     -1.61351245
H      -0.94799597     -1.29737449     -0.97170699
H      -0.30862959     -3.87925122      2.59817518
H      -1.27806712     -2.83909958      3.65775679
H      -1.79816405     -0.01756367      1.68134054
H      -2.41209214     -1.07724251      2.97066281
H      -0.58915975     -3.52755643      0.12506505
O      -2.24957129      2.65880782     -1.20742911
H      -1.61622157      2.21171065     -0.61527339
H      -2.99777551      2.87571950     -0.63032993
O      -0.67915189     -0.64365039     -3.84538631
H      -1.44383620     -0.09152789     -3.58380544
H      -0.08087940     -0.64654762     -3.08382536
O      -4.67435460      0.88505754      2.13280162
H      -4.09361943      0.99966941      2.89968527
H      -4.35037085      0.08019759      1.68078995
O      -2.79425068      0.93260280     -3.16864343
H      -3.05498074      1.47726295     -3.91197682
H      -2.58749339      1.55970807     -2.43630417
O       6.37885635      0.10725638      0.13466531
H       5.70723854     -0.54021434      0.45579168
H       7.14945125     -0.40836296     -0.10960979
O       0.04229562      3.71638255      2.16762934
H       0.21964793      4.53471536      1.70259916
H      -0.91178413      3.77240851      2.47851329
O       1.15068882     -0.79328077     -1.70616019
H       1.26996616     -0.46202870     -0.80472327
H       2.00468937     -0.67106818     -2.15767096
O      -4.14975663      3.09131053      0.79436463
H      -4.37785693      2.22638354      1.22922723
H      -4.97604713      3.56425086      0.69309564
O      -0.68800862      1.51766991      0.68365715
H      -0.36643106      2.28308801      1.18769558
H       0.05818972      0.91375377      0.58186882
O      -1.68834110     -3.08667527     -3.90553879
H      -2.16805954     -3.16570791     -4.73009749
H      -1.30895370     -2.16896488     -3.89437319
O      -2.45386075      3.72988146      2.86325899
H      -2.58746740      2.91194017      3.37540237
H      -2.99987541      3.61618111      2.06179488
O       1.47385789     -3.47181925     -1.09888203
H       1.14150046     -4.01828961     -1.83698115
H       1.17536354     -2.56683176     -1.29950644
O      -0.37465784      0.33106237      4.69499793
H       0.32243775      0.91279672      4.33445306
H      -0.07477896     -0.57243819      4.55105706
O       0.46863099     -4.61927274     -3.35449262
H       1.01877820     -4.41509065     -4.11222416
H      -0.37252444     -4.13382399     -3.49086563
O      -2.81350022      1.35679288      4.23972564
H      -1.92441112      0.95304514      4.35216748
H      -3.15713037      1.49036758      5.12443267
O       5.37453421      1.28931742     -2.08691264
H       5.80523183      0.89118541     -1.30083848
H       5.03034249      2.13846813     -1.79531741
O       4.03581838     -2.79173204     -1.30892556
H       3.93936731     -2.06042859     -1.93891994
H       3.12917807     -3.17145609     -1.20413131
O       4.56648923     -1.66579505      0.96589579
H       4.87251825     -2.37330009      1.53586894
H       4.34123885     -2.11233392      0.09412155
O       1.51830017      2.06847416      3.72586149
H       1.77241516      2.57822277      4.49791017
H       1.00412325      2.67711751      3.15813723
O       3.60654437     -0.51248008     -2.88962284
H       3.64173225     -0.52689451     -3.84702574
H       4.25948128      0.17058754     -2.59854449
