96
charge=0
F       2.53571545      1.26955031      6.31649330
F       3.27593488     -0.72466988      6.02794155
F       4.33999935      0.93789531      5.20010160
F      -3.55669956      1.17031729      2.96452567
F      -2.48772505      2.91345518      3.62795980
F      -1.32066135     -0.18383028      0.65269211
F       0.17391124      1.34766666      0.57655244
F      -2.61794333      4.07979362      1.25895314
F      -4.54492634      3.34646294      1.86349811
F      -1.84334217      1.13956539     -1.39350171
F      -1.31636726      3.04194824     -0.56941524
F      -4.07671460      2.76813026     -0.81788905
F      -3.98909020      0.95139004      0.36674090
F       0.15233537      3.28151011      3.29183472
F       0.25766191      2.21860900      5.15475499
F      -0.86778550     -1.33933971      3.13953185
F       0.76943449     -0.51203011      2.01269285
F       2.11148418      1.71751599      2.22449960
F       2.65890820      2.70004871      4.05421731
F       1.46670636     -1.87793605      4.31541107
F       0.48791378     -0.37758120      5.50756622
F      -1.48662037      0.78231963      4.34266224
F       3.12084471     -0.29284061      3.22839916
N      -1.41976663      1.52190141      2.18169506
C       3.13228303      0.46020474      5.44918966
C      -2.67286185      2.11259067      2.57137939
C      -1.12340996      1.13238646      0.83475786
C      -3.34000144      2.95798831      1.44694062
C      -1.92619594      1.87880527     -0.28631851
C      -3.39742599      2.13086903      0.13442512
C       0.40638463      2.08335343      3.82470880
C       0.06399145     -0.38161176      3.13914963
C       1.89958682      1.71716210      3.54174264
C       1.07048269     -0.60019712      4.31919075
C      -0.63460428      1.00948930      3.31051115
C       2.31028897      0.32631976      4.12592960
O      -6.56114436     -0.20774535     -0.93341841
H      -6.38278083     -0.95761498     -0.34463631
H      -6.59667756      0.56949983     -0.34467543
O      -6.59001430      1.73711049      0.99322141
H      -7.40010281      2.23352407      1.11614293
H      -6.56060045      1.07530867      1.71966787
O       3.78777571     -0.12652705     -2.67687452
H       3.68516480     -1.09242835     -2.68510639
H       4.08350155      0.09117771     -1.78129498
O       1.31721559      0.67746386     -2.17172716
H       2.21227233      0.41363828     -2.51122414
H       1.46035985      1.54445173     -1.77838647
O       2.88078863      5.30305154      2.16957193
H       2.10033447      4.88120339      1.73912726
H       2.82114975      5.09225497      3.10248616
O      -5.91574496     -2.19594698      0.94861694
H      -4.93305663     -2.15408196      0.95830180
H      -6.15371337     -3.11957684      0.85886222
O       4.78989662      1.68081519      2.29687178
H       4.79761801      2.50591928      1.77353537
H       5.70159890      1.49768441      2.52791848
O       2.75814828      2.68041419     -0.65572335
H       3.50602000      3.24093733     -0.40241634
H       3.04153762      1.78337043     -0.37581853
O      -2.58818426     -1.61846511     -1.69310629
H      -3.28113695     -0.96712058     -1.92835496
H      -1.85281805     -1.41539606     -2.29564180
O       0.58226392     -3.53875083     -2.89146131
H       1.52877219     -3.35387373     -2.77989085
H       0.19535610     -2.72188767     -3.23740387
O       3.79235373      0.29594746      0.11360325
H       4.11053594      0.60084361      0.97942105
H       3.07118718     -0.33143357      0.26786590
O       0.98073727      3.97502783      0.84516020
H       0.49359958      4.54840129      0.25144293
H       1.58764877      3.43828676      0.27680561
O       3.11550654     -2.73325567     -2.03892751
H       3.63991832     -3.39397573     -1.58675752
H       2.59224362     -2.25861421     -1.33853323
O      -3.25645432     -2.09392027      0.91098759
H      -2.56623030     -2.70358031      1.18165511
H      -3.06718460     -1.88115573     -0.02218636
O      -6.41331186     -0.24316362      2.81160329
H      -5.56157842     -0.18632403      3.24804689
H      -6.34542589     -0.98767305      2.18579825
O       4.75460460      4.00880026      0.82313754
H       4.09125119      4.53647603      1.33547731
H       5.47166903      4.60746039      0.61136723
O      -0.47922928     -0.94358237     -3.38446106
H      -0.79587820     -0.49933599     -4.17147328
H       0.12658224     -0.31905856     -2.94130282
O       1.62054113     -1.36803995     -0.35208955
H       0.83788376     -1.96205776     -0.25293543
H       1.33985661     -0.63931341     -0.93690823
O      -4.40246774      0.24749161     -2.37807546
H      -5.21779949      0.08648060     -1.83485249
H      -4.69805964      0.23391524     -3.28913497
O      -0.44476364     -3.04231980     -0.44616969
H      -1.22896202     -2.56453156     -0.74535288
H      -0.09722115     -3.45670727     -1.26619590
