95
charge=0
O       2.00572737      1.97306155     -1.68889676
O      -2.49694771     -0.98220403      2.69897838
O       0.87378214      0.27957945     -2.38038590
O      -2.05104252     -2.05237104      0.88765447
O       2.14714799      2.97602347      2.96579380
O       0.37241528      2.54502583      4.10806993
S       0.67239325     -1.91194875     -0.27263220
C      -2.04098756     -3.68791716     -3.83672526
C      -0.89138105     -4.14902888     -3.22262119
C      -2.73420406     -2.50610613     -3.58105970
C      -0.16204477     -3.56041502     -2.20005835
C       1.15443164      1.66877784      0.80577263
C      -0.39980780      0.64343529      2.34908419
C      -2.46749588     -1.49661296     -2.68401547
C      -0.39005098     -2.36510986     -1.54153032
C       0.73578446      0.84488326     -0.20104432
C      -0.81591373     -0.23361291      1.38775472
C       0.62097112      1.56085594      2.09422540
C      -1.41112522     -1.38523238     -1.76483890
N      -1.28601195     -0.30807008     -0.99138176
N       1.23204148      1.04027259     -1.47910834
N      -1.82131781     -1.14430356      1.68034210
N       1.06645580      2.41255511      3.11200989
C      -2.16857558      0.83231306     -0.98092252
C      -0.22696077     -0.28993305      0.00376095
H      -2.45915130     -4.32105918     -4.60738953
H      -0.51322953     -5.10192860     -3.56484094
H      -3.62179828     -2.35373737     -4.18245701
H       0.70204378     -4.11167487     -1.85473194
H       1.87669815      2.44023397      0.58657257
H      -0.84208952      0.60540508      3.33351632
H      -3.17078334     -0.67729515     -2.68210150
H      -3.06926766      0.62849426     -0.39801308
H      -1.64163139      1.67743387     -0.53611177
H      -2.45490497      1.10400664     -1.99289210
O       4.00813800     -0.79514512     -1.61457888
H       4.45069308      0.07533891     -1.50474697
H       3.46230173     -0.72489440     -2.40014341
O      -1.24047837     -6.52327406     -1.20052032
H      -1.44520341     -5.87464272     -0.48706240
H      -1.64290998     -7.34742720     -0.92195755
O      -4.35020719      0.94626012      1.66118304
H      -5.02614692      1.29515859      2.24638017
H      -3.87813240      0.28302263      2.18113603
O       2.95307341     -2.95798295      2.38349286
H       3.02924416     -2.17539588      1.79845621
H       2.32017363     -2.69917339      3.05994903
O      -3.16021602      3.43360009      1.17259617
H      -3.58965808      2.56356288      1.17262932
H      -2.94364696      3.59359886      2.11215747
O      -0.65428471      5.28892562     -1.80827883
H      -0.42876180      6.21777497     -1.86013037
H      -0.06875427      4.82353781     -2.46395426
O      -3.07101390      2.33932133     -3.52835160
H      -3.13955546      3.03836448     -2.83053426
H      -3.53814372      2.68957778     -4.28806318
O      -0.63300883      3.37191246      0.18925475
H      -1.50073675      3.50833120      0.61469132
H      -0.53539865      4.10702969     -0.43558491
O      -0.48353145      1.91166668     -4.37811726
H      -0.09282934      1.18798501     -3.87410244
H      -1.40198314      2.02382912     -4.06804568
O       4.72681476      1.73515864     -1.02732266
H       3.91511815      2.12538125     -1.37562920
H       4.64682441      1.76397610     -0.06195509
O       1.45260627     -6.16854580     -1.09687937
H       1.88438189     -7.01586171     -0.98255434
H       0.49399687     -6.34822544     -1.20411599
O       2.94435800     -0.72844553      0.85879314
H       3.35735500     -0.89956722     -0.01402956
H       3.44263490      0.01098134      1.23850338
O      -3.39036679      0.80746112      4.68444679
H      -3.05193129      0.06347253      4.16784800
H      -3.30390563      0.57101265      5.60886818
O      -2.41971147      3.28369631      3.78088051
H      -2.84336215      2.48530140      4.13309136
H      -1.49063163      3.22310063      4.03254110
O      -3.20147962      4.22097239     -1.65112105
H      -2.34260823      4.67358712     -1.72206926
H      -3.31366541      4.00845588     -0.71510203
O       4.23601640      1.62629305      1.76374731
H       5.01421470      1.62794962      2.32389413
H       3.58844641      2.22170944      2.18334234
O       1.18365265     -4.39680627      0.98876627
H       1.99396401     -4.03599636      1.41154960
H       1.46817914     -4.99377094      0.27554245
O       0.95188640      3.99374118     -3.43611912
H       0.43144661      3.32695160     -3.93450954
H       1.55500203      3.48013848     -2.88450478
O      -1.51948605     -4.84867373      0.85690925
H      -1.89973142     -3.96277934      0.81511097
H      -0.56293222     -4.72073325      0.98166633
O       0.00091326     -2.65951979      2.94452245
H      -0.53271032     -3.25323445      3.47645330
H       0.37015135     -3.20115146      2.23259072
