75
charge=0
O       1.31367670      4.20165535      5.96136716
O      -0.69950867      4.06769946      1.96986014
I       2.69626713     -1.63098955      4.79784663
I       1.44826661     -1.51066741      1.57937477
I       2.61194949      1.31833907      6.81150635
I      -0.33856159      1.26646961      0.49527129
O       0.24471071      4.44718399      3.98140843
C       0.95978446      3.71977539      4.92994509
C      -0.04851498      3.66299449      2.89955004
C       1.80297766      0.10775110      4.08770998
C       1.25173871      0.11326739      2.80841354
C       1.76546591      1.25092198      4.89687806
C       0.57856702      1.23670683      2.32007911
C       1.14091053      2.37273354      4.38706581
C       0.53256909      2.35047008      3.12620257
O      -0.61912834     -2.09105277      4.08629722
H      -0.69678217     -2.30065376      5.01812840
H      -0.69515418     -2.94107761      3.60565202
O       0.47883552     -1.53646793     -1.94879015
H       0.17038498     -1.44032563     -1.04144839
H       0.60546288     -0.62296723     -2.28383749
O      -3.32256331     -2.66740624     -1.19464481
H      -3.67699573     -1.86362822     -0.78788401
H      -2.93245531     -2.37364292     -2.03922074
O      -0.90295864     -4.47567471      2.74352967
H      -1.27032688     -5.28265281      3.10625699
H       0.03873420     -4.68274706      2.51275307
O       4.24156915      0.16250578      2.66700461
H       5.09070089     -0.19693765      2.40636837
H       3.82315881      0.49833719      1.85014659
O      -1.23362560     -3.04973287      0.36266245
H      -1.38256111     -3.67698706      1.08471037
H      -2.03112162     -3.04695788     -0.22713146
O      -0.48436230      6.36839810      0.43306047
H       0.03018141      6.98878509      0.95227934
H      -0.72155859      5.63994576      1.03060078
O       2.15771963      3.77412758      0.49755515
H       2.92030651      4.30179960      0.25374698
H       1.49167060      3.91674783     -0.19989298
O      -1.96251527     -0.94186763      1.92870484
H      -1.62704143     -1.65330849      1.34252049
H      -1.66293063     -1.19441608      2.81248154
O      -3.76330922     -0.16824528      0.06453658
H      -3.12754910     -0.37154879      0.78028054
H      -4.45382367      0.36835110      0.45480858
O      -2.16977015      3.62584240     -1.32173207
H      -2.32716020      3.74013203     -0.38181272
H      -1.24222399      3.88879399     -1.45637120
O      -0.59037209     -0.19691792     -5.22990090
H      -0.10536703     -0.83836705     -5.74991936
H      -1.20714558     -0.70613945     -4.66242431
O      -1.91072814     -1.40614905     -3.19065941
H      -1.05321098     -1.65821768     -2.78459088
H      -2.10467466     -0.53017246     -2.81489477
O      -2.11920486      0.98505382     -1.81468068
H      -2.28270425      1.95058915     -1.79931515
H      -2.76510666      0.59894910     -1.19238153
O       1.61884006     -5.01305305      2.11686423
H       1.67037622     -4.69907802      1.19964898
H       2.23259360     -4.46859791      2.61558693
O       0.39771421      4.67316910     -1.44825033
H       0.07939506      5.39240211     -0.85942162
H       0.54741845      5.05531162     -2.31415057
O       0.51116963      0.94288953     -3.04397955
H       0.18881790      0.67673090     -3.93096386
H      -0.26739923      1.25335013     -2.56526607
O       3.05596189      0.41832530     -2.10494923
H       2.92500348     -0.53315450     -2.11658561
H       2.24935387      0.80073977     -2.48834761
O       2.87785813      1.10072673      0.50168864
H       2.68167242      2.05234036      0.51015859
H       3.04348210      0.86358364     -0.43480761
O       1.30642400     -3.69697912     -0.29483853
H       0.34155417     -3.59335065     -0.15528289
H       1.47979475     -3.24383212     -1.12655979
