101
charge=0
N      -0.80090882     -2.91476094     -3.60439354
N      -2.42354658     -1.23085139     -1.25382253
O      -2.01785558     -0.84570099     -5.85813922
O      -3.69708616      0.71259173     -3.57578602
O       2.17013324     -4.39959054     -0.24022965
S       5.03254280     -4.76349410      2.33911857
C      -1.60710397     -1.94211539     -3.59570274
C       4.18034627     -5.02453150      0.86666488
C       2.79532277     -3.56200640      2.00837374
C       3.00903417     -4.32839001      0.83176958
C      -2.20689941     -1.00290269     -4.55205851
C      -2.89260558     -0.33693282     -3.55428435
C       3.79627047     -3.69573428      2.91662114
C      -0.20960834     -1.60819021     -0.37402958
C       0.87415475     -2.33847236     -0.17575188
C      -2.34132303     -1.20221704     -2.51739930
N       2.64776775     -2.68008648      4.83225672
C      -1.59105070     -2.17015735     -0.53217930
C       0.87505322     -3.83724917     -0.07281123
C       1.88179956     -3.86550153      5.18487920
C       2.81327988     -1.81304839      5.98778670
C       3.93757387     -3.02559914      4.24567445
H      -0.48096061     -3.16813123     -4.53901224
H      -2.40706183      0.00934736     -6.15563266
H      -3.67278698      1.26191382     -2.68817371
H       4.58743098     -5.66754071      0.11458254
H       1.94212640     -2.93415758      2.16335611
H      -0.13615172     -0.53443106     -0.44586102
H       1.84007723     -1.86569400     -0.08129950
H      -2.03450747     -2.32684218      0.45567105
H      -1.54210476     -3.13080336     -1.05353754
H       0.43893987     -4.15987740      0.88196306
H       0.27413540     -4.27768382     -0.87580922
H       2.35183377     -4.43177300      6.00000653
H       1.80061342     -4.51175529      4.31426723
H       0.88205053     -3.56552735      5.49157905
H       1.83043088     -1.53789657      6.36655831
H       3.37918688     -2.29626383      6.79575021
H       3.34033263     -0.90775735      5.68847296
H       4.52953527     -3.67333367      4.91478489
H       4.49986427     -2.09333863      4.11158605
O      -2.26449112      0.11810016      2.53829576
H      -1.99167089     -0.82901793      2.55323176
H      -2.95770455      0.19587773      1.86136943
O       1.11581449     -1.11235538      3.15000656
H       1.64394535     -1.61037667      3.80877009
H       0.70135090     -0.36301474      3.61431257
O       1.98607638     -2.99625203     -2.92296523
H       1.02291944     -3.08777632     -2.99956323
H       2.25321354     -3.50021143     -2.14780625
O      -0.53683891      2.62971418     -5.40718824
H       0.10441475      2.40069011     -6.11013819
H      -1.40719608      2.43842266     -5.77592021
O       1.06424663     -0.69148495     -6.04751801
H       0.12997733     -0.84257383     -5.87183507
H       1.49858268     -0.57321721     -5.18881845
O       1.56035985      3.35540122     -0.91623491
H       1.55081429      3.35118065      0.04369035
H       2.06439106      2.56570082     -1.18001890
O      -0.38328055      1.72061897      1.29860066
H      -1.07318855      1.11966647      1.63368195
H      -0.62717917      1.91013541      0.37031623
O      -1.26676298     -2.35131657      2.75519927
H      -1.38804164     -2.60411138      3.68616714
H      -0.35328823     -2.00568224      2.72215916
O       2.11171078     -0.33040622     -3.44634050
H       2.14806309     -1.28401462     -3.23880492
H       2.48876979      0.12722225     -2.67759875
O      -0.89422818      2.25694360     -1.29685009
H      -0.70480162      1.65396911     -2.06115738
H      -0.16560876      2.90429039     -1.32352278
O      -0.29516702      1.07102389      4.13120317
H      -1.12592870      0.78547537      3.70440134
H       0.05679988      1.74650837      3.54264973
O       1.21251019      1.70076534     -7.25619542
H       1.18296035      0.77369333     -6.92877113
H       2.12375183      1.98285426     -7.16879347
O      -0.33294544      0.84120168     -3.42995823
H      -0.34120648      1.54615104     -4.11824828
H       0.57062856      0.47241921     -3.42159857
O      -0.24812154     -0.32211335      6.46889999
H      -0.66614940      0.20733904      7.14919196
H      -0.19476485      0.24302301      5.67746621
O      -3.55570492      2.14443185     -1.49306013
H      -2.59543982      2.34287309     -1.42716597
H      -3.75991559      1.59550953     -0.71351330
O       2.06993382      0.66242266      1.28776406
H       1.92061530     -0.12795672      1.83051713
H       1.18829461      1.09725907      1.26309688
O       2.99761388      0.96620678     -1.15415665
H       3.94260715      1.08745625     -1.05639986
H       2.65077619      0.75019342     -0.25159182
O      -1.33942436     -2.65018708      5.51144688
H      -2.16921751     -2.75851010      5.97707273
H      -0.92131743     -1.84190993      5.86648183
O      -3.94176243      0.18983596      0.36997394
H      -3.35238658     -0.34178506     -0.24427096
H      -4.79880602     -0.23714003      0.36657304
O      -3.14468928      1.61367180     -6.10039908
H      -3.43739875      1.51678836     -5.17360356
H      -3.87504043      1.99047878     -6.59247936
