95
charge=0
S       4.82430845      0.82229457     -1.62297019
Br     -3.14657392     -2.83480888      1.33053932
N      -1.95258761     -0.90779937      2.88504528
N       1.08636258      0.65695059      4.22181264
N       1.56617184     -1.25280070      2.85625681
O       1.62493140     -2.72821475     -2.26011500
O      -1.08383804     -2.29285700     -1.06338580
O       1.30874826     -3.73225244      1.19955543
O       3.14127499      0.34880741      0.81667553
O       2.04680705     -0.15724356     -1.39702937
O       3.79038131     -1.71712704     -0.52146943
C      -1.74940912     -1.92452618      2.11319804
C       1.27434600     -2.91731117     -0.97317735
C       0.04935106     -2.76753200     -0.46942114
C       1.91464984     -0.22226303      3.63562582
C      -0.21520349      0.50640438      4.06347217
C       0.26259626     -1.36398469      2.65650576
C      -0.69691861     -0.51736929      3.26696209
N       3.23182852     -0.05887441      3.87349255
N      -0.43557578     -2.25178061      1.89103497
C       3.28742925     -2.49223815      0.54514398
C       2.17796419     -3.46710258      0.09906545
C       0.00523596     -3.28027418      0.94819420
P       3.43341618     -0.14047585     -0.59015054
H       2.56578186     -2.48175785     -2.36098779
H      -0.86055221     -1.93602187     -1.97364861
H       3.70921595      1.51432115      1.46700188
H       1.60764234      0.73653531     -1.43962847
H      -0.86008908      1.21936438      4.55746657
H       3.88484346     -0.54830567      3.28835341
H       3.52341307      0.78294880      4.33588597
H       2.86215555     -1.84239297      1.31671221
H       4.12800896     -3.05048886      0.96677182
H       2.61839785     -4.42222279     -0.21714984
H      -0.69152348     -4.12852269      1.05390067
O      -0.83940457     -1.26309303     -3.48053108
H       0.08886703     -1.04481162     -3.75855704
H      -1.15828303     -1.92163518     -4.09970821
O      -1.70762520     -5.78331841      0.18609073
H      -2.25374167     -6.52836092      0.43975182
H      -2.11116655     -5.40920830     -0.61723454
O      -4.58899555      0.91856412      0.10841847
H      -5.46058792      0.69060764     -0.21363849
H      -4.29559112      1.72722406     -0.38904850
O      -1.71432986      2.85629115      0.98573575
H      -2.36742945      2.59049269      1.67278830
H      -1.23163511      2.03490409      0.81455575
O       0.61485107      1.28333918      1.12122507
H       1.39830820      0.71957219      1.00968766
H       0.88862669      1.95331176      1.77564473
O       3.98071571      2.43407524      1.88744547
H       3.13622155      2.79035914      2.30722860
H       4.18924148      3.03341693      1.01779463
O      -2.93513593     -4.30864447     -1.82801209
H      -2.33698368     -3.58567436     -1.58612386
H      -3.78450194     -4.08909217     -1.43965423
O       1.60094732     -0.54250689     -4.16933581
H       1.87888699     -0.31178285     -3.27114961
H       2.24486121     -1.19809791     -4.45500657
O       4.32188210      3.64898482     -0.25632880
H       4.56872338      2.91846466     -0.85896286
H       3.44033354      3.98544184     -0.53058260
O       0.75344579      2.09027761     -1.37442647
H       0.53792615      1.87777880     -0.43263305
H      -0.07477323      1.90304544     -1.88794041
O      -3.44118600      1.58251420      2.57684786
H      -4.04180875      1.34352068      1.85380310
H      -3.02086970      0.75315182      2.84778729
O       1.91873205     -3.93978568      3.94104245
H       2.07853747     -3.01217459      3.72154052
H       1.83350661     -4.37559552      3.08542751
O       1.68466487      3.13586513      2.81191114
H       1.36847638      2.97423600      3.70378546
H       1.13729813      3.87174730      2.39117082
O      -0.80456801     -3.63352837      4.32286533
H      -1.14025089     -4.11978997      5.07754371
H       0.15487881     -3.81200698      4.29399067
O       4.04436633     -1.76806223     -3.32958732
H       4.81501866     -2.33824967     -3.33018930
H       4.34733910     -0.91629624     -2.96489175
O      -1.97463606      0.16027937     -0.11293075
H      -1.80079415     -0.76638145     -0.32854714
H      -2.93063697      0.25154417      0.04844455
O       0.22039199      4.72058573      1.43763813
H      -0.55779980      4.14948990      1.26453078
H       0.71702627      4.77656546      0.60630341
O       1.80820593      4.45069810     -0.90040044
H       1.73845742      5.04666732     -1.64725963
H       1.40322733      3.59305282     -1.17949904
O      -1.50343481      1.29486028     -2.44854873
H      -1.71038011      0.87615945     -1.57523819
H      -1.34171451      0.55146975     -3.04492109
O      -3.43528059      2.94055926     -1.14382118
H      -2.81470764      3.10224621     -0.40536859
H      -2.89743919      2.56249068     -1.85182822
