70
charge=0
Cl     -2.35785214      4.90171741      1.11836758
Cl     -2.29744555      0.64952692      4.37015122
C       0.22010790      1.89464266      1.55558759
C      -0.39223037      3.06118348      1.09922944
C      -0.36548033      1.14162104      2.56690447
C      -1.58956931      3.45329033      1.66509638
C      -2.19777755      2.71723958      2.66951871
C      -1.56622674      1.56409683      3.10743553
H       0.11481288      0.24694997      2.92679290
H      -3.13202604      3.03445486      3.10259997
O      -0.82842424      5.08785879     -1.89641949
H      -1.27431220      5.41160499     -1.10973028
H       0.13203006      5.20765850     -1.74180701
O       1.81379949      5.13690424     -1.37394693
H       2.28212620      4.83953555     -0.57319439
H       0.07627207      3.64603540      0.32502100
O       2.14583039     -2.33202730     -0.07153801
H       1.36226216     -1.93063382     -0.51184644
H       1.84527626     -3.19572366      0.25888621
O      -1.73604420     -1.80259509     -3.18818185
H      -1.65771522     -2.06494307     -4.10538037
H      -2.20478442     -0.92131791     -3.18299937
O      -2.85875191      1.37808198     -0.47053955
H      -3.52479205      1.85496935      0.02461791
H      -2.70598897      0.53220978      0.01994581
O       1.83866582     -4.57626940      3.41062670
H       1.23900498     -5.19403588      3.83146291
H       1.67313681     -4.64315244      2.45007564
O       3.32219271      3.56853529      0.29619375
H       2.72790550      2.89451886      0.64663347
H       3.57818348      3.26827029     -0.58925073
O      -1.44512214     -4.26744675      1.11043862
H      -1.87732713     -3.90799752      0.32166842
H      -1.45916547     -3.54497339      1.76772943
O       1.09849135     -4.73045046      0.78852177
H       1.18567919     -5.51217307      0.24303552
H       0.11869012     -4.55954643      0.88910301
O       1.09733119     -1.98938553      3.77828599
H       1.43489720     -2.90666348      3.76481499
H       1.66595958     -1.49775106      3.16170840
O       3.26732279      2.89490429     -2.44670454
H       2.25430419      4.66067204     -2.08806316
H       3.82549845      2.51249153     -3.12308423
O       0.05738154     -1.09191184     -1.15264830
H       0.47718813     -0.27826802     -1.48591764
H      -0.48073599     -1.43235764     -1.87883336
O       2.52649229     -0.66717964      1.83624657
H       2.38942663     -1.33717380      1.08457219
H       3.47369036     -0.54638830      1.91422551
O      -1.10340861      2.47147744     -2.31219330
H      -1.64093207      2.20687743     -1.54726306
H      -1.03858846      3.45150553     -2.27107390
O       1.38876804      1.53520534      0.98285701
H       1.74907116      0.67961097      1.36461432
H       1.27733498      1.46552110     -0.84767408
O      -2.91842975      0.53039386     -3.10972384
H      -2.25972534      1.21285381     -3.30767879
H      -3.13607982      0.69705152     -2.17597312
O      -2.79257291     -3.04514431     -1.03488574
H      -3.69852450     -3.24689409     -1.27203713
H      -2.36648160     -2.66741923     -1.83033357
O       1.19986205      1.31608694     -1.80282234
H       0.36618128      1.77552634     -2.07849973
H       2.51516509      2.27292779     -2.31799432
O      -1.33322775     -2.14884128      2.81966508
H      -1.90810603     -1.96504158      3.56462588
H      -0.40414186     -2.07688107      3.17002264
O      -2.70557179     -0.91804839      0.77726102
H      -2.09708153     -1.19725483      1.48038100
H      -2.68946306     -1.63726193      0.12491689
