88
charge=0
O       1.04996180      1.74062000      3.04319897
O      -0.80021053     -2.60583574      2.89369754
O      -1.47012058     -1.52170142     -2.37447160
O       0.84516702      0.57996410      0.30138387
O      -1.48824586      2.21130384      3.08931476
O       1.50899217     -3.61524075      2.64836825
O       1.06840932     -1.91517689      4.45793663
O       0.66049377     -0.24612094     -2.37272974
O      -1.37621418      0.70618076     -1.21870748
C      -0.80760053      0.13281840      1.74429406
C       1.29892682     -1.02460875      1.88631466
C      -0.16914085     -1.45847136      0.03154756
N       0.29476162     -0.45580480      0.98678745
P      -0.18662471      1.78860817      2.23925407
P       0.64906539     -2.33236886      3.01863769
P      -0.59872400     -0.63020640     -1.54290153
H      -1.31621287      3.07074730      3.48790034
H       0.93974217     -4.29305254      2.22764248
H       1.75468227     -1.18356196      4.59620284
H       1.63346284     -0.34723549     -2.02610420
H      -2.17516049      0.84664884     -1.82760836
H      -1.08562290     -0.46826566      2.60803977
H      -1.66337590      0.24272298      1.08473917
H       2.10507368     -1.44731613      1.28433218
H       1.69766108     -0.19635311      2.46611169
H      -1.03368206     -1.98926860      0.41618395
H       0.63021897     -2.16312642     -0.19079219
H      -0.19611431      2.64778847      1.17423263
O       2.65986325      0.09465161      4.68192983
H       2.10927976      0.82180790      4.35369927
H       3.38686392      0.00234559      4.03031222
O      -0.24549291     -5.36977359      1.54969301
H      -0.54354617     -5.94742954      2.25507030
H      -1.02766264     -4.87164275      1.26178541
O       1.12956970     -4.75880170     -0.84384515
H       0.90733882     -5.24940075     -0.04457269
H       0.26004354     -4.55084158     -1.24880812
O       3.43056861      1.15723648      0.43846327
H       2.46660313      0.99603789      0.53113995
H       3.49523602      2.11940922      0.26615701
O       1.14781674      5.54922853      0.80665589
H       0.49384244      5.30311143      0.10139073
H       1.28239107      6.49430760      0.72619359
O      -3.35437032      1.22464722     -2.77583964
H      -2.87397899      1.06725245     -3.61112853
H      -3.92244251      0.44077000     -2.66905189
O      -3.81778548      1.34141569      1.37802822
H      -3.56263168      2.06482092      0.78153766
H      -3.38856904      1.53346267      2.21671702
O      -4.12776297     -1.36295924     -2.44523661
H      -3.15474885     -1.50753994     -2.46359931
H      -4.51653395     -2.06775893     -2.96428168
O      -3.36574598     -1.14108264      0.22385626
H      -3.86628074     -1.20508757     -0.60145659
H      -3.69397171     -0.34658473      0.67944034
O       0.10427836      4.41227674      3.03710562
H       0.87377902      4.11636417      3.52871479
H       0.46028840      4.89350019      2.26406485
O      -2.47902063     -3.61811202      1.06667045
H      -2.01954284     -3.30174801      1.86647047
H      -3.01717398     -2.85567396      0.79306787
O       0.96146880      2.51974517     -1.65607282
H       0.81220421      1.86943859     -0.95072118
H       1.09874445      1.99369667     -2.44785445
O      -2.63896248      3.03431798     -0.51338614
H      -1.97355475      2.33288903     -0.57278813
H      -3.19173845      2.92051535     -1.29467994
O      -0.52215669      4.76224660     -1.07555043
H      -0.01100478      4.01918165     -1.43941667
H      -1.36497027      4.38262391     -0.78067259
O       3.04764443     -0.52295864     -1.64723446
H       3.30241738      0.13374732     -0.96152978
H       3.06738421     -1.39290233     -1.20508000
O       4.42797962     -0.02631708      2.63700888
H       4.09251175      0.43139964      1.83464753
H       5.32416998      0.28493741      2.76744727
O      -1.39911120     -4.12100409     -1.50625378
H      -1.43926278     -3.24700165     -1.92602533
H      -1.89022840     -4.04493108     -0.67388100
O       2.82025380     -2.82914251     -0.21557762
H       2.25233480     -3.57500387     -0.53002686
H       3.58596897     -3.23489115      0.19360791
O       3.04055928      3.72864371     -0.24716243
H       2.40154857      3.41749531     -0.90780329
H       2.54888668      4.36059166      0.29686185
O      -1.67690227      0.13630625     -4.59501152
H      -0.81819479      0.34693275     -4.96349016
H      -1.52648207     -0.59060026     -3.96757009
