69
charge=-1
O       0.63942701      2.02820389     -2.56523019
O      -0.34156845      1.41630292      1.84497251
N      -0.08445395      2.12583463     -0.34744394
C       0.50500687      1.55769277     -1.42179382
C       0.04864329      1.26856405      0.65932526
N       0.93350296      0.30699470     -1.09350879
N       0.74178004      0.14608635      0.26756603
H       1.59253218     -0.27153300     -1.60770723
H       0.51860374     -0.79998160      0.58239022
O      -1.79651601      2.85780945     -3.60316309
H      -0.86669570      2.72985933     -3.34175973
H      -2.28514526      2.82655799     -2.76305964
O      -3.67440043      4.12500892      0.85689691
H      -3.22697481      3.70975312      1.62982354
H      -3.15854462      4.90759090      0.65521422
O       1.45538281      0.04694421      3.31673223
H       0.86057455      0.62096213      2.78894288
H       0.86047026     -0.51086116      3.84187420
O      -2.35647297      0.33469647     -4.38854208
H      -2.71202539      0.00871769     -3.55342133
H      -2.21780715      1.29828710     -4.24368343
O       4.16789208      0.55244526      2.59686779
H       3.27929586      0.72336530      2.93743934
H       4.27512152     -0.40443297      2.66081257
O      -0.28423416     -2.45278507      0.26148284
H      -1.17727690     -2.23659131      0.58431021
H      -0.38956434     -2.37617021     -0.72013204
O      -2.71250900      2.40512850     -1.03175677
H      -1.77820747      2.45494423     -0.73304217
H      -3.21371551      2.97073831     -0.41461434
O       0.26583106     -0.22739064     -4.10913089
H       0.47134182      0.62533984     -3.67719505
H      -0.65708333     -0.11144727     -4.42382487
O       0.67900419     -3.54317282      2.61743182
H       0.30186827     -3.33870455      1.74610795
H       1.59117348     -3.17748095      2.58297942
O      -2.80217714     -1.59517489      0.98486989
H      -3.55231229     -2.13756986      1.22611230
H      -2.60956350     -1.00915566      1.76727034
O      -0.33834490     -1.84036556      4.32521194
H      -0.29396084     -2.25598044      5.18544229
H      -0.00495585     -2.52152853      3.67213889
O       2.90370864     -2.05810027      2.32092876
H       2.94257954     -2.06979904      1.35269187
H       2.38354671     -1.26782689      2.57457316
O       2.62435232     -2.19233781     -0.44290485
H       2.74955467     -2.00813315     -1.39253781
H       1.72377440     -2.52536471     -0.36156777
O       2.61804844     -1.17115355     -2.97103202
H       1.86998597     -1.09901385     -3.58126071
H       3.08766248     -0.30901632     -3.04625544
O      -0.79745372     -1.94784677     -2.26678542
H      -0.29663253     -1.43067078     -2.92814566
H      -1.59249690     -1.41222676     -2.09709811
O       3.80495921      0.55537718     -0.17201377
H       4.00705959      0.73562915      0.76122743
H       3.54480423     -0.37267988     -0.21224317
O      -2.12745298     -0.14426481      3.05515415
H      -1.58731655     -0.74134095      3.59769350
H      -1.47666375      0.44682838      2.61226538
O      -2.89197636     -0.27872301     -1.53192306
H      -2.95022042     -0.68420790     -0.65441095
H      -2.86899346      0.68626381     -1.37480127
O       3.42462214      1.38036844     -2.82182212
H       3.66361635      1.30852427     -1.88347895
H       2.54271370      1.78598358     -2.84548086
O      -2.30439137      2.96309503      2.84965089
H      -2.74559285      2.18231580      3.19573340
H      -1.49779915      2.61346380      2.41519272
