99
charge=0
O       0.22589166     -3.69413597      1.18638079
F      -7.14507105     -0.16136955     -5.14779952
F      -5.80582825      1.23561964     -6.08788307
F      -7.33906341      1.93688991     -4.75893353
F      -5.94482449      2.84273690     -2.59214123
F      -3.89624744      2.21418355     -2.61533041
F      -4.77897443      3.01182845     -4.39056640
F      -2.60652069     -2.62170055     -1.03438825
F      -2.79803356     -3.83776784     -2.81096762
F      -2.18735152     -1.84844632     -4.42427795
F      -1.52171464     -0.56092786     -2.81758059
F      -3.84638990     -0.30096269     -1.77029602
F      -4.71564768     -1.98960266     -2.79867943
F      -3.26623548      0.66747199     -4.55424608
F      -4.61040408     -0.91040619     -5.12894888
F      -6.20263436      0.29508040     -2.72845897
S       1.32290506     -4.68897893     -0.95758898
C       1.27569697     -4.03590834      0.68227474
C       3.70231507     -3.76518954      0.66506669
C       2.58834559     -4.00168917      1.35172596
C       2.54726562     -4.20606569      2.83672595
C      -6.46484708      0.95940769     -4.96808388
C      -5.01563943      2.25259811     -3.32265226
C      -0.42044195     -4.46340535     -1.41467177
C      -0.60603420     -3.16212279     -2.19111795
C      -2.08209623     -2.82143238     -2.26871642
C      -2.37705896     -1.55282348     -3.12737532
C      -3.82394777     -0.99767801     -2.91736992
C      -4.28554591     -0.09638467     -4.11287740
C      -5.49083541      0.82799406     -3.75498560
H       4.65735221     -3.71824060      1.16076701
H       3.69685717     -3.58601284     -0.39622736
H       3.54051724     -4.10628863      3.26455470
H       1.87703108     -3.48741938      3.30439710
H       2.16444195     -5.20033409      3.06265314
H      -0.71636514     -5.32657775     -2.00714478
H      -0.97935644     -4.43783246     -0.47649250
H      -0.19777233     -3.25605164     -3.19786046
H      -0.08718110     -2.34820342     -1.67994759
O      -1.20561826      2.87879202     -1.53564540
H      -1.95894104      2.50684574     -1.01174555
H      -1.10511825      3.78836148     -1.25050467
O      -3.00405569      1.83019088      0.11243001
H      -2.60286637      0.95241006      0.01986481
H      -2.65116481      2.17283314      0.96493648
O       1.13369109      1.42043273     -1.44413494
H       0.25632619      1.84209904     -1.48954181
H       1.40291864      1.33044636     -2.38673236
O      -2.32791033     -0.34342571      2.76052339
H      -3.28385174     -0.19557374      2.59614368
H      -1.95177879     -0.45929834      1.86376886
O      -4.24449616      2.56827242      3.77690003
H      -4.02369382      1.94665378      4.50363224
H      -3.39607961      2.88390641      3.44392868
O       3.20567185     -2.14164071     -2.17553239
H       3.60094740     -1.34352835     -2.57392051
H       2.48917713     -1.81861068     -1.59750113
O       4.02253857      0.26342888     -3.21147829
H       4.32909128      0.94812411     -2.61548684
H       3.23107542      0.61978143     -3.64920678
O      -1.75254570      2.31359972      2.46667212
H      -0.82591594      2.36377271      2.19818478
H      -1.88727990      1.39002450      2.76633348
O       1.57349414      1.16490937     -4.05815564
H       1.18048730      0.31199653     -4.33773850
H       0.89597056      1.83468300     -4.27624942
O      -5.78275693     -0.76189274      4.21905866
H      -5.55631196     -0.44076630      3.33199526
H      -6.60032657     -0.32444081      4.46125279
O       1.92088180     -3.29836178     -4.16124193
H       2.58699171     -3.68815622     -4.72838094
H       2.41501629     -2.93515121     -3.37826067
O       1.24036026     -1.09900691     -0.57767527
H       1.22996522     -0.18419984     -0.95100292
H       1.61974522     -1.01231012      0.31395968
O      -3.56861051      0.44430476      5.31587782
H      -2.87264033      0.04679166      4.78344330
H      -4.36703078     -0.08175115      5.12129491
O       0.49114785     -1.15725929     -4.88818535
H       0.26774914     -1.25154468     -5.81447210
H       1.03863446     -1.93756440     -4.64854240
O      -0.01320614     -1.85962436      3.24971053
H      -0.85675716     -1.38474512      3.28497523
H      -0.13734558     -2.58160318      2.61115521
O      -1.13869568     -0.14378440      0.37832516
H      -0.52580511     -0.79181375      0.00237964
H      -0.56097608      0.58951754      0.68217487
O      -0.67599085      2.66551206     -4.24929362
H      -1.34545245      2.11560715     -4.65800082
H      -0.92933124      2.75818895     -3.31412455
O       1.94728486     -0.60026255      2.04343591
H       1.20597399     -1.04348365      2.54149418
H       2.75370276     -0.81848928      2.51034194
O       0.69470568      1.69097232      1.27169799
H       1.24563597      0.99929806      1.67834763
H       1.08246568      1.86195052      0.40243388
O      -4.75875755      0.62447743      2.05320514
H      -4.56209433      0.95231082      1.16712846
H      -4.68928668      1.41625696      2.64801260
