89
charge=0
N      -2.13061519      5.00481294     -5.45512865
O       0.13786526     -5.03315897      2.09903770
O      -3.42903254     -1.75161915      2.92421716
C      -2.12383924      3.86321275     -5.31401248
C      -1.94941442     -1.22623327     -2.05194257
C      -2.02023037     -0.45879506     -2.98437996
S      -1.63115159      1.41073924     -6.41629947
S      -2.62086117     -1.78387981      0.56027421
C       0.11058210     -4.67548845      0.91104511
C      -2.63820703     -2.54783699      3.43453026
C      -1.66822204      0.08403888     -5.34770403
C      -2.07337126      2.48957452     -5.12321370
C      -1.77203707     -2.05983382     -0.95395600
C      -2.24488831      1.82665748     -3.93544822
C      -0.88409015     -3.09179861     -0.85970208
C      -2.00223275      0.43992387     -4.06076708
C      -0.82292784     -3.65662130      0.43645397
C      -1.70770940     -3.03498695      1.30169672
N       0.96039040     -5.19640593      0.01598927
N      -2.53476443     -2.75062039      4.75715838
N      -1.82384582     -3.30000773      2.63573161
H      -1.42513712     -0.90096145     -5.69483453
H      -2.49886569      2.31397871     -3.01262661
H      -0.29428596     -3.41242514     -1.69525574
H       1.06153099     -4.83868633     -0.92646378
H       1.63557891     -5.86338501      0.35145291
H      -3.00363528     -2.08281867      5.35559297
H      -1.70247746     -3.18475698      5.13550312
H      -1.17647039     -4.01770835      2.97163858
O      -3.35547464      0.79970770      3.65751103
H      -3.57107793      1.33275866      2.86197571
H      -3.49903229     -0.12404751      3.36225075
O      -3.18261288     -0.19577774      6.17646244
H      -3.70003927      0.26454080      6.83799647
H      -3.32614364      0.27646831      5.33411846
O       1.13000507      5.83454007     -2.84067337
H       0.88528592      6.17767904     -1.97950196
H       0.57330833      6.31943002     -3.48521775
O      -1.00564679      1.15122643      0.72591397
H      -0.47797326      1.32990786     -0.07686879
H      -0.89290560      0.20927720      0.89883994
O       1.15441006     -0.32431977     -3.44151185
H       1.22945545      0.37503785     -4.12439020
H       0.72073690     -1.08745766     -3.86688831
O      -3.61921229      1.72370256      1.15416613
H      -2.67086447      1.62139444      0.93372808
H      -4.07038924      1.00887021      0.70060926
O       0.23445829      3.29109051     -3.18866568
H       0.43502550      2.76797215     -2.39821827
H       0.62390955      4.17757007     -3.05354468
O      -0.68184566      0.92868675      3.52214517
H      -1.66232876      0.88504368      3.62513769
H      -0.55518223      1.48096692      2.74042860
O       2.82034105     -1.63956859     -1.80603898
H       2.66861482     -1.23036674     -0.93601405
H       2.30476136     -1.09359013     -2.43580445
O      -0.41350443     -0.30385147      6.01910892
H      -1.36769795     -0.26187536      6.20401399
H      -0.29340197      0.18874127      5.19416842
O      -0.54226672      7.09975908     -4.56978714
H      -0.18376763      7.44163797     -5.39054281
H      -1.20253118      6.42859553     -4.82314107
O       0.09695928     -2.88440798      5.83567473
H       0.55550454     -3.14882679      6.63380587
H      -0.04359790     -1.90338726      5.91144318
O       4.34909991     -3.42111095     -3.33330837
H       5.30345711     -3.35303702     -3.30744862
H       4.00458002     -2.68278233     -2.80506286
O       2.25770244     -0.23380820      0.48635882
H       1.50963937     -0.59607763      1.03395861
H       2.96686457     -0.04595571      1.10204623
O       1.49266103     -3.06391157      3.48826364
H       1.17252064     -3.88041405      3.07377053
H       1.06193551     -3.02930219      4.36251257
O       1.26932771      1.78886431     -5.10386979
H       2.12267968      2.18396557     -5.28714490
H       0.82856225      2.39114314     -4.45206503
O       1.72989167     -3.99340673     -2.49882965
H       2.52024200     -4.35674473     -2.91546691
H       2.04544232     -3.14207726     -2.11385642
O       0.34595177     -1.13131759      2.05348061
H       0.05016080     -0.46053444      2.69959972
H       0.80045924     -1.83340057      2.57474682
O       0.49164086     -2.70571361     -4.59293434
H       0.81185466     -3.25619200     -3.85046756
H       1.11867967     -2.84003464     -5.30642627
O       0.76919035      1.29412783     -1.29066299
H       0.71673771      0.67215029     -2.04064676
H       1.43223260      0.91021982     -0.69347611
