95
charge=0
N      -2.42023348      3.06668562     -1.59999507
S       1.47037198      4.06725223      1.55986862
C      -1.63784242      3.10889433     -0.75359008
N       1.53983153     -2.30531443      0.33663992
O      -0.13909859     -1.66280850     -0.89590853
C      -0.07944560      4.16284278      0.89107457
C       0.71446161     -2.66024197     -0.58037270
C      -0.61306876      3.02155484      0.18762126
C      -0.05257947      1.76759560      0.38771533
C      -0.44464124      0.59893991     -0.23957776
C       0.19641316     -0.61577991     -0.11328098
N       1.22427972     -1.02617003      0.66369829
N      -0.77053953      5.29163392      1.03061579
C       0.65756558     -3.93960481     -1.29766902
C       1.96965298     -0.34584496      1.67943634
C      -2.14663604      5.49453832      0.61165134
C      -0.29688789      6.40214393      1.83293747
C      -2.50509286      6.89162132      1.11902575
C      -1.57028554      7.08685060      2.30856648
H       0.76859191      1.73394022      1.08314100
H      -1.27742072      0.62542996     -0.92263388
H       1.21482315     -4.69072227     -0.75025265
H      -0.37984372     -4.24106074     -1.40990041
H       1.09333694     -3.80023259     -2.28979381
H       2.58261230      0.44379037      1.24577840
H       1.29573308      0.07097894      2.42480596
H       2.61855488     -1.07513672      2.15830399
H      -2.77676231      4.71937980      1.06131529
H      -2.23611879      5.42685633     -0.47455467
H       0.30492994      7.07710495      1.21369245
H       0.32703793      6.03628625      2.65122539
H      -3.55613184      6.96780650      1.38762502
H      -2.28787924      7.63611839      0.35253758
H      -1.39717844      8.13191388      2.54950346
H      -1.96333433      6.57409786      3.18730532
O      -0.52866986     -2.42457380     -5.03041627
H      -0.99306266     -1.75899666     -4.48331607
H      -1.15404287     -3.13494413     -5.17545532
O       4.89340477     -0.01024046     -0.13366605
H       5.06072819     -0.25958328     -1.04910074
H       4.33412403      0.77956969     -0.15977358
O      -2.96070369     -1.94519131     -1.30516366
H      -3.75551090     -1.38347302     -1.26706127
H      -2.55218946     -1.87336036     -0.43269902
O      -3.69899253      1.22056104     -3.20044952
H      -2.96431739      0.61860852     -3.40876426
H      -3.30255082      2.00385410     -2.77919264
O       3.59683524     -2.88967691      3.02729793
H       4.13469514     -3.46955348      3.56647863
H       3.96851442     -2.92532411      2.11943453
O      -1.94874005     -1.64881191      1.41396666
H      -1.66363025     -2.58416515      1.43592909
H      -1.48751363     -1.23528060      2.16556722
O      -0.77361215     -4.07825820      1.60277815
H      -1.21939943     -4.83191780      1.99068911
H      -0.10564950     -3.78504530      2.26738311
O       2.14104787     -0.03485971     -1.92766156
H       2.98493941     -0.51357940     -2.02387113
H       2.36046220      0.81562158     -1.52655127
O       3.13195043      2.23416049     -0.42994172
H       2.61783850      2.74509889      0.22911406
H       3.59676090      2.88980619     -0.95430973
O       0.85032665     -3.08697718      3.46816614
H       0.52995583     -2.17970238      3.55815908
H       1.80719064     -3.03112845      3.30100039
O       0.43147719      9.66280864      2.78633062
H       1.12728133      9.09789016      3.12924510
H       0.74494034     10.56730501      2.84761594
O      -1.63153581     -0.67852000     -3.24363520
H      -0.81253061     -0.37838965     -2.84065253
H      -2.08668680     -1.23195938     -2.55899633
O       4.28319684     -1.75470004     -2.34884644
H       3.70725521     -2.18436396     -2.99698303
H       4.42395495     -2.39212756     -1.63481985
O      -0.63903083     -0.59848885      3.61847756
H      -0.59801238      0.38778666      3.58994736
H      -1.18492104     -0.80859188      4.37837870
O      -3.83239017      0.41848790      1.28354121
H      -4.24286084      0.37235529      0.40440527
H      -3.22047059     -0.33139149      1.32862942
O       4.31048661     -2.66112909      0.41571566
H       3.34787783     -2.64585309      0.27950592
H       4.59979598     -1.72969394      0.39540515
O      -2.91339958      2.69238775      2.29014480
H      -3.20788485      1.86659637      1.83359607
H      -3.58725952      2.86341449      2.95093216
O      -4.90201410     -0.01377549     -1.23666557
H      -4.48913781      0.49713765     -1.99001756
H      -5.83820045     -0.06333794     -1.42896937
O       1.87324262     -2.34875598     -3.69475494
H       1.14874843     -2.46443796     -4.33323207
H       1.71985237     -1.48039012     -3.30370364
O      -0.60628314      2.05829086      3.54184425
H      -1.42900132      2.32260300      3.07315419
H       0.09771563      2.60197526      3.17312224
