78
charge=0
Cl      5.54497043      1.80149704     -3.52200000
Cl     -0.29494910      0.70345475     -7.02387197
Cl      1.58096371      3.16752134     -7.02061089
Cl     -0.43271991     -1.15468331     -4.53919903
Cl      3.36713783      3.76133608     -4.57407599
Cl      1.38970112     -0.55757485     -2.09310699
Cl      5.04997913      3.78770537     -0.66750360
Cl      3.91010687      1.33670890      0.35306385
Cl      6.58296844      1.33206082     -0.68306402
N       3.14956697      1.64655904     -2.35824938
C       4.38755884      1.77270244     -2.24550795
C       0.70517712      1.00674837     -5.67606175
C       1.56153253      2.10521916     -5.67879444
C       0.64147805      0.16895769     -4.56187663
C       2.40029896      2.34047354     -4.59343813
C       1.45964514      0.42796600     -3.46713371
C       2.38459456      1.48131517     -3.49145160
C       4.96612694      2.00694969     -0.87632614
O      -3.36803592     -1.02606330      0.79034594
H      -3.74277900     -1.10940225      1.67890337
H      -2.45973991     -1.35709633      0.86210975
O      -1.45704561      1.62674417     -1.91207030
H      -1.42210116      2.04985125     -2.78907143
H      -0.61646660      1.88311264     -1.48396691
O      -0.94944100     -2.22712832      3.19268433
H      -0.61071294     -3.11728246      3.29328773
H      -0.70233396     -1.93611388      2.29374343
O       2.11103595     -2.06229023      0.95223846
H       1.16920996     -1.85628460      0.79346096
H       2.55023616     -1.22224476      1.09688792
O      -3.22375676      1.62904145      3.29218642
H      -3.26137885      1.82976658      2.34788059
H      -3.39073726      0.66402357      3.36884916
O      -0.30859711      1.28661789      1.42873213
H      -1.23657037      1.48263821      1.14331211
H      -0.27930442      1.48416476      2.38274645
O      -0.91309033      3.09504601     -4.12761761
H      -0.31919961      3.66404547     -3.59203581
H      -1.57224106      3.68007997     -4.50506016
O      -0.74059779      1.87413870      4.03570499
H      -0.59238827      2.72265579      4.45256760
H      -1.71708435      1.82627944      3.82116075
O       0.71678597      4.46301359     -2.46673687
H       1.62410476      4.63936179     -2.72260237
H       0.75415949      3.84367159     -1.71655290
O      -3.46805763     -1.06332157      3.53523578
H      -3.64670581     -1.04551576      4.49813443
H      -2.60815867     -1.51096989      3.46503042
O       3.40018219     -3.10049443     -1.22195056
H       2.88589564     -2.88433949     -0.42213025
H       3.93342556     -2.30710213     -1.39921951
O       0.86773674      2.39858684     -0.67241671
H       0.55457090      2.08553850      0.20330281
H       1.62018726      1.84471057     -0.90809752
O       2.18219360     -3.26740895     -3.56227633
H       2.54549064     -3.24649309     -2.63906022
H       2.20360766     -4.18547508     -3.83338775
O      -3.29138538     -0.73324756      6.18685370
H      -3.55219021      0.12108636      6.53289230
H      -2.31503252     -0.69492674      6.06381071
O      -0.47672329     -1.27485213      0.70592960
H      -0.78853319     -1.28093114     -0.23223572
H      -0.33811125     -0.32887518      0.93850198
O      -2.78183586      1.57488030      0.50476785
H      -3.10301278      0.64435442      0.52193113
H      -2.53711093      1.75266903     -0.41807583
O       3.63089902     -1.27127668     -4.54759755
H       4.07969354     -1.60594979     -5.32547977
H       3.02313257     -1.99277104     -4.25094006
O       4.85632745     -0.91298857     -2.15450644
H       5.74789664     -1.25132268     -2.26146555
H       4.42340514     -0.99145831     -3.03189317
O      -0.71167967     -0.51885926      5.43883933
H      -0.61249917      0.34642982      5.00770891
H      -0.66243617     -1.16789331      4.72223962
O      -1.71344070     -1.05032719     -1.61980375
H      -1.62127364     -0.09934026     -1.83460958
H      -2.63483976     -1.19056689     -1.38632588
