102
charge=0
N      -3.69058876      2.83321724     -4.55375938
N      -3.65988571      3.64825411     -1.67991882
N      -2.06886902      4.32984600     -4.89019703
N      -3.05626964      5.68213354     -1.02807058
N       1.56869134      0.44065204      4.81136399
N       2.91320736      1.89751604      3.51002091
N      -0.47483243      3.20127159      1.67111862
O      -2.78696287      5.54093953     -2.35309424
C      -2.99348660      3.82782402     -4.03322963
C      -3.16790897      4.30653050     -2.69095285
C      -2.21990729      3.58547510     -5.96363651
C      -3.56721487      4.54154830     -0.65571148
C       2.75415271      0.83151338      4.31700132
C       0.49431239      1.09823813      4.42556205
C       1.83054244      2.52541977      3.11017107
C      -1.51301264      3.67897626      1.01176897
C      -0.63573860      2.77268761      2.92425871
C      -1.86898277      2.85731080      3.56738056
C      -2.95103195      3.34892122      2.86467602
C       0.54677939      2.15920300      3.52039810
C      -2.79438839      3.75919084      1.54169281
N      -3.19510226      2.69033236     -5.77511396
N       3.84449467      0.14207695      4.64925955
C      -6.02725626      4.38553418      1.47065305
C      -4.82131398      5.33400533      1.40611207
C      -5.20231502      3.27780933      0.79974879
C      -3.97535835      4.22204475      0.73446640
H      -1.64615707      3.67878771     -6.86109789
H      -0.44580800      0.73639174      4.81776365
H       1.97784955      3.35568008      2.43190036
H      -1.30035595      3.97691316     -0.00424777
H      -1.97759852      2.53001377      4.58894802
H      -3.91959059      3.39731435      3.33897863
H      -3.56721211      1.92594414     -6.38856993
H       4.71247225      0.36819721      4.19212804
H       3.76374098     -0.72879089      5.15899898
H      -6.35876663      4.15063434      2.48008631
H      -6.88673276      4.71562925      0.89211300
H      -4.43416140      5.65513031      2.37050601
H      -4.95535893      6.20844720      0.77459132
H      -5.55609628      2.97369690     -0.18175425
H      -5.03827987      2.38832362      1.40280239
O      -1.31340697      1.00468222     -4.13035486
H      -0.83619346      0.26074334     -3.74581429
H      -1.18143795      1.72253558     -3.48273729
O       5.20308365     -2.48152776      1.30826731
H       5.26877983     -2.99217385      0.50078373
H       4.95634035     -1.56555990      1.03347446
O       3.07281119     -2.69564006      2.90959100
H       3.37392329     -2.65284682      3.83144954
H       3.88305316     -2.73672532      2.35765289
O      -4.35488473      0.66575819     -7.06188433
H      -5.09210669      0.68470984     -6.39790497
H      -3.88557275     -0.15422778     -6.89051716
O      -5.85967847      0.84294815     -4.89991386
H      -5.68475918      1.73528537     -4.58615021
H      -5.17534798      0.29231409     -4.45277409
O      -1.67049063     -1.26524523      5.29440034
H      -0.82737952     -1.59152140      5.67189189
H      -2.31643406     -1.95805572      5.43956492
O       0.67228772      1.22451750      0.12421319
H       0.52484308      2.03868331      0.64184360
H       1.15434332      0.61484298      0.71012870
O       0.89940383     -2.08151825      5.74677588
H       0.74746390     -2.66254485      4.95706606
H       1.12662205     -1.19062698      5.40586400
O       0.08043769      5.10671967     -3.28559386
H      -0.23326280      5.88464167     -2.81851344
H      -0.53484120      4.97825013     -4.03082621
O       3.51771138     -2.52461660      5.67284211
H       3.87341215     -3.19597274      6.25483042
H       2.54985375     -2.45788859      5.86556792
O      -0.71552376      2.78817066     -2.10476264
H      -0.04456394      2.34446349     -1.57523366
H      -0.28749345      3.57725609     -2.49330972
O      -1.96935816      0.53076758      1.05444996
H      -2.59130471      0.53449904      0.30242510
H      -1.12240584      0.81800969      0.68134372
O      -3.71976251     -0.34767094     -3.83890551
H      -2.93404733      0.15185680     -4.12821818
H      -3.77691011     -0.16094802     -2.88882078
O      -0.57222604     -0.36471912     -1.77760297
H      -0.71797946     -1.21505047     -1.35966308
H      -0.01685013      0.15147996     -1.17172066
O       5.40344382      1.74130235      2.47185328
H       5.79799990      2.53183287      2.10226036
H       4.52069013      1.99162718      2.82964897
O       0.53231010     -3.51523398      3.53663408
H      -0.03674029     -2.91230642      3.03461391
H       1.42078235     -3.42815756      3.15536676
O      -0.86127640     -1.30564871      2.65101204
H      -1.21033499     -1.18350498      3.55352767
H      -1.39919869     -0.72315682      2.07857410
O       1.67513462     -0.56558656      1.96180048
H       2.20781516     -1.32976729      2.26597776
H       0.75981859     -0.80161459      2.21663271
O      -3.12002719      0.79252696     -1.38330636
H      -2.22270372      0.59776454     -1.70785402
H      -3.28184051      1.73262926     -1.55309045
O       4.27839661     -0.05057498      0.71637214
H       3.38020624     -0.08757543      1.06673105
H       4.77063682      0.56374976      1.29156643
