79
charge=0
O      -1.13550892     -0.07755299      1.91973741
O       4.01004384      3.87203954     -0.11278324
O       1.98581625     -1.36844652     -3.98773563
N       0.56697239      1.26268806      1.31725996
N      -0.11308246     -0.58976024     -0.02018426
N       3.43223886      2.10850640     -1.41560902
C      -0.26495612      0.19990739      1.10595640
C       3.31168976      2.90944287     -0.30502179
C       1.88752424     -0.73352775     -2.96971565
C       1.48217660      1.54106871      0.44955299
C       0.78422515     -0.28030730     -0.87768128
C       2.63410455      1.12668238     -1.59358230
N       2.32514065      2.56048204      0.61978466
N       0.93927251     -0.99280769     -2.01553831
N       2.72391451      0.33473769     -2.68839251
N       1.63526851      0.79214282     -0.70543585
H       2.24254451      3.09961122      1.54210121
H       0.36183319     -1.86464350     -2.09714888
H       3.42100656      0.58201041     -3.37862937
O      -0.55100642      3.84463937      2.16754973
H      -0.55497994      2.91848686      1.89387334
H      -0.34229523      4.36948629      1.37605502
O      -0.38079593     -0.35783799     -5.22494373
H       0.40974973     -0.91053449     -5.22500085
H      -1.03458173     -0.83012574     -4.68160135
O       0.60211744      1.84941417     -4.06737758
H       0.72990955      2.47813082     -4.77959520
H       0.14950977      1.07739769     -4.47960952
O       3.41485595     -1.41517767     -0.26978106
H       4.29062402     -1.78425729     -0.40203215
H       3.46458975     -0.90652639      0.56518704
O      -0.28923534     -3.40003857     -2.02578716
H      -0.93404442     -3.58175755     -1.32162176
H       0.56280295     -3.69917406     -1.63072573
O       3.65206947      0.20624105      1.87600087
H       3.05620620      0.49523402      2.61162011
H       4.53860542      0.42021452      2.17186304
O      -2.96725298     -1.55106395      0.52907473
H      -2.41443811     -2.29486281      0.22238862
H      -2.34670335     -0.95925403      1.00140380
O       0.33739579     -3.90227675      1.92523931
H       0.57018495     -4.66719226      2.45316650
H      -0.12408197     -3.26955147      2.54772799
O       1.82428723     -3.71613402     -0.45025387
H       1.37675815     -3.76834425      0.40844461
H       2.36606728     -2.91267670     -0.41377000
O      -1.74596694     -3.96349456      0.22056909
H      -0.95925177     -3.96356352      0.80924935
H      -2.45492648     -4.36714246      0.72827687
O       2.73750833      5.89529862      1.39731212
H       3.41613299      5.42601386      0.88934323
H       1.93022099      5.83731820      0.86363426
O       2.08578558      1.21469427      3.77545279
H       1.17454693      1.04056527      3.51844511
H       2.19533706      2.17542124      3.68685172
O      -3.60759232     -3.18873935      2.55286791
H      -4.36327724     -2.94460271      3.08732613
H      -3.55874992     -2.53494611      1.81792736
O       0.26765887      3.09147335     -1.63224234
H      -0.53689838      2.67199491     -1.26644424
H       0.35065805      2.75341144     -2.53915000
O      -1.97527991     -1.92498285     -3.59012068
H      -1.36686238     -2.54017107     -3.14295395
H      -2.63685170     -2.45907922     -4.03287271
O       0.38930968      5.24638315     -0.06320619
H       0.44266206      4.50038242     -0.69681887
H      -0.10998858      5.93830833     -0.49919882
O      -1.79837723      1.82693586     -0.48002946
H      -2.28711455      1.16474851     -1.02929927
H      -2.46132015      2.26671023      0.05517925
O       2.00848268      3.84988578      2.90817946
H       2.35586205      4.72010396      2.60026231
H       1.02699755      3.92785646      2.85966220
O      -3.12924175     -0.07151510     -1.75680479
H      -2.69632880     -0.61378944     -2.43070427
H      -3.21871032     -0.63942702     -0.96642168
O      -1.12949468     -2.38768606      3.44993201
H      -2.02099828     -2.74067939      3.26382079
H      -1.12302418     -1.49099438      3.08136258
