99
charge=0
O      -5.07299502     -3.85072314     -1.19693988
O       6.25954930      1.00434700      2.56907104
O       6.44826705      2.82741581      1.45722871
N      -1.78933095     -2.01701022     -3.06455699
N      -6.33383265     -2.94201256     -2.90312039
O       1.31668998     -0.98080247     -1.72858216
C      -5.22470065     -3.27356890     -2.26954262
C       1.78430649      0.45287027     -3.36669827
C       0.61876073     -0.22791816     -3.71440011
C       2.16795665     -0.03136652     -2.12157900
C       0.36319252     -1.10835486     -2.67078915
C      -6.29012660     -1.10298988     -6.08825586
C      -4.90916653     -0.90340903     -6.21741624
C      -6.84162303     -1.77839580     -5.01819551
C       4.15224935      1.34122929     -1.54938229
C       3.17794782     -0.13539684      0.10085453
C      -4.03751621     -1.39080582     -5.27190788
C       5.06001417      1.78148795     -0.61584009
C       4.09878504      0.28213705      1.03144324
C      -5.98643554     -2.28473624     -4.04441893
C       3.19238899      0.38634813     -1.19781763
C      -4.56900997     -2.08995150     -4.18520690
C       5.03403326      1.24853142      0.67220529
C      -0.70328718     -1.98791849     -2.37532987
C      -4.00103775     -2.71359489     -3.06790995
N       5.97348674      1.70819851      1.62339130
N      -2.80045875     -2.73617734     -2.56091189
H       2.27101458      1.21837855     -3.93458729
H       0.01065690     -0.10182163     -4.58521622
H      -6.94448258     -0.70612427     -6.85188548
H      -4.53423785     -0.35843191     -7.07056537
H      -7.90697354     -1.91534326     -4.92595220
H       4.18407348      1.72288710     -2.55731048
H       2.43424121     -0.86827221      0.36100753
H      -2.97231191     -1.23615898     -5.33604053
H       5.82138319      2.50148611     -0.87276630
H       4.08299875     -0.10273465      2.03763317
H      -0.57118308     -2.58069794     -1.46982246
H      -2.66803934     -3.22338803     -1.64229345
O      -5.06579131      1.05701397     -2.90917165
H      -4.74208571      1.49831752     -2.06990551
H      -5.70894905      1.65751686     -3.28885589
O       4.48876091      4.66718480      1.03664196
H       5.29830862      4.11972889      1.07115547
H       4.74940523      5.55346350      1.29406918
O      -1.58636049      1.60326564     -1.46697900
H      -1.77052819      1.41253662     -2.40702478
H      -1.64029321      0.74029783     -1.00590669
O      -4.68136018     -3.13783360      1.33880533
H      -5.29290967     -3.58754834      1.92289182
H      -4.92673285     -3.41291076      0.43033736
O       0.98476406      2.15719973     -0.70135674
H       0.06259797      2.13610853     -1.01508994
H       1.33873659      3.04709003     -0.85564151
O       0.93329205      1.71120443      1.92880417
H       0.94667672      1.87206457      0.95884520
H       1.83559641      1.89019867      2.23230141
O       5.68652077     -1.73305938      3.16014809
H       6.44391768     -2.17678821      3.54448914
H       5.95590831     -0.81340604      3.01324615
O      -2.53388416      1.18844506     -3.98774986
H      -3.43484052      0.95580529     -3.69176082
H      -2.61467179      2.00611635     -4.48144627
O      -4.13365993      2.13073806     -0.71306544
H      -3.16794888      2.09467372     -0.88385783
H      -4.31292224      1.49864135     -0.00729018
O       2.75924838     -3.34752620     -0.12577163
H       2.86211408     -4.29954415     -0.16202633
H       1.94160150     -3.19038421      0.38949661
O       5.38247472     -2.57009629      0.51461369
H       4.46687647     -2.74952509      0.24511660
H       5.35448232     -2.39175032      1.46982151
O      -2.14004342     -3.28626424      0.12017061
H      -2.89836312     -3.50800596      0.67705341
H      -2.10868287     -2.30146727      0.11291445
O      -0.42637921     -0.49877437      2.15254341
H      -0.82377407     -0.44897711      3.02285853
H       0.14364084      0.31280180      2.06573061
O       0.43540488     -3.00755984      1.24882079
H      -0.40306387     -3.31270716      0.86911207
H       0.25316552     -2.12241551      1.60130570
O      -6.49816775     -0.58546570     -1.17991856
H      -6.07030387     -0.09947530     -1.90538274
H      -6.75273338     -1.44458934     -1.54268610
O       2.60864795      4.38340647     -1.06052565
H       3.17077506      4.49095579     -0.27849382
H       3.18292700      4.05956466     -1.75662995
O      -4.60073398     -0.42442243      0.73400488
H      -5.32478503     -0.44435006      0.07019419
H      -4.64573248     -1.29988155      1.15366856
O      -2.05351323     -0.61316149      0.00259282
H      -2.98568719     -0.45360042      0.28522844
H      -1.48525005     -0.47843238      0.79010968
O       6.98856820     -0.48204233     -0.16553023
H       6.37747855     -1.22787087      0.01057499
H       7.80952507     -0.89092985     -0.44331592
O       3.42288118      2.70954140      2.72718629
H       3.59767395      3.46362642      2.14155962
H       3.29601240      3.06326943      3.60926218
