86
charge=0
N       1.90938322      3.24354504      2.13855291
N       1.02138588      2.65381957      2.72272108
N       0.76287351      1.25883696     -0.55525388
C       0.92235126      1.87619241      0.53008473
C      -0.21716712      0.22076632     -0.75196352
C       3.41575188      2.35616881      0.49378456
C       1.79292894      4.17595643     -0.11640667
C      -1.18966637      2.45344865      1.80460577
C       0.11746831      0.40352105      2.46800519
C       2.01112924      2.91625122      0.72355854
C       0.19885480      1.79977649      1.86085303
H       0.19074133     -0.72449121     -0.39318049
H      -0.38908806      0.13137711     -1.82383955
H      -1.15624380      0.40583047     -0.23548814
H       3.54167189      2.07635661     -0.54641326
H       4.14737083      3.11582422      0.75383917
H       3.58337330      1.48478055      1.12091314
H       2.49413789      4.94168848      0.20422617
H       1.96163527      3.95535006     -1.16648055
H       0.78215557      4.55904496      0.00997305
H      -1.51529924      2.66834379      2.81978961
H      -1.90644982      1.78167781      1.34189363
H      -1.15472032      3.38773116      1.24686744
H      -0.63308158     -0.18429693      1.95240816
H       1.07783519     -0.10036511      2.39312579
H      -0.16552587      0.49058598      3.51343949
O      -2.57063837      1.66340916     -3.22638525
H      -2.66520152      1.87111151     -4.15619883
H      -1.81409228      2.21648524     -2.89108656
O       1.62329279      3.51781443     -3.68481084
H       1.94357875      2.61117500     -3.43624265
H       1.74742652      3.59271527     -4.63081476
O       4.69544801      0.37087425     -1.89902145
H       5.40142535     -0.07100750     -2.37112451
H       4.55190513     -0.15148030     -1.08113391
O       2.53595157     -3.19661689      0.72683371
H       2.61872088     -3.99523565      0.20554422
H       1.58102263     -2.96506887      0.74661786
O      -2.36236136     -4.00377901      0.05365377
H      -2.25640847     -4.95090398     -0.04124509
H      -2.44870640     -3.63684214     -0.86632469
O      -0.06266192     -2.66987335      0.93505990
H      -0.27099413     -2.54953522      1.87550529
H      -0.82105878     -3.13371044      0.54880415
O       1.22308018     -1.41519125      4.92932223
H       1.92734679     -1.93680871      4.49332720
H       0.41466663     -1.62450595      4.44851476
O       4.38781787     -1.14772661      0.31179848
H       4.37072440     -0.70337788      1.17074111
H       3.72927294     -1.85708534      0.37241799
O       4.24436996     -0.05800794      2.92285686
H       3.61175555      0.37805550      3.55570557
H       5.11708291      0.10877703      3.28114186
O      -3.45919094     -0.62650613     -1.91288429
H      -3.21613458     -0.42326825     -0.98503343
H      -3.10454363      0.10676791     -2.43875247
O      -5.54257228      0.73450916     -0.25203422
H      -5.27474067      1.60019740     -0.61825900
H      -5.45710368      0.12317382     -0.99137116
O       2.26009362      1.08391231     -2.90479527
H       3.17528413      0.85070611     -2.66708361
H       1.77475273      1.07753418     -2.05845541
O       3.16034255     -2.58098845      3.40767883
H       2.94747988     -2.90879208      2.52213753
H       3.65119654     -1.75445332      3.26095573
O      -2.61196319     -3.06556597     -2.38155738
H      -2.86930182     -2.11647763     -2.24543875
H      -3.27129611     -3.43219890     -2.97184451
O      -4.34521479      2.84994943     -1.48208404
H      -3.78240441      2.40378242     -2.14299520
H      -3.75775114      3.41331443     -0.97590167
O      -3.43866283     -2.46798031      2.03122234
H      -3.08902427     -3.02923995      1.31112480
H      -4.37760904     -2.64854360      2.09704317
O      -1.09113516     -2.51313865      3.51757946
H      -1.15319886     -3.27144092      4.10115223
H      -1.97926610     -2.35492253      3.15866155
O       2.55249656      0.95299399      4.66350380
H       1.95638923      1.62682103      4.31521503
H       2.01173798      0.16433785      4.88287821
O      -0.64729863      3.17838081     -2.28685857
H       0.08422329      3.43767201     -2.88560943
H      -0.21200382      2.64712840     -1.60782058
O      -3.15344878      0.00278089      0.71714403
H      -4.06856892      0.33920800      0.60594516
H      -3.21532228     -0.78719773      1.27348508
