89
charge=0
O      -2.16991987     -0.42750217      3.25427443
O      -0.93775871     -2.61704950      1.86856241
O       0.94738911     -0.95933442      3.49344927
O       1.33161722      0.84644724      1.92602795
O       1.08244369     -0.63060052     -0.27995375
O       2.97085207     -0.93579147      2.09820227
C      -1.92289305      0.21944978      2.23891370
C      -0.65414660     -1.65614200      1.19302499
C       0.19706417      0.40112733     -0.53486232
C      -1.96513570      1.64061667      2.17187813
C      -2.14327543      2.32860459      0.99195974
C      -3.19867406      1.16325450     -0.78974751
C      -3.53526408     -0.19170693     -0.68009093
C      -2.00542462      1.56256861     -0.19236220
C      -1.01413148      0.47004075     -0.02104074
C      -2.89750080     -1.01315533      0.24107253
N      -3.40584706     -2.17531652      0.63001098
C      -1.59762112     -0.54233741      0.88636670
C       0.76833104     -1.45829444      0.77129672
S       1.46410203     -0.56861154      2.21863703
H       3.62145770     -0.24002215      2.46871266
H       0.62363271      1.11253518     -1.22010829
H      -2.09406453      2.15008923      3.11533156
H      -2.55391713      3.32670692      0.99847949
H      -3.93695097      1.87153936     -1.13169002
H      -4.43206722     -0.55370360     -1.15716000
H      -4.26170006     -2.50368619      0.21576467
H      -2.88782240     -2.81496856      1.22533751
H       1.29925611     -2.40804437      0.67949946
O       4.63769406      0.79599984      2.96118511
H       4.96367550      1.16095829      2.08810816
H       5.37069821      0.31267025      3.34841174
O      -0.35178094      0.94223239      5.06916321
H      -1.23580174      0.63800964      4.83236289
H       0.22740946      0.25089956      4.71750495
O      -1.36153204      1.31314958     -3.36174541
H      -1.11284115      2.01075787     -2.73881059
H      -0.51443066      0.94636243     -3.69729604
O      -1.10522908     -2.33319813     -1.47791147
H      -1.72267911     -2.02417039     -2.17722441
H      -0.23740297     -2.34651605     -1.91728604
O      -5.19288170     -0.28882922     -3.41851946
H      -5.76496948     -0.58261602     -4.12864172
H      -4.78889679      0.55239587     -3.71906107
O       0.33076063      4.04268274      0.70733283
H       0.12059402      3.86259454      1.63153180
H       1.24096361      3.72938928      0.58644635
O       5.30233093      1.77027865      0.63224258
H       5.86828256      2.54338290      0.59080781
H       4.39648592      2.07882840      0.40220194
O       2.78748387      2.67727865      0.58496434
H       3.02472350      3.11555858      1.44551337
H       2.25310374      1.91590535      0.87166355
O      -1.09902966     -4.83287421     -0.50990958
H      -1.69223543     -4.90996211      0.24706074
H      -1.27232702     -3.95414921     -0.90931828
O      -0.37830476      3.50637822     -1.84173394
H      -0.74666141      4.31905039     -2.19157591
H      -0.26497348      3.64889974     -0.87938241
O       1.56121199     -2.37496778     -2.40684694
H       1.62734732     -3.17334335     -1.85063698
H       1.89149823     -1.66338351     -1.84953988
O       0.58614541      2.95072442      3.43367407
H       0.21742095      2.51850169      4.22460854
H       0.75534592      2.20322059      2.83708274
O       3.23866662      3.41013071      3.07094012
H       3.62758134      2.60130785      3.42048459
H       2.30368704      3.41344630      3.36371947
O       2.12580041      2.32908735     -2.24355139
H       2.52234193      2.51731433     -1.38583139
H       1.32474125      2.87522918     -2.29004976
O       1.05890265      0.28842980     -3.92534677
H       1.20647614     -0.61772550     -3.63542249
H       1.64248380      0.86595465     -3.41138037
O       1.50426781     -4.27727772     -0.40043204
H       0.54486558     -4.52394332     -0.39592166
H       1.97975285     -5.10418627     -0.49066680
O      -2.61736326     -4.72461017      2.00494697
H      -1.71190736     -4.62339908      2.31308993
H      -3.14492454     -4.21497694      2.64527271
O      -2.57346781     -1.23771157     -3.41526909
H      -3.52461724     -1.06107178     -3.33377601
H      -2.14476558     -0.36893811     -3.38107974
O      -3.54898368     -2.80243137      3.73574540
H      -3.47642814     -2.90838493      4.68524221
H      -3.01428275     -2.01885311      3.51722960
O      -3.79291844      1.80959850     -4.44300856
H      -2.91750001      1.68449714     -4.02331369
H      -3.64216141      1.70700123     -5.38432411
