86
charge=0
O      -0.57652029      1.52261442      2.74522336
N      -2.85430975     -5.17897936     -3.65440182
N      -1.05017567     -6.14337786     -2.77445938
O      -1.56506956     -6.94153325     -3.74838071
C      -2.62558029     -6.31185028     -4.23091442
C      -1.84177187     -5.09377381     -2.72917272
C      -1.69490341     -3.97603811     -1.84338702
C      -0.72661993     -3.91708270     -0.91625370
C       0.70616047     -2.85583362      0.75303590
C      -1.33762748     -1.73695471      0.14426292
C       1.00598547     -1.83550935      1.63188945
C      -1.04359528     -0.71865979      1.02965295
C      -0.47197681     -2.82358936     -0.00453939
C       0.11829034     -0.78171507      1.77820880
S       0.53413757      0.52579364      2.95633002
C       0.01829195     -0.44809430      4.41148951
H      -3.18962302     -6.76026491     -5.02223289
H      -2.41072237     -3.18400940     -1.99233723
H      -0.04080440     -4.75044448     -0.84229556
H       1.39188010     -3.67956716      0.62760045
H      -2.24896761     -1.68559321     -0.42791650
H       1.92128413     -1.84890376      2.20479478
H      -1.71192169      0.12363293      1.14110282
H       0.04723096      0.19990031      5.27988402
H       0.73000997     -1.25707087      4.52329110
H      -0.98566715     -0.82803219      4.26181585
O       0.42815060      2.85430388      0.65276856
H       1.09171592      3.30811299      1.21086231
H      -0.08551721      2.32146937      1.29886273
O       2.32309923      3.67288557      2.40772545
H       2.88821488      4.44523818      2.43032290
H       2.91830195      2.89095783      2.21971384
O       2.03182836      0.83651382     -0.13250470
H       2.41494952      1.03798163     -0.98933579
H       1.37050509      1.54078387      0.04496732
O      -1.47884735      4.10882281      3.15983758
H      -1.53934691      4.47782413      2.26854568
H      -1.11524686      3.21131908      3.04160709
O      -4.04792658      3.40419645      3.52868057
H      -4.58724843      4.08941790      3.92229086
H      -3.13645478      3.76957761      3.44179422
O      -3.08921906      2.02982501      1.14547205
H      -2.71871139      2.85610951      0.80982237
H      -3.64249626      2.28211488      1.89270737
O       0.53950434     -2.14735382     -3.09246519
H       0.78682557     -3.08469143     -3.19428947
H       0.28929213     -1.84804953     -3.97855580
O      -0.80125953      3.02556451      5.72104859
H      -1.46392453      2.33567555      5.49627993
H      -1.00192343      3.76041194      5.13090878
O       3.73221963      1.53757780      1.89098309
H       3.61359012      0.94462758      2.65594472
H       3.21782438      1.14518201      1.16152965
O      -2.56056716     -3.17458055     -5.79633300
H      -2.96390680     -3.41014121     -4.95407636
H      -2.17572518     -4.01207126     -6.13060678
O       2.64477366     -1.58357001     -1.53634939
H       1.87437277     -1.67775156     -2.13739972
H       2.33267258     -1.05293766     -0.79587708
O       3.10346648     -4.19053452     -1.25795015
H       2.95704110     -3.21259694     -1.28624571
H       4.02707658     -4.32091699     -1.47703914
O       1.45752715     -4.74789831     -3.30840458
H       0.83114409     -5.42936154     -3.03583275
H       2.09204037     -4.63729903     -2.56479067
O      -1.23075305     -5.43092830     -6.48316703
H      -0.32983787     -5.05361268     -6.29786290
H      -1.20243824     -5.72014722     -7.39627932
O       1.52688653      2.22660409      4.67875733
H       1.70461231      2.88509959      3.98969891
H       0.71147573      2.52666626      5.14593122
O      -1.68924345      4.46493247      0.38583088
H      -1.83631846      4.86771596     -0.46956721
H      -0.87436924      3.91953824      0.31324714
O       3.19351459      0.15668230      4.20070627
H       2.61092245      0.88005100      4.50609195
H       3.92475815      0.11918447      4.81936300
O      -0.28985577     -1.79813151     -5.71691365
H      -0.35537190     -1.07958394     -6.34615021
H      -1.17240988     -2.24744895     -5.71595956
O      -2.58848193      1.30587245      4.61748094
H      -3.33212245      1.87061386      4.36278556
H      -2.02128694      1.26910806      3.82807351
O       1.06558084     -4.21690816     -5.99812394
H       1.35717812     -4.45189898     -5.10266611
H       0.74662537     -3.30021607     -5.93983052
