104
charge=0
O       1.57063849     -2.87070235     -0.59979478
F      -0.79587355      1.96685380      5.87630936
F       0.39215035      0.31437781      5.23588946
F       1.35002591      2.08224129      5.97420038
N       3.78487920     -0.36203714     -1.69974068
N       4.27981665     -0.33624642     -2.94447763
N       2.64634711      2.40268622      2.93316768
O       3.36399376     -2.29064187     -2.62505843
O       3.54667270      1.66576457      2.23506276
O      -0.80896069      1.80960861      3.17168747
C       2.45489885     -2.03697973     -0.37941774
C       3.24565337     -1.53076905     -1.52185469
C       4.02474339     -1.50105905     -3.47757527
C       1.57365562      1.67311323      3.09756445
C       3.00039263      0.47170288      1.96926510
C       1.73949980      0.39372181      2.49250126
N       2.71990159     -1.58174878      0.84459995
C       3.69965839     -0.57129052      1.17486557
C       5.03417554     -3.32296528     -4.92655207
C       3.66993853     -3.06974510     -5.45770852
C       4.42381479     -1.94327608     -4.79690315
C      -0.16048189     -0.66028166      1.24009767
C       1.86789321     -1.97372694      1.95562745
C       0.42692949      3.76546334      3.88115127
C       0.33207095      1.65780846      5.21949329
C       0.90145163     -0.83398272      2.32888344
C       0.36590958      2.23987456      3.79772892
H      -0.79346714      2.21624906      2.24520543
H       4.51018621     -1.02028446      1.76547943
H       4.11639644     -0.13171012      0.26595117
H       5.85408929     -3.42852424     -5.61966372
H       5.13303907     -3.90051853     -4.01942577
H       3.53241586     -2.99876810     -6.52558565
H       2.83000960     -3.48201357     -4.92208529
H       4.81561738     -1.13882813     -5.40212953
H       0.30013094     -0.31615079      0.31932470
H      -0.65669861     -1.61026512      1.06439557
H      -0.90296120      0.06523378      1.54915902
H       1.30525071     -2.85834543      1.65948311
H       2.50796159     -2.21828555      2.80664715
H       1.27234421      4.08342119      4.48126046
H      -0.50684569      4.13519691      4.30360724
H       0.53620914      4.15768200      2.87466743
H       0.40890840     -1.10045419      3.26564341
O      -2.89835738      4.42673594      0.31429098
H      -2.97199030      3.63625379     -0.24301695
H      -1.99151587      4.41786347      0.63964976
O      -1.39017444      0.21525729     -2.44993531
H      -0.58770593      0.75044127     -2.60489102
H      -1.91673770      0.30318517     -3.24717641
O      -0.32440537     -2.30930599     -2.49084706
H       0.22119650     -2.50662959     -1.71083295
H      -0.80960218     -1.48186723     -2.31224276
O       2.05904843     -5.07905304     -2.28870053
H       1.82634109     -4.38882883     -1.64988576
H       1.58189367     -4.85791945     -3.10049041
O       0.35134747     -2.38000035     -6.36183415
H       0.79299598     -2.70943187     -7.14467542
H       0.29106058     -3.12548212     -5.73732510
O       0.19345981     -4.24120571     -4.30915082
H      -0.49723222     -4.90604136     -4.31121675
H      -0.07977921     -3.56459229     -3.65729988
O      -1.34140382     -2.35025928      4.20153355
H      -1.77381517     -3.20515240      4.19752124
H      -1.54183892     -1.95364371      5.07161412
O       1.51572017      1.45208858     -0.45460829
H       1.27811352      1.38518376     -1.40167767
H       2.28643986      2.03782809     -0.43209323
O       3.45384291      2.49420601     -3.00234559
H       3.64057858      2.85106858     -2.12613993
H       3.92719040      1.65216819     -3.05019280
O       1.39758779     -1.00408528     -4.20989955
H       0.82838966     -1.52499965     -3.61326435
H       1.10237579     -1.24405095     -5.10233521
O      -2.79371988     -0.05110728      3.60069976
H      -2.29680204     -0.88160385      3.50417199
H      -2.13277841      0.65727580      3.54284924
O      -4.38544508      3.56679958      2.34606545
H      -5.18043461      4.09800018      2.40141888
H      -3.84629989      3.95041496      1.61041941
O       3.56112339      3.36236252     -0.19203195
H       3.10643411      4.19313020     -0.03269228
H       3.95440829      3.09516746      0.64557333
O      -2.42001856     -0.84913819      6.22810326
H      -2.84022955     -0.42763581      5.45727311
H      -1.91388184     -0.16412912      6.66826874
O       4.77320226     -4.76523590     -2.04945528
H       5.10070335     -5.59644214     -1.70371923
H       3.81231979     -4.89496119     -2.17808099
O      -2.71162197      4.07576627      4.53711623
H      -2.74057978      3.29869243      5.09724689
H      -3.27639342      3.87459922      3.77264658
O       0.98162541      1.39820237     -3.11378516
H       1.77098006      1.96777048     -3.22112754
H       1.21083216      0.57248701     -3.59237689
O      -0.51974540      2.75285677      0.76473416
H      -1.29137688      2.39383410      0.26873489
H       0.25263264      2.28843563      0.37819350
O      -4.18396955      0.94124159      1.44015723
H      -4.39896064      1.81710796      1.80258113
H      -3.76773678      0.46589795      2.18087569
O      -2.64386915      1.80580505     -0.53253450
H      -2.32570105      1.11160827     -1.12761483
H      -3.23470582      1.38237398      0.13726365
