98
charge=0
O       1.84969501      0.45207911     -0.00675653
Cl      7.03082668     -1.49008046     -3.72146934
Cl      1.50189340      6.50669421      2.83732798
Cl     -2.25937736     -4.33925554      1.75470761
Cl      4.86288580     -3.11805914     -2.22997653
Cl      6.41626058      1.41690679     -4.62906234
Cl      3.88400081      4.99359789      1.54669579
Cl     -1.40049565      5.87676257      1.92319664
Cl     -2.06478683     -4.64592172     -1.33247282
Cl     -1.44783430     -1.66428794      3.07426319
Cl      2.07312032     -1.85460767     -1.68468911
Cl      3.64892891      2.65659792     -4.01177875
Cl      3.35267948      2.85120489     -0.65265777
Cl     -1.89002380      3.67467226     -0.22548237
Cl     -0.99754559     -2.28660096     -3.03704381
Cl     -0.62965823      0.76361819      1.29538851
O       1.82150027      0.94310916     -2.57802746
O       0.46080003      2.35839168     -1.16274922
O      -0.25108891      0.06802900     -1.54822864
C       5.50815268     -0.79396599     -3.38637747
C       1.21439584      5.30689599      1.65779389
C      -1.71040123     -3.03685109      0.79565283
C       4.53543182     -1.52738824     -2.71340469
C       5.23457647      0.50972419     -3.79026539
C       2.28173940      4.61945460      1.08611623
C      -0.08967215      5.02301716      1.25488706
C      -1.61543261     -3.17932350     -0.58679837
C      -1.36280485     -1.82852640      1.39094897
C       3.29393445     -0.96040016     -2.43817744
C       3.99590211      1.07119582     -3.50086040
C       2.05079996      3.63330298      0.12801575
C      -0.31738320      4.02780945      0.30757696
C      -1.12097367     -2.13002152     -1.35452060
C      -0.91815733     -0.76266108      0.61137345
C       3.02162412      0.34948144     -2.81784311
C       0.74853537      3.31335892     -0.24040651
C      -0.75317104     -0.92575352     -0.75917454
P       1.06899919      0.87618543     -1.16108594
O      -3.53091876     -0.28414679     -1.26789993
H      -3.11869550      0.06341917     -2.07096090
H      -3.59294984      0.46727739     -0.66365209
O       5.41519479      0.34643632     -0.58614997
H       4.94070130      0.19254373      0.25299072
H       6.31580023      0.55527145     -0.33019907
O       2.17220386     -5.00797678     -1.35743987
H       3.13152189     -4.99103687     -1.35936481
H       1.90419586     -4.75221135     -2.26422346
O       1.48721952     -4.20620167     -3.86976920
H       0.52978647     -4.23741221     -3.93207488
H       1.74618665     -3.30983892     -4.15338147
O      -5.24618126      0.18827548      3.85206292
H      -5.41407253      1.05974234      3.45765529
H      -4.98599064     -0.39555909      3.11974247
O       1.14492528     -3.71412541      0.75413435
H       1.53755855     -4.12781196     -0.04828593
H       0.84342314     -4.45501482      1.28537370
O       1.37958230      4.67006761     -2.78791105
H       2.20054864      4.18157227     -2.92106757
H       1.55934812      5.58588038     -3.00977124
O      -3.76810825      1.55696771      0.89696575
H      -3.16094283      1.90640487      1.58524537
H      -4.61269687      1.97827022      1.08611974
O      -2.35469012      0.92577669     -3.54723371
H      -1.70493700      1.64131171     -3.45751358
H      -3.07333225      1.26827182     -4.08179904
O       0.07201748      0.19195032     -4.90033666
H      -0.75970308     -0.05428360     -4.47417106
H       0.26713266      1.07333568     -4.55483319
O      -0.38396517      2.86839509     -3.98321696
H      -0.47134628      3.38837930     -4.78487974
H       0.13574582      3.40390930     -3.36382635
O       2.02085287     -1.68133862     -4.89105524
H       2.16401054     -1.84445757     -5.82547187
H       1.29209951     -1.02483930     -4.84841256
O       0.25137066      3.01665815      3.39756333
H       0.18005631      3.03835340      4.35558731
H       1.11063735      2.59276635      3.22020826
O       3.85801466      0.02413197      1.69605171
H       3.14080357      0.19128758      1.06463862
H       3.64067616     -0.86100046      2.05415106
O      -2.49342642      2.59946965      3.03801595
H      -2.58019996      1.93009597      3.76116182
H      -1.55610751      2.84032324      3.02973057
O       2.80188539      2.05338816      3.16581448
H       3.50563266      2.69868693      3.25060726
H       3.19671703      1.28492355      2.70106798
O      -5.24507154      2.87239214      2.96472693
H      -5.65097500      3.39262164      3.65888588
H      -4.28291242      2.98148085      3.06446115
O      -4.20230225     -1.03650575      1.58370871
H      -4.50348635     -1.44356002      0.76928121
H      -3.96025806     -0.12358886      1.32742139
O       2.68576241     -2.27913255      2.49652787
H       2.21016454     -2.75384791      1.78621830
H       2.01667297     -2.01157699      3.12952488
O      -2.87401130      0.75778292      4.91453437
H      -2.34314661     -0.02687077      4.76393600
H      -3.79738783      0.50559193      4.66456911
