99
charge=0
O      -1.37124348      0.36379751      0.34057685
O       0.79955967     -2.95349106     -2.18994943
O      -0.62768952     -1.52358836     -3.42836027
O      -4.22005709     -0.46659678     -1.67944263
C      -0.44757380     -0.07163447     -0.34950495
C      -3.63940460      1.77557267     -1.51243120
C       2.02830162     -1.12085968     -1.18904984
C      -2.74947316      2.87593112     -1.72710281
C      -3.29680585      0.52810422     -1.90942443
C       0.80736244     -1.88073636     -1.32869144
C      -0.33098153     -1.47616790     -0.70933011
C      -1.68733869     -1.03120557     -2.69524317
C       1.93027141      0.19224077     -0.96298394
C      -1.59092824      2.72657309     -2.37275586
C      -2.03182910      0.27413810     -2.57592958
C      -1.62688692     -2.20831005     -0.69260504
C      -2.39313268     -1.91491852     -1.74392812
C      -0.19699483     -2.82837282     -3.20261592
C      -3.87124571     -1.84171138     -1.87269792
C      -1.05483128      1.56350233     -4.47721559
C       0.58209621      0.83898749     -0.95427825
C       0.32546911      1.12399198     -2.47325214
C      -1.12129109      1.42383937     -2.94252651
H      -4.59297286      1.94417896     -1.04018981
H       2.96450282     -1.62340586     -1.34966628
H      -3.04710714      3.84188290     -1.35176982
H       2.79394492      0.83191276     -0.91591224
H      -0.93644642      3.56745164     -2.53775074
H      -1.91967078     -2.81484116      0.14674280
H       0.29987696     -3.14620195     -4.12586855
H      -1.03624798     -3.50251977     -2.97292069
H      -4.39305351     -2.40435907     -1.09533657
H      -4.21946520     -2.15990817     -2.86394469
H      -0.37323591      2.36286807     -4.75529073
H      -2.04339497      1.79339924     -4.86789928
H      -0.70783341      0.63204048     -4.91572711
H       0.57086541      1.79162112     -0.42043818
H       0.68019628      0.26697094     -3.04211935
H       0.95438676      1.97411802     -2.73648493
O       4.83309355     -1.84409233     -3.08214796
H       5.17829777     -0.97037725     -2.78402767
H       4.83209860     -2.40569055     -2.29338590
O      -1.63434332      2.86995651      1.36316318
H      -1.43281010      1.99647424      0.98017772
H      -1.24428437      3.52729294      0.75160814
O      -0.50248618      4.79288207     -0.16670333
H      -1.28400778      5.36883144     -0.28964206
H       0.17207023      5.34056249      0.23741945
O      -0.83469052     -2.55412917      2.79553494
H      -1.29259599     -1.72447881      2.97213735
H      -1.50295107     -3.14037403      2.38810314
O       5.42015703      0.62517480     -2.22432403
H       4.71556090      1.10675449     -2.69218986
H       5.21647802      0.72871070     -1.27705352
O      -2.75711594      4.19592255      3.45306796
H      -2.18630792      4.76408447      3.97015936
H      -2.18523231      3.71702321      2.82316830
O       2.34144032     -4.46895024     -0.23658660
H       2.01661031     -3.92038718      0.50556887
H       1.80075973     -4.23269361     -0.99727724
O       2.62367946     -0.96284956     -4.24131035
H       2.71991043     -1.22272353     -5.15847215
H       3.40255451     -1.36159255     -3.77328516
O       1.62670788     -2.82235958      1.83609342
H       2.01957651     -3.22601191      2.61395377
H       0.69032212     -2.65155315      2.09561770
O      -4.56239083     -2.15790364      2.42233000
H      -3.86201317     -1.54580884      2.71739698
H      -5.11610635     -1.60661192      1.83933497
O      -5.56989582     -0.14617817      0.86429740
H      -5.19003039     -0.19692449     -0.02154828
H      -5.17997712      0.63536308      1.27983983
O      -2.61706465     -0.26021608      2.68469716
H      -2.19414762     -0.18199843      1.81260958
H      -3.22100045      0.49624998      2.71849843
O       4.12151251     -1.55064411      1.32312791
H       3.19050417     -1.77629400      1.45546578
H       4.43552126     -2.13879160      0.61411517
O      -2.73872972      6.30130260     -0.24600277
H      -3.37468780      5.86181234      0.36117052
H      -3.25612470      6.65630687     -0.96931404
O       4.72677080      0.90779575      0.42705727
H       5.45769186      1.20334848      0.97096324
H       4.46785913      0.02635624      0.77754411
O      -2.85772493     -4.00761086      1.65262622
H      -3.07434701     -4.81682651      2.11653434
H      -3.57474982     -3.36218782      1.88630068
O       3.31494969      1.61640763     -3.74741293
H       3.71333004      1.88923968     -4.57518145
H       2.96692788      0.71001821     -3.89298851
O      -4.15228532      2.06008598      2.04240732
H      -3.30340448      2.34501709      1.64731685
H      -4.22250980      2.53782621      2.87417792
O      -4.41460035      4.97307299      1.38984143
H      -4.68848022      4.08687489      1.13203687
H      -3.90280715      4.85539703      2.21056217
O       4.69963548     -3.35994339     -0.69658640
H       3.84698272     -3.84842327     -0.56484828
H       5.40259265     -3.99794651     -0.57076399
