101
charge=0
O      -1.76347138     -5.53330427      4.09467100
N      -2.65099770     -3.46259781      4.32554346
N      -2.93486047     -2.32866202      3.86157267
N       4.96755651      2.35394710     -3.63783755
N       5.81733603      1.32104072     -3.56130201
O       2.05424159      0.47437078     -1.04520792
C      -1.90292770     -4.38923133      3.69935800
C       3.90103282      2.13082880     -2.90110895
C       5.29112620      0.40213639     -2.76032715
C      -0.46587331     -4.72819765      1.75813103
C       5.74463840     -0.88247055     -2.39507215
C      -1.18782927     -3.84484905      2.47964337
C       4.01641080      0.87134407     -2.27447670
C      -1.53751259     -2.53710358      2.05431159
C       4.92417523     -1.62674433     -1.61600661
C       3.23847060      0.04986880     -1.47179999
C      -2.61843177     -1.88058367      2.65967811
C       1.54417530     -0.68419699      1.02137242
C       0.63470867     -1.41827489      1.75700999
C       0.01013393     -0.71220247     -0.83830375
C       1.21827613     -0.32927994     -0.28182812
C      -0.59108207     -1.78931428      1.20838716
C      -0.91030847     -1.44975662     -0.10831364
N       3.71513965     -1.16340694     -1.16594434
C      -3.17402998     -0.57963377      2.21452037
C      -2.16406401     -1.91672551     -0.77156053
H       3.09008582      2.82682761     -2.86696913
H      -0.23081569     -4.54760777      0.72264534
H      -0.21914713     -5.68875166      2.17558031
H       6.69040546     -1.25767620     -2.74515289
H       5.15870077     -2.63018220     -1.30208287
H       2.48267237     -0.37531698      1.45455864
H       0.85683396     -1.69516904      2.77532345
H      -0.21111138     -0.43437500     -1.85458064
H       3.11699715     -1.85601965     -0.68745358
H      -2.40124478      0.03132606      1.75793954
H      -3.60511609     -0.05504016      3.06090404
H      -3.95830908     -0.73522900      1.47593455
H      -2.78819790     -1.07248814     -1.05655982
H      -1.90454956     -2.45592180     -1.68071346
H      -2.73513831     -2.57586629     -0.12461838
O      -1.59950391      4.53575427      0.97676144
H      -1.16307531      3.66145334      0.84624836
H      -1.28516666      4.85738024      1.82300821
O      -5.17257415      1.32974610      0.61086125
H      -6.01688700      1.77997997      0.65144692
H      -4.55377916      1.88491395      1.15002012
O       3.53257583      4.89268432     -1.28074736
H       4.21380329      4.34239212     -1.68087793
H       3.59269140      5.75719155     -1.69219309
O      -1.28393412     -3.21993911      6.85463181
H      -2.09976104     -3.15153955      6.34321440
H      -1.14515053     -4.17813427      6.98629117
O      -4.15220615      0.53030796     -1.71833113
H      -4.84789425      0.70437430     -2.35342975
H      -4.50870247      0.79561583     -0.83835679
O      -1.94602540      2.06967819     -1.88653330
H      -1.28508910      1.69790428     -2.49142888
H      -2.72264850      1.47696458     -1.88464023
O      -1.18994007     -5.94339417      6.74202224
H      -1.87034759     -6.50295272      7.11994290
H      -1.34747704     -5.93552891      5.78102432
O       1.16907155      3.36278617     -1.43469407
H       0.41575456      3.98086227     -1.59904122
H       1.94667256      3.90946560     -1.25066604
O       0.81119919     -3.18223843     -2.58452808
H       1.13024840     -2.33367388     -2.96692574
H       1.01529802     -3.85261219     -3.23874668
O      -3.64368793      2.94736120      2.03406945
H      -3.21893266      3.64022442      1.50562436
H      -2.90394748      2.56522495      2.54762839
O      -0.89204417     -0.09570545      4.65441706
H      -1.61575760     -0.23144777      5.26844573
H      -0.33478090     -0.89393587      4.71742966
O       3.38467648     -0.67407067     -5.86700640
H       4.24117332     -0.19446053     -5.92521147
H       3.52031560     -1.48913887     -6.35224821
O       5.78833581      0.54167386     -6.14445479
H       5.99408352      0.81586892     -5.21979135
H       5.74036005      1.35960028     -6.64307423
O       0.48352430     -2.43054102      5.02221582
H      -0.13830082     -2.75246151      5.72180627
H       1.33509644     -2.35503413      5.45636926
O       2.27817731     -3.35207168     -0.34504833
H       1.69772026     -3.37026629     -1.14018613
H       1.70544638     -3.40586679      0.42244189
O       1.80002355     -0.92543466     -3.64169374
H       1.30212556     -0.09457412     -3.57408859
H       2.36612434     -0.83682453     -4.43028008
O       0.40625846      1.51608708     -3.30606633
H       0.81618329      2.02937529     -2.57733644
H       0.53383251      2.03940760     -4.09976403
O      -1.10584201      4.71739560     -1.74940112
H      -1.59764146      3.89974524     -1.92840367
H      -1.34102822      4.94701492     -0.83711445
O      -1.26719236      2.14159309      3.06183067
H      -1.09307303      1.37959987      3.63447327
H      -0.81457174      1.96774231      2.22525785
O      -0.46040995      2.15902570      0.37160833
H       0.33305536      2.46881012     -0.10310739
H      -1.10771999      2.00209187     -0.34686455
