106
charge=0
O      -2.87739866     -2.33865943      0.91162648
O      -3.29105765      0.69016279      1.88032730
O       5.76741084     -0.66060554     -1.61950508
C      -3.42681373     -1.67806960      0.04807252
C      -2.14835650      0.31020453      1.67117777
C       6.00894303     -0.70024798     -0.43331147
C       3.25235587      0.59374517      0.12284326
C       4.31766574      0.23520537      0.84743637
C       1.94182024      0.08380042      0.42679860
C       0.83795783      0.18465397     -0.33182445
N      -1.93817025     -1.17089752     -1.73503278
C      -4.82317848     -1.94542485     -0.38680076
C      -1.19166134      0.07195724      2.78612506
C       6.42721293     -1.96423424      0.25370601
C       0.76546140      0.99821599     -1.58767324
C      -0.71652456     -1.64410276     -1.09725347
C      -2.70502226     -0.54531424     -0.66194976
C      -1.65641073      0.13908951      0.26207013
C      -0.35534310     -0.65308633      0.04095076
C       6.66312816      0.69417667      1.64406766
C       5.73723269      0.51672083      0.44755903
H       3.38597167      1.20602650     -0.75711675
H       4.19344251     -0.41870258      1.69999775
H       1.90276062     -0.53615222      1.31032467
H      -1.72492637     -0.46263033     -2.43581046
H      -5.46941111     -1.45183354      0.34830116
H      -5.02676769     -1.54068585     -1.37143242
H      -5.04401838     -3.00982730     -0.35094016
H      -1.56260744      0.50593965      3.71035098
H      -0.20752868      0.45944495      2.55025945
H      -1.09725272     -1.00322627      2.93986879
H       6.71702302     -2.70478811     -0.48757343
H       5.56665602     -2.34482186      0.80596407
H       7.24247611     -1.79607586      0.94936180
H       1.46115869      1.83218653     -1.55832250
H       1.02813934      0.38130390     -2.44674920
H      -0.23267970      1.39844686     -1.74261911
H       0.08962703     -1.74887395     -1.81747660
H      -0.91690894     -2.62879477     -0.66595674
H      -3.43253640      0.16039304     -1.06306866
H      -1.54013705      1.16856283     -0.10514397
H      -0.09904180     -1.23135991      0.92601852
H       6.44325136      1.63777711      2.13995258
H       7.70342668      0.71446410      1.32654853
H       6.52865839     -0.10525704      2.36814847
H       5.77494854      1.39953141     -0.19830922
O       3.36349148     -2.99526513      1.04726134
H       3.12996880     -3.92488064      1.02658594
H       2.77583282     -2.59390151      1.71708270
O      -1.47102384     -1.46277365     -5.88339110
H      -1.51180862     -2.13739651     -5.14393255
H      -1.77973245     -1.91233100     -6.66997297
O       0.00562551      4.65428311      0.23585792
H      -0.38130498      4.10892071     -0.46591523
H      -0.76871167      4.95253187      0.73823201
O       0.89470185     -0.32611421     -5.08956528
H       1.56948233     -0.22742817     -5.76197241
H       0.12734984     -0.75776806     -5.51414713
O       1.68571706      0.33296288      4.39959342
H       2.39187166      0.92656747      4.08400195
H       0.92267010      0.90530012      4.54376366
O      -2.58252927      4.73522668      1.26993596
H      -2.64752587      4.14650332      2.06345586
H      -3.26012988      5.40187168      1.38321153
O      -1.01622196     -3.12098958      2.97309943
H      -1.40602451     -3.05293310      2.09279533
H      -1.76511542     -3.21996437      3.57258797
O       3.10009874     -2.15251461     -1.62388092
H       3.92554958     -1.70881844     -1.84206649
H       3.16766787     -2.40895447     -0.68819986
O      -5.59276744     -0.86599511      2.44877805
H      -4.98258979     -0.12851346      2.32722119
H      -5.14508752     -1.47402593      3.05127012
O       3.33388543      2.17478554      3.17516424
H       3.89510470      1.71707581      2.54172836
H       2.59773439      2.54592407      2.65838502
O      -1.90996575      3.03480972     -0.88249919
H      -2.58411211      2.74407887     -1.52054167
H      -2.37312570      3.54315930     -0.20001160
O       1.21926520     -2.68172210     -3.57060770
H       1.26904480     -1.83527262     -4.04066560
H       1.90479644     -2.63893656     -2.88304311
O      -0.14168355      2.64491415      4.13822633
H       0.24543025      3.34143723      4.67070030
H       0.28452549      2.70781802      3.25596731
O      -2.76938871      3.11085621      3.35164785
H      -3.11838381      2.28081307      2.99898741
H      -1.88345048      2.91378037      3.70824070
O      -3.61142775      1.98269382     -2.77158831
H      -2.92894786      1.50691896     -3.27877241
H      -4.06324577      2.55263223     -3.39509214
O      -1.63754049      0.66549913     -4.13252697
H      -1.83851340     -0.00981790     -4.79827021
H      -0.68272084      0.78951560     -4.18280997
O      -1.46447434     -3.10866012     -3.86183558
H      -0.49880521     -3.15250022     -3.71370013
H      -1.82480561     -2.62716335     -3.10245867
O       1.63290135     -2.00850682      2.92713953
H       0.80408697     -2.47502697      3.09479944
H       1.66513410     -1.25729006      3.54809777
O       1.06833890      2.77459161      1.72977071
H       0.74262375      3.54767069      1.19796214
H       1.05803398      2.01621716      1.13159951
O      -3.91918501     -3.06605227      3.37011099
H      -3.65693565     -2.86953137      2.45418358
H      -4.52885839     -3.80433410      3.32864406
