98
charge=0
O       0.97472930      1.87551137     -1.19487780
Cl      2.97526494      2.01057049      4.94569977
N       0.74554049      0.26360014      3.22121297
N       3.82524143      2.15581724      2.50513250
N       2.93770184      1.09462301      0.56151153
O      -4.30346470      0.78517206     -0.84711380
C       0.20601643     -0.31170597      2.19193364
C       3.81682167      1.88549993      1.18582052
C       2.88834774      1.65774360      3.27380881
C       1.96925488      0.63980867      1.34217663
C       1.86865770      0.88148791      2.73589725
C      -2.97105951      1.08749148     -1.00047034
C      -2.53012303      2.35175859     -1.40136855
C      -2.04032127      0.09315167     -0.66248769
C      -1.16942182      2.56738926     -1.45803215
C      -0.68850755      0.39688407     -0.71603459
N       4.73604788      2.52318629      0.44310202
N       0.89357028     -0.12861611      1.02452405
N      -0.28606328      1.62198087     -1.12502044
C      -5.13347327      0.86436489     -2.00913733
C      -3.45717291      3.46068116     -1.77338616
C      -2.52281644     -1.26215064     -0.26307457
C       0.41873987     -0.53277504     -0.28076364
H      -0.69586924     -0.88818725      2.22623756
H      -0.75422720      3.51435155     -1.76876073
H       4.92837721      2.24108462     -0.53296276
H       5.46239746      2.99280710      0.95553687
H      -5.84480633      1.68506227     -1.90056166
H      -5.67799696     -0.07901011     -2.07853068
H      -4.53775867      1.00584968     -2.90930429
H      -4.32560520      3.47884609     -1.11995395
H      -3.79113979      3.31401344     -2.79937203
H      -2.94070548      4.41386408     -1.71501131
H      -3.52996615     -1.42337232     -0.63295739
H      -2.54062533     -1.35494925      0.82116918
H      -1.88276324     -2.04026396     -0.66268214
H       0.06615772     -1.56212634     -0.21971314
H       1.25627487     -0.45531278     -0.97806651
O       2.08372501      0.80793823     -3.37980098
H       1.68986126      1.20022525     -2.57030266
H       2.74548220      0.18472641     -3.05114870
O       3.78728152     -0.40646507     -1.60822102
H       3.43379525      0.13608773     -0.87174907
H       4.47743825     -0.96267173     -1.20431107
O      -3.16995678      1.55922422     -4.43313744
H      -3.27230541      1.58837656     -5.38557911
H      -2.20627524      1.60270008     -4.28146819
O      -0.39768225     -3.74400747      0.34451928
H      -0.11863934     -4.49477889     -0.18188409
H      -1.32109090     -3.96408370      0.64729924
O      -0.47113097      1.75112961     -4.16787740
H       0.30449431      1.17848224     -4.17278722
H      -0.12112372      2.64204763     -4.38785406
O      -2.78821592     -4.42776571      1.17726447
H      -3.54789140     -3.89537566      0.88785630
H      -2.76866859     -4.32782135      2.14405976
O      -0.42738500     -2.89667319      4.95264020
H      -1.22399739     -3.32430798      4.59851890
H       0.19889358     -2.86504794      4.21551882
O       0.75989113      4.12981952     -4.53805744
H       0.53867205      4.63397966     -3.73817897
H       1.70495638      3.91326309     -4.46221623
O       2.53502608      4.01596565     -1.11925422
H       3.26674335      3.86031410     -0.51420002
H       1.96197753      3.21982220     -1.06014495
O       5.23347920      1.87156307     -2.16229652
H       4.81651818      0.99137875     -2.18992522
H       4.74904584      2.41981833     -2.80466434
O       3.29086441      3.22415058     -3.66469033
H       3.03798868      3.59847456     -2.80151653
H       2.86581945      2.34262039     -3.71291817
O      -2.86414189     -3.62717585      3.80218895
H      -2.88914148     -2.68957699      3.47651872
H      -3.52542077     -3.69722722      4.49117740
O       3.07843390     -2.19128297      1.17965472
H       2.68730155     -2.33996229      0.31531756
H       2.45253383     -2.55919149      1.82870274
O      -5.18482577     -0.18443814      1.64998088
H      -4.80424576      0.14305582      0.81712628
H      -6.00052061      0.30027187      1.78709478
O       1.05294747     -3.40907302      2.57857908
H       0.46993940     -3.50157236      1.78988096
H       1.28018954     -4.29765174      2.85972187
O       0.42075132      5.46079429     -2.09064028
H       1.20506407      5.06475384     -1.67078893
H       0.60860541      6.39476799     -2.19085261
O      -2.83099741     -1.11535607      3.00412275
H      -3.65043191     -0.62881540      2.86948284
H      -2.35491584     -0.71923574      3.78633679
O       5.53133505     -1.70063444      0.06139240
H       6.07898295     -1.09743512      0.56593796
H       4.78890311     -1.95074182      0.63608028
O      -1.35577212     -0.34821882      5.02547306
H      -0.60096758      0.12564816      4.64388178
H      -0.99900042     -1.24201589      5.21586679
O      -5.10051189     -2.88926738      0.89171465
H      -5.82919312     -3.33630673      1.32401027
H      -5.07576097     -1.98197017      1.23864789
