72
charge=0
O       1.14685257      0.86243109      2.61653677
O       0.25110925     -1.21488344      4.20346203
Br      0.52281778      1.45842982     -0.21591697
Br     -1.73960453     -3.35431298      3.59539274
Br     -1.39584262     -0.91288501     -1.46935000
Br     -2.79667126     -3.04187414      0.47428405
C       0.28375204      0.10095514      2.21602300
C      -0.17801067     -1.06420286      3.07666748
C      -0.18067603      0.10779384      0.82997358
C      -1.15288550     -1.95512293      2.47715604
C      -1.02331270     -0.82806357      0.33863883
C      -1.56352212     -1.84394416      1.19233074
O      -0.46531481     -5.66830096      1.05839396
H      -0.96203991     -5.34983518      1.81765316
H      -1.04628249     -6.25957132      0.57489630
O       3.00526614     -0.51145855     -0.53337285
H       2.67057449     -0.84547222      0.30948361
H       2.96449635     -1.25991648     -1.14071013
O       1.16557781      3.49882442     -2.78839614
H       1.82210848      2.78750683     -2.60458888
H       1.62091910      4.15445829     -3.31811175
O       1.32726988      3.60735233      3.13947252
H       1.59848824      2.79095740      2.69897878
H       0.89016455      3.32035507      3.95063730
O      -1.19858159     -3.97142041     -2.71935093
H      -1.13783957     -3.24715642     -3.37311617
H      -2.13028482     -4.04480920     -2.50437767
O       0.18508140      1.75328005      5.04239538
H       0.77455802      1.20981263      4.49176857
H       0.12149942      1.30647766      5.88830546
O       2.23847663     -2.68413544     -2.24369779
H       1.56746896     -2.99334464     -1.59670102
H       2.49818922     -3.45934437     -2.74405885
O      -0.38887589      4.81254968      1.50409224
H       0.31256137      4.40281995      2.06419072
H      -0.51689968      5.70288600      1.83281233
O      -0.93107234      4.59925236     -1.27262382
H      -0.16615989      4.25458256     -1.75749436
H      -0.64507357      4.69724734     -0.35375951
O       2.81755449      1.41044504     -2.55865496
H       2.27106456      0.75482822     -3.01773172
H       3.03349050      0.99579302     -1.71043079
O      -1.55411132      0.91933315      3.03681488
H      -1.84668440      1.64856369      2.40889578
H      -1.17891153      1.36939288      3.81639548
O       0.34515633     -3.59131780     -0.56183240
H      -0.25849529     -3.71135181     -1.33424946
H       0.23164179     -4.39816071     -0.03046866
O      -2.41249403      2.35237861     -1.33811852
H      -2.04524558      3.26190286     -1.38236961
H      -1.99379783      1.91096421     -2.09497537
O      -2.26338394      2.82750171      1.42112630
H      -1.65584681      3.58761480      1.47807799
H      -2.31850638      2.61841102      0.47199354
O      -1.12216560     -1.79344040     -4.39296243
H      -0.27896652     -1.33749533     -4.22981114
H      -1.78925426     -1.10529702     -4.43156754
O      -3.49890300      0.32765955      0.35027915
H      -3.33051824      0.97439177     -0.35360722
H      -3.83915893      0.83454393      1.09005478
O       1.89974397     -3.52646695      3.70402639
H       1.44846600     -4.35066077      3.89932544
H       1.50699267     -2.85003058      4.26936998
O      -0.73125331      1.55140374     -3.48960020
H      -0.08797198      0.83700166     -3.51204932
H      -0.21122546      2.35168558     -3.31265775
O       1.59594099     -2.02614989      1.41571709
H       1.22244606     -2.61543194      0.74026278
H       1.92022234     -2.59885014      2.13293127
O       1.35451529     -0.67116839     -3.81132123
H       1.87667605     -0.78074742     -4.60887889
H       1.64347874     -1.37366911     -3.18631212
