82
charge=0
O       1.91077034     -1.48114866      0.84118577
O       0.77524314      2.72210822     -1.38388237
O       1.23167779     -2.97463491     -0.71785886
O       2.38078092     -4.13035300      0.96897179
C       1.53467662     -1.73790546     -0.26991335
C       0.96737923      1.56836279     -1.82218400
C       2.27692318     -5.32746802      1.57798832
C       1.36074729     -4.05900614      0.09931673
C       1.20802412     -6.01649727      1.10117829
C       0.59922274     -5.18805008      0.12630026
C       0.96193461      1.23921803     -3.21450093
C       1.15656642     -0.04449647     -3.62428198
C       1.33892721     -1.06982263     -2.68133075
C       1.34729722     -0.73554704     -1.35231122
N       1.18036881      0.54199326     -0.95528740
H       3.01019520     -5.55443739      2.32441926
H       0.87826929     -6.98693701      1.40564853
H      -0.27908054     -5.38997491     -0.44906998
H       0.82812186      2.04749889     -3.91585724
H       1.16860422     -0.28536413     -4.67596953
H       1.47624164     -2.08967728     -2.99210713
H       1.29982924      0.77922951      0.06618963
O      -1.02680669     -1.28793593      0.28331975
H      -1.34580519     -0.65765835     -0.37807411
H      -1.83841327     -1.69462475      0.65581005
O      -0.33002686     -0.10304055      2.59850723
H      -0.55559934     -0.56272178      1.76010226
H       0.50167973      0.36485109      2.39620668
O       1.61187784      1.44220412      1.55487953
H       1.10800603      2.28583661      1.54033337
H       2.56127406      1.67489975      1.45268079
O      -1.26301638     -2.53265703     -2.68751777
H      -0.77823607     -2.83578310     -1.91314369
H      -2.10989828     -3.01813864     -2.68425129
O       4.84382953      4.90153298     -1.08331440
H       5.33036083      4.33064766     -0.48290632
H       3.95904387      4.99648503     -0.69934080
O      -3.76424985     -3.59668218     -2.40300797
H      -4.41676671     -3.71006567     -3.09425638
H      -4.05217780     -2.79434870     -1.87529051
O      -1.93365555      2.04265712      2.47053833
H      -1.40155768      1.21650176      2.55881857
H      -2.15406766      2.31457937      3.36173108
O       4.01267182      3.41372331     -3.23406472
H       4.44503560      4.02561600     -2.60851284
H       3.13988816      3.80875469     -3.41399797
O      -0.05412231      3.52602584      1.21127161
H      -0.82516404      3.11129827      1.65004054
H      -0.13433732      3.30755147      0.27176715
O      -2.06262055     -0.10071655     -1.99987082
H      -1.95998283      0.56659851     -2.67814197
H      -1.73318210     -0.95582541     -2.37598078
O       3.97135243      2.38878746      0.73384526
H       3.99289811      1.90497631     -0.11536377
H       3.51498095      3.22565979      0.54164450
O      -2.80579176     -4.65847754      1.68407131
H      -1.97187114     -4.65601785      2.19488226
H      -2.58163479     -5.00395402      0.80259840
O      -2.47203031     -5.51040076     -0.93247774
H      -2.97100779     -6.32394255     -1.01776349
H      -2.95622297     -4.83401361     -1.44074717
O       2.31715807      4.49563276      0.00953867
H       1.83666666      3.86003186     -0.55391741
H       1.70547909      4.68965280      0.72726025
O      -3.33538283     -2.15145344      1.35266506
H      -3.48820740     -1.77856457      2.22145219
H      -3.19852918     -3.13698801      1.48615780
O       1.51904180      4.59658633     -3.22868133
H       1.12119471      3.96619581     -2.59713616
H       1.64376630      5.41709024     -2.74792037
O      -4.34476529     -1.43214218     -1.08164697
H      -4.12666954     -1.64948129     -0.15744157
H      -3.66400118     -0.80223122     -1.37091376
O       0.99162244     -2.36635519      3.39838965
H       0.44012472     -1.56459804      3.33425432
H       1.61624760     -2.28009816      2.66727275
O      -0.53564655     -4.53454412      3.15693389
H      -0.59056907     -4.87464933      4.05033790
H       0.02775274     -3.72652725      3.21380887
O       3.90456310      1.24179214     -1.74860497
H       3.91550989      2.03148877     -2.35282004
H       4.69658010      0.74690600     -1.96042256
