109
charge=0
O      -0.13411545      1.24157901      2.46751301
O      -1.32881976     -0.86783786      2.70176638
O       0.89936207      3.29314380      1.44340518
O       2.21220255      1.95044715      3.03931904
O      -2.07256373      1.05339144     -0.12329417
O      -3.12784952      0.02414034     -2.09963371
O       2.38690102     -0.40676789     -4.03572987
O       0.14738123     -0.31285878     -4.48806608
O       2.08280469     -0.62656166     -1.75454143
O       1.06405632     -0.86012196      2.21411960
O       2.04932962      1.18284787      0.66643918
O      -1.03728616     -0.83242682     -1.20834617
C       1.67019499     -0.58861381     -6.32695482
C       1.52621929      1.60075852     -5.07560027
C       1.77080680     -1.14344287     -3.01136944
C       1.42893399      0.08017106     -4.97133454
C       1.01303459     -0.97160721      0.80062183
C       0.26068632     -0.95919355     -3.25127882
C       1.10650286      0.33779986     -1.37826123
C       0.63977987     -0.44486545      4.57708574
C       3.49981901      3.19131138      1.15823083
C      -3.00904500     -1.53195924      0.15990420
C       0.97300721      0.41029632      0.14080861
C      -0.20413171     -0.09248523     -2.06039258
S      -0.15005082     -0.09285805      3.00822562
S       1.99685847      2.40033514      1.67875554
S      -2.49341290     -0.14195900     -0.81694261
H       1.63354341     -1.66850669     -6.21312396
H       2.64578869     -0.29989497     -6.70410439
H       0.89849017     -0.27766752     -7.02331748
H       1.20646937      2.06550262     -4.14852009
H       2.55420814      1.88051206     -5.28375030
H       0.88462113      1.95059661     -5.87780773
H       2.12705334     -2.17767402     -3.03113133
H       0.13563049     -1.54406531      0.49368900
H       1.92004739     -1.50301033      0.50316552
H      -0.30571390     -1.89221444     -3.27426600
H       1.40248434      1.33163770     -1.73846794
H      -0.09389578     -0.46426660      5.36893811
H       1.37331771      0.33317209      4.73417714
H       1.10878795     -1.40913847      4.44299623
H       3.34062026      3.50817958      0.13242916
H       4.30892230      2.47955551      1.23136085
H       3.67074682      4.03849423      1.80760589
H      -2.68450475     -1.34124758      1.17216268
H      -4.08115431     -1.64140847      0.10558859
H      -2.49585090     -2.38716104     -0.25412737
H       0.03516399      0.91579272      0.37426876
H      -0.75094935      0.78386282     -2.41296390
O      -0.38262396      4.87793952      3.37124789
H      -1.27073432      4.54224699      3.17225995
H       0.16363968      4.54525059      2.64593528
O      -1.29748703     -3.63758158      1.98802382
H      -1.29303267     -2.71816365      2.28178787
H      -0.93657261     -3.65396739      1.08254670
O      -2.38637399     -2.85442383     -2.68355444
H      -3.11959634     -3.39969530     -2.33930819
H      -2.72002915     -1.95247992     -2.72249601
O      -0.53594290     -3.57132785     -0.65357670
H      -1.08611050     -3.38533735     -1.43186359
H       0.37437797     -3.65089244     -0.98428487
O      -2.17148989      3.06134381      2.33314891
H      -1.38840155      2.48462118      2.38992331
H      -2.13735186      3.42883165      1.43287568
O       0.34332299      2.83719068      4.94465774
H       0.04181428      3.69041540      4.55843675
H       1.02224774      2.52765979      4.33015819
O      -4.56239047      0.53439070      0.03673157
H      -4.34424769      0.65793436      0.99963489
H      -4.75849005      1.40471773     -0.31734333
O      -3.66998978      0.84207863      2.51102152
H      -3.23603039      1.71461533      2.39652180
H      -2.95296990      0.20678307      2.63366506
O       2.07686010     -3.91034571     -1.51089105
H       2.23319436     -4.84116384     -1.33805873
H       2.70300736     -3.41738281     -0.94616745
O      -1.48767017      0.98555425      4.59487710
H      -2.33046261      1.37349548      4.33058061
H      -0.87788932      1.74636569      4.81433764
O       2.47364921      3.36154933     -1.62428427
H       1.67176443      3.48251435     -2.14847651
H       3.09392061      2.83036233     -2.15512503
O       3.88846794     -0.14307568      2.57747844
H       3.39735884      0.63797055      2.87542300
H       3.21928388     -0.82848866      2.48163028
O      -2.09258883      1.68645349     -4.11882359
H      -2.65298369      1.18858477     -3.50495185
H      -1.54773293      1.03231756     -4.57087178
O       4.16806911      1.47131043     -2.72901939
H       4.61932777      1.01757329     -2.01032850
H       3.64234393      0.79949641     -3.18522684
O      -0.15230025      3.12232099     -2.70650064
H      -0.59285579      3.49814877     -1.92550778
H      -0.86860129      2.83734632     -3.29925533
O       4.49808292     -0.05065582     -0.09041636
H       4.47450496     -0.01859601      0.88653779
H       3.61907625      0.22889506     -0.37134964
O      -1.28785250      3.60482660     -0.22932499
H      -0.44673536      3.58311247      0.25254489
H      -1.59527406      2.68271886     -0.28344210
O      -4.39428277     -4.11559029     -1.31648638
H      -5.29234399     -3.78351837     -1.29835664
H      -4.13686020     -4.26250487     -0.38210510
O      -3.77276687     -4.45001297      1.30177902
H      -3.82230959     -5.36652537      1.57719461
H      -2.88988339     -4.13199789      1.59799177
O       3.91870943     -2.67903571      0.08818123
H       4.17500771     -1.75409031     -0.12257409
H       4.73569197     -3.14360334      0.27617495
