87
charge=0
O       2.82414801      3.78825248     -2.64360324
Cl     -2.11189007      0.69443186     -6.28375701
Cl     -2.80662417      3.44303578     -6.02339520
Cl     -0.04777876      2.67055509     -5.95774613
N       1.71083822      4.26011281     -2.93613099
C       0.60478899      3.46913431     -2.93909954
C      -0.69750747      4.14360601     -2.92164522
C       0.64773882      2.12120613     -3.15099920
C      -1.77525575      3.48018387     -3.33426127
C      -0.73408132      5.53754175     -2.39259854
C      -0.25074607     -0.05846916     -3.91314948
C      -3.07645149      1.38816878     -3.49259085
C      -1.68041232      2.18826320     -5.42816173
C      -0.56723435      1.29449517     -3.28383200
C      -1.76464513      2.07137760     -3.88861399
H       1.60685207      1.62709010     -3.23390937
H      -2.74081352      3.95971857     -3.30756899
H      -0.44040624      5.52606451     -1.34449992
H      -0.02233318      6.15628734     -2.93395363
H      -1.73006521      5.96023676     -2.48034190
H       0.48682125     -0.56905546     -3.30093243
H      -1.14007348     -0.67520281     -3.96186735
H       0.15716338      0.05624723     -4.91292312
H      -3.20324435      1.49335373     -2.41850947
H      -3.91797638      1.85821856     -3.99353137
H      -3.06910427      0.33064307     -3.73462913
H      -0.89071434      1.11211787     -2.24474158
O      -2.80076319     -2.10946928     -3.10916096
H      -1.96265790     -2.54860152     -2.87285731
H      -3.30882936     -2.74337003     -3.61741295
O       3.75344394     -1.11953926     -1.21648697
H       3.82864824     -0.16819886     -1.36799355
H       4.01599998     -1.25919700     -0.28722129
O       0.14001250     -2.44851866      1.17221801
H       0.56465585     -2.24216238      0.31624582
H      -0.46911114     -1.69411812      1.32379271
O       1.24016288      1.03170308     -0.29377336
H       2.14346811      1.22426213     -0.56703066
H       1.26415647      0.94629842      0.69091585
O       3.88071595      1.75500255     -1.28663256
H       3.42714308      2.48183429     -1.78212162
H       4.81207511      1.86934524     -1.48851197
O      -1.74325319      1.51343834      3.42297091
H      -1.51383864      1.29744884      4.32716382
H      -1.15376407      2.24864295      3.14865582
O       2.09945068     -1.54051142      2.77996839
H       1.79462713     -0.62070494      2.82051477
H       1.40978999     -2.01938138      2.27138130
O      -0.40922095     -3.31637179     -2.45153631
H       0.12391331     -2.62747639     -2.00098800
H       0.17451303     -3.74437711     -3.07860240
O      -1.71850485     -4.07573149     -0.06011810
H      -1.10072617     -3.62479280      0.54421361
H      -1.29214011     -4.03743633     -0.92695768
O       1.56803504      1.14107409      2.34235920
H       2.51376152      1.38317540      2.21483334
H       1.10463647      1.95101353      2.60219073
O       4.08558541      1.50255808      1.54983411
H       4.32548807      0.55794489      1.57567579
H       4.04901069      1.73789452      0.61234214
O      -2.27951325      1.61777435     -0.34810138
H      -1.86299280      0.84756986      0.08257839
H      -3.03838166      1.82170401      0.23573213
O       1.13002157     -1.51655322     -1.17112442
H       2.10972809     -1.54007977     -1.26072104
H       0.93512606     -0.59332134     -0.91226255
O      -4.07290780     -1.10673721      1.52965326
H      -4.09243584     -1.60900409      0.66648070
H      -4.42247251     -1.71032847      2.18565179
O      -0.27520929      3.29180466      0.04334713
H       0.37155528      2.60444897     -0.19455783
H      -1.13678345      2.84437822     -0.13543103
O      -4.04284214      1.69562474      1.69623289
H      -4.28379963      0.75951996      1.62142750
H      -3.38980778      1.73773372      2.40749460
O      -0.01110463      3.39600466      2.61352621
H      -0.01964792      4.30988970      2.89727359
H      -0.13556689      3.41017238      1.61319155
O       4.31336586     -1.23053235      1.45272376
H       4.97644254     -1.78827988      1.85891667
H       3.46296920     -1.40221772      1.95822379
O      -1.49105272     -0.34016905      1.40858734
H      -1.42491594      0.27502167      2.15915699
H      -2.40432497     -0.69203133      1.45294872
O      -3.90948542     -2.58672819     -0.59675531
H      -3.19005714     -3.20547151     -0.34263647
H      -3.62438235     -2.19617866     -1.43915218
