85
charge=0
O       2.11349185     -3.41538227     -1.61533525
O       0.69885951      0.56031349      0.42344085
Cl     -1.44694887      5.83925927     -2.33080912
S       0.42699753      0.00319735     -4.53876637
C       1.68204423     -2.26671866     -1.60521454
C       1.00425988     -1.52985993     -5.08350529
C       1.45948275     -1.44159443     -0.50064070
C       1.44508624     -2.28250929     -4.06509613
C       0.92172009     -0.16791068     -0.57576183
C       0.81697145     -0.42609336     -2.93009875
C       0.32158680      3.87270322     -2.85366961
C      -1.54027824      3.30131991     -1.42619920
C       0.80169638      2.58090416     -2.74638244
C      -1.05958216      2.00930454     -1.31764184
C      -0.84649407      4.22506019     -2.19327059
C       0.10472928      1.65413037     -1.98297598
N       1.33538757     -1.65608514     -2.85011872
N       0.61008557      0.33176740     -1.85105080
H       0.97362931     -1.78330601     -6.12192921
H       1.69795133     -1.82589746      0.47550542
H       1.84942173     -3.27685571     -4.08630499
H       0.85303686      4.60389202     -3.44070872
H      -2.43499379      3.59790131     -0.90400055
H       1.71492941      2.29344978     -3.24233807
H      -1.59084693      1.27017069     -0.74161633
O       3.53848227      0.88363731     -1.32114390
H       3.40779028      1.74067672     -0.87819223
H       3.93495765      0.29600126     -0.65757059
O      -4.22358441      1.52598933     -2.81208700
H      -4.42304273      1.36824997     -1.86892186
H      -3.93914532      2.43851172     -2.88048878
O       2.25742004     -0.80910035      3.93815996
H       1.32981548     -0.96451404      3.69214774
H       2.74729371     -1.55605964      3.53872761
O       2.96931645      3.07012910      0.27395462
H       3.04020687      2.53876535      1.08252631
H       2.06915590      3.40282103      0.24356247
O      -0.91836985     -3.02946682      1.07737000
H      -0.65441537     -2.34810613      1.72452480
H      -0.14432045     -3.61040932      1.01921006
O      -2.08586803     -0.18097445     -3.01361496
H      -2.22117737     -0.87568956     -3.67105654
H      -2.88149676      0.38088083     -3.02976483
O      -2.41499312     -0.42829946      0.48848347
H      -2.21204089      0.08244260      1.30423419
H      -2.25975990     -1.35450387      0.69868693
O      -1.76724565     -2.73752810     -4.26773095
H      -1.49709893     -2.81041137     -3.33434812
H      -2.42195356     -3.42372312     -4.40456312
O      -1.97486747      1.13109461      2.64922689
H      -1.32489244      1.80871253      2.40563390
H      -2.84796822      1.58991626      2.61825659
O      -4.61846269      0.90584958     -0.17329453
H      -3.81145003      0.36350409     -0.00214146
H      -5.36711287      0.31872374     -0.05840414
O      -4.15167897      2.52324123      2.07084061
H      -4.43085751      2.08313821      1.25176668
H      -3.63766053      3.30131795      1.79789946
O       1.61197281     -4.33142578      0.86698372
H       1.73984109     -5.27842670      0.93210851
H       1.84583353     -4.08066117     -0.05662956
O       2.69574997      1.08200235      2.19015223
H       2.58570000      0.47274461      2.97183370
H       1.99130341      0.81618072      1.56908505
O      -0.14408616     -0.88923960      2.60000081
H      -0.85081580     -0.33990714      2.96626382
H       0.17169994     -0.40279908      1.81240839
O      -2.22932266      4.40804157      1.40502468
H      -1.38900447      3.92636198      1.44778102
H      -2.11030625      5.21961977      1.89948710
O       3.30743083      0.44486813     -3.97095792
H       4.17788370      0.50968405     -4.36614521
H       3.44039239      0.60048149     -3.01563318
O       3.39538389     -2.70072896      2.34605248
H       2.78452828     -3.29855570      1.88631979
H       3.79142095     -2.12419591      1.67482817
O       4.45651807     -0.48507887      0.92144923
H       3.88599222      0.12620771      1.44900797
H       5.35065216     -0.36510657      1.24342511
O       0.09157973      2.83092820      1.68280540
H       0.23108001      2.09425785      1.05412051
H       0.78914918      2.74597016      2.34036173
O      -1.23793251     -2.46299202     -1.60810644
H      -1.18106149     -2.72192556     -0.67046937
H      -1.63157061     -1.57876492     -1.63896391
