96
charge=-3
O       3.96917305     -2.14037152     -0.62167258
O       2.41463051      2.53542537     -0.06523602
O       1.49669760     -1.77504153     -1.09442525
O       3.25184577     -0.86388181     -2.69746732
O       1.44863462      0.75591323      1.51056579
N      -0.66306796      0.84469496     -0.63285139
N      -0.44133327      0.71897970     -2.84799696
N      -4.73439385      1.16678085      4.08603739
O       3.03551953      0.15202361     -0.39781223
C      -1.29741153      0.74130138     -1.78894727
C       0.74346061      0.80722753     -2.28219692
C      -5.01233884      1.90714701      3.01575861
C      -3.93819897      0.11122846      3.89325144
C      -4.59516556      1.06292901     -3.47929012
C      -5.48019409      0.89786081     -2.42542068
C      -3.23575263      0.98132411     -3.24595618
C      -4.55255623      1.64220902      1.74732413
C      -3.41022533     -0.24355427      2.67914191
C      -5.00353887      0.63876239     -1.15555374
C      -2.73566044      0.73914581     -1.96852818
C      -3.72054891      0.52599106      1.54221707
C      -3.63327068      0.55348408     -0.89997755
N      -3.16280493      0.20781042      0.35372223
N       0.63145747      0.88259795     -0.95986509
P       2.91326342     -1.28650858     -1.28135283
P       1.95905272      1.13639006      0.15808256
H       1.68348622      0.80358463     -2.78758058
H      -5.64245034      2.76922004      3.20570135
H      -3.72487470     -0.47100543      4.78004546
H      -4.96276069      1.25236394     -4.47759398
H      -6.54774838      0.95437285     -2.59548459
H      -2.53114798      1.11770787     -4.05145374
H      -4.79340113      2.30353808      0.92943445
H      -2.75944506     -1.09540785      2.57708406
H      -5.69711514      0.46649312     -0.34446046
H      -2.44060111     -0.55200181      0.38301318
O       5.59858712      0.39738372     -1.93322352
H       4.82822808     -0.12769504     -2.22824524
H       5.65491772      0.23037926     -0.98826892
O       5.03121193      1.86465817      1.51223115
H       5.17046183      0.91108829      1.37846319
H       4.21354839      2.07014093      1.04567137
O       4.18156362      2.74820441     -2.28128158
H       3.55796349      2.73481036     -1.53571401
H       4.78346636      1.99553427     -2.11409013
O       3.38382930     -2.88709701      1.97530780
H       2.45760540     -2.59926671      2.00978246
H       3.60784963     -2.76363994      1.03167208
O      -1.01823702      1.16806635      4.50338938
H      -1.08533085      1.48894643      3.57385529
H      -0.10334084      0.89093037      4.58139586
O      -6.12216401      0.85153358      6.58641035
H      -5.33282335      0.79661189      7.14813232
H      -5.76707529      0.99648181      5.69222210
O      -3.52760203      0.69382716      7.78303563
H      -3.10696614     -0.05615522      7.35741635
H      -3.27571725      1.46437725      7.21682969
O       0.80813964     -1.86221022      1.44255000
H       1.00849682     -0.92316481      1.62498224
H       1.10965989     -1.95095765      0.50190027
O      -0.80293815     -2.78489267     -1.92050765
H       0.07086868     -2.44336674     -1.62387809
H      -0.92420964     -2.40794970     -2.80706797
O      -3.25507078     -1.76049636     -5.33600700
H      -3.58165506     -1.26564093     -4.58062501
H      -2.29346179     -1.80599534     -5.18652006
O      -0.63504336     -1.58763753     -4.46372189
H       0.27617100     -1.96309759     -4.45834416
H      -0.54028255     -0.70084039     -4.07737002
O      -2.88931594      2.51569201      5.93655699
H      -3.63083218      2.32608658      5.34411198
H      -2.11936013      2.11516624      5.48399984
O      -1.71153187     -2.02933228      0.54272314
H      -0.82352156     -1.94907074      0.96683561
H      -1.50406878     -2.34219884     -0.35905072
O       0.49522216      4.36114509      0.95407576
H       1.23483071      3.85419020      0.57988701
H      -0.04104121      3.69118926      1.40082764
O       1.79572237     -2.65069639     -3.99852213
H       1.51191310     -3.12574653     -3.21168583
H       2.37440346     -1.94371648     -3.61629014
O      -0.82118199      1.99010903      1.97402919
H      -1.27763124      1.64901445      1.19362768
H       0.07820254      1.58405355      1.87475833
O       5.45841817     -0.91089996      1.16695094
H       4.99906128     -1.30203071      1.91867013
H       4.90735573     -1.23912834      0.41066176
O       0.79928961      1.90911978     -5.47051758
H       1.72350963      1.71343861     -5.21873103
H       0.27896511      1.56900702     -4.73579598
O       6.50206911     -3.19528821     -0.46418575
H       5.58868190     -3.00765892     -0.74662241
H       6.65040809     -2.50401581      0.19088197
O       3.30493657      1.28674449     -4.44828125
H       3.34345620      0.43921324     -3.96979457
H       3.60411479      1.94183109     -3.78547143
