89
charge=0
N      -4.35910915      2.32319005      0.56196011
O       1.78220755      4.37284275     -3.48178509
O      -1.88869380      1.53823286      2.67811473
N       2.48415878      3.64984918     -2.73505424
N      -3.43425614      1.70908569      0.43726406
O       1.35489823     -2.25305064     -0.44627116
C      -1.51280615      1.00854557      1.60561102
C      -2.33036059      1.05737387      0.39369617
C      -1.91425051      0.39635235     -0.79251080
C      -0.74026851     -0.28060221     -0.82301738
C      -0.28966325      0.30398752      1.47073572
C       0.09685009     -0.31497634      0.31915783
N       2.60258003      2.42517896     -3.03986298
C       1.42236250     -1.03185621      0.28187494
C       3.19996201      1.51681712     -2.10087988
C       2.54059773     -0.15041870     -0.30604194
C       2.06778168      0.69538830     -1.48012348
H       0.42136498     -2.60438518     -0.36469454
H      -2.55977710      0.44515453     -1.65368911
H      -0.44542857     -0.78715759     -1.72473334
H       0.34194445      0.26729227      2.34247084
H       2.10846557      1.98955298     -3.84064592
H       1.70533177     -1.27097348      1.31425533
H       3.71873140      2.10079674     -1.34003237
H       3.89767313      0.86637812     -2.63320865
H       3.35230505     -0.80967403     -0.61682483
H       2.91022837      0.50643553      0.47849682
H       1.30027263      1.38629552     -1.12743172
H       1.64289547      0.06171313     -2.25649510
O       0.42575125      5.35431866     -1.22557589
H       0.84333403      5.14368172     -2.07648743
H       0.82182472      6.17463804     -0.92776793
O      -3.61107064     -1.96671035     -0.61726677
H      -2.80920398     -2.26249318     -0.16589644
H      -4.12031223     -1.48832975      0.05807315
O      -0.45311879     -1.41334027     -4.09922918
H      -0.58996664     -1.74027245     -4.99046600
H       0.36697536     -1.84424840     -3.77207753
O      -0.01422670      3.37244023     -5.27004147
H       0.59658703      3.79872070     -4.62861700
H      -0.02231792      3.93643882     -6.04386257
O      -1.01810118     -2.35018131      2.96256991
H      -1.04388649     -3.22457069      2.55110003
H      -0.09385048     -2.20072678      3.21444482
O      -4.75669712     -0.61811676      1.49164643
H      -5.64713038     -0.87327790      1.73515998
H      -4.20975963     -0.74581381      2.30345440
O       1.95870205     -4.03223989      1.68566878
H       1.96156323     -3.52993857      0.85676924
H       1.98066633     -3.36707949      2.39356163
O       1.70389050     -2.02806266      3.63478706
H       1.94578616     -1.06694625      3.64007197
H       1.93111696     -2.35309147      4.50732983
O       3.41044682     -0.59198460     -4.41355187
H       2.96987894     -1.32934449     -3.97277359
H       2.70164601     -0.07064426     -4.81021634
O       1.76772371     -2.54138254     -3.06592251
H       1.93379604     -3.48070250     -3.15496448
H       1.70306791     -2.36118689     -2.09823717
O       2.22114182      0.56310416      3.76412812
H       2.46980249      1.13136488      3.01077628
H       1.47290337      1.01727808      4.19178303
O       1.01201098      0.90069128     -4.89669513
H       0.51687343      1.69462000     -5.17371343
H       0.35892256      0.27838402     -4.54327909
O      -2.16830766     -3.19557091     -2.68362481
H      -1.70716450     -2.47697048     -3.14405746
H      -2.92722205     -2.78539992     -2.24375292
O      -0.09063564      1.75224829      4.67353189
H      -0.74636398      1.60026934      3.95344985
H      -0.51200681      1.46586306      5.48443077
O      -0.61948418      4.03085574      2.93406834
H      -0.08505211      3.64343929      3.63749777
H      -1.40365305      3.46881463      2.88485237
O      -3.17992516     -0.80976055      3.64761289
H      -2.80207752      0.07493029      3.56193243
H      -2.45189105     -1.42736539      3.44906446
O      -1.06227502     -3.21023915     -0.25625264
H      -1.08240682     -3.99705208      0.30625200
H      -1.40381416     -3.43768372     -1.14930393
O       0.40773236      3.19842734      0.52130195
H       0.41753089      3.92273992     -0.12953625
H       0.01545711      3.58724056      1.32659626
O       2.65483466      2.35450419      1.72023893
H       1.83597598      2.58962561      1.22391755
H       3.01015136      3.18135885      2.04940255
O      -0.54270015     -4.92801643      1.80740891
H       0.41784460     -4.69117480      1.77642877
H      -0.60178448     -5.78944639      2.22010326
