66
charge=0
F       0.57324087      0.14425564      1.54493979
F       0.56565970     -0.00249592     -1.13091912
F       0.09311677     -3.34956505     -0.00838746
F      -1.33826244     -1.78454987     -1.47211649
S      -0.79273523     -0.92742255      1.11909207
S       0.30487452     -1.67358666     -0.60030546
O      -4.32473875      0.19615343      0.88616437
H      -3.68247646     -0.40714108      1.26954672
H      -4.18197521      0.14176870     -0.08163030
O       2.25791168     -1.89851086      3.00853150
H       2.03129852     -1.87533205      2.06514820
H       1.43785462     -2.14639268      3.46429117
O       3.45318334      0.02562552     -2.23680077
H       3.77638472      0.01483546     -1.33352359
H       2.73209657     -0.62157117     -2.29329228
O      -0.05084718      2.00893225     -3.28859856
H      -0.36478622      2.48258238     -4.06005326
H       0.92501582      2.18354893     -3.23029399
O       2.69964110     -3.78100894     -0.96345087
H       2.01948970     -4.37134984     -0.62733853
H       2.35109029     -3.39618923     -1.77869571
O       1.60917923     -1.99574864     -2.81722774
H       2.13573507     -2.21895969     -3.59378256
H       0.83966743     -1.46084966     -3.20290447
O       3.08475445      0.62266899      0.67489328
H       3.10092413      0.69986239      1.71757274
H       2.47355336      1.43089176      0.29007230
O       1.81268535     -1.60542277      0.23863780
H       2.54011353     -0.21150059      0.50232321
H       2.34217490     -2.37502116     -0.06362569
O      -3.99039287      2.88847299      0.75848477
H      -4.21998993      1.95263743      0.93217979
H      -3.47377633      2.87391385     -0.05624009
O      -0.46848544      2.69698780      1.17593009
H      -1.08185739      3.21907239      1.74798211
H      -0.43626351      1.81593958      1.56330583
O      -1.85101432      2.40325310     -1.17183782
H      -1.20155212      2.29889644     -1.88295022
H      -1.34466961      2.47456038     -0.33933403
O      -2.48232657     -2.19373857      0.88227124
H      -2.24130582     -3.04762873      1.34995924
H      -2.52336467     -2.37287613     -0.06616035
O       3.12689544      0.55634244      3.19529886
H       2.72438867     -0.35575743      3.25486902
H       4.00088579      0.49451361      3.58388347
O       2.53168628      2.45438503     -3.02622443
H       2.94113495      1.58035892     -2.86676763
H       2.59744454      2.92884517     -2.19139392
O      -3.39851532      0.20987967     -1.65852714
H      -2.74560402     -0.49361160     -1.64223492
H      -2.89768425      1.03842016     -1.52961510
O      -2.35582063      3.90400072      2.55155784
H      -2.48955802      4.85138354      2.51430406
H      -3.05501389      3.50963187      1.96468976
O      -1.50924685     -4.28885833      2.11860774
H      -1.07927036     -3.83597288      2.86388672
H      -0.82274153     -4.42602933      1.45742432
O      -0.36141273     -2.38081750      3.78465238
H      -0.56519035     -1.78994354      3.02727450
H      -0.82756316     -2.02554758      4.54322614
O       1.63350650      2.37523259     -0.33853551
H       1.14398893      1.76323871     -0.91216693
H       0.96025116      2.67125529      0.31818321
O      -0.33180784     -0.64064831     -3.81181321
H      -0.22785430      0.30478926     -3.56794655
H      -1.08268650     -0.96305723     -3.30500149
