83
charge=0
Cl      5.45554244     -0.89529303     -1.59890541
Cl      6.35261393      0.06357853      1.04857371
C       2.16446354     -0.23300999      1.69849268
C       1.75175517     -0.63782336      0.49745212
C       1.29257926      0.00860940      2.89466455
C       0.33987750     -0.90468114      0.08674116
C       4.63571554     -2.45127516      0.82891925
C       3.63399492     -0.01853940      1.86711851
C       2.79407020     -0.82936593     -0.55429896
P       4.45126645     -0.69708802      0.30729131
H       1.79549637      0.66182985      3.60349546
H       1.08280000     -0.93789883      3.39071520
H       0.34405110      0.46071490      2.61875697
H       0.21333635     -1.96598919     -0.11035988
H       0.11201598     -0.37126933     -0.83306855
H      -0.36565270     -0.60967167      0.85196146
H       4.75647175     -3.09078397     -0.04244385
H       3.72817823     -2.73408570      1.35805557
H       5.49144434     -2.57536045      1.48779644
H       3.86490706      1.03461898      2.03862329
H       4.02228542     -0.56818792      2.72695980
H       2.68612165     -0.09720461     -1.35113897
H       2.72271450     -1.81558023     -1.01305378
O      -2.22599331      2.48609068      0.09082403
H      -2.85611236      3.01792271      0.60832913
H      -1.96548411      1.76511826      0.68446285
O       1.28774522     -4.27814676      0.35786622
H       1.99811007     -3.98707413     -0.22957175
H       0.56399690     -4.49282819     -0.25307510
O       1.29520808      1.69144032     -2.60152906
H       0.95639722      2.40545708     -3.14318574
H       0.75468011      0.89306120     -2.84267623
O       0.56950006     -3.29862576      2.73187372
H       0.67311554     -4.08965157      3.26262977
H       0.86548496     -3.55075721      1.82820806
O       2.25500109     -1.74088931     -4.22786610
H       2.49590120     -2.03961202     -5.10514978
H       2.81344404     -0.93709506     -4.05360478
O      -0.44929295     -4.58666080     -1.79993991
H      -0.87525390     -3.71930512     -1.97499713
H      -1.14586607     -5.24324870     -1.82065842
O      -1.84139108     -2.16501313      2.56050176
H      -2.33120910     -2.60455985      3.25655750
H      -0.92105622     -2.51758832      2.59315007
O      -2.58635928      2.39717940      3.94106513
H      -1.90112228      3.06023509      3.76430725
H      -3.39404105      2.76713037      3.56983785
O      -0.18207157      4.19980908      0.49325742
H      -0.90297674      3.61689497      0.16967250
H       0.63551637      3.68997767      0.36131320
O      -4.11272842      0.19509100      0.27575875
H      -3.50564619      0.35399576      1.02571170
H      -3.85709116      0.84175959     -0.38840823
O       1.80501233      2.38451293     -0.04755818
H       1.56265948      2.17066107     -0.97482424
H       1.55055254      1.60731835      0.47130968
O      -1.08670188      4.54353400      2.91261577
H      -0.65438429      4.41048693      2.02108891
H      -0.66067739      5.30505170      3.30577073
O      -3.57427222      4.19065018      1.82416629
H      -3.92790998      4.97837543      1.41051765
H      -2.72181034      4.44245767      2.23204298
O      -3.05822736     -2.28072172      0.03007164
H      -2.56165617     -2.29964323      0.86387654
H      -3.57295953     -1.44764562      0.05926290
O      -2.09003241      0.54168294      2.07701872
H      -1.99205611     -0.37465873      2.38395663
H      -2.25999621      1.10414201      2.86244238
O       4.30455504      1.48886376     -0.49297099
H       5.06143600      2.01265494     -0.21694370
H       3.47419619      1.96663301     -0.26835912
O      -0.02033365     -0.43855223     -3.40800156
H       0.71463876     -0.98168844     -3.74628498
H      -0.58637085     -1.04243094     -2.90047363
O      -1.75770821     -2.26690713     -2.21828144
H      -2.46812642     -2.29506109     -2.86106159
H      -2.20401798     -2.22614986     -1.32435800
O       2.28928499     -3.64902767     -2.18599269
H       2.37128629     -3.00119083     -2.90443837
H       1.44659365     -4.09445198     -2.32921216
O       3.58913588      0.48900230     -3.75949455
H       2.94149189      1.04686582     -3.29939641
H       4.27664144      0.26261307     -3.11421304
