82
charge=0
Cl     -0.68604094      5.02203784      3.18899174
Cl     -1.83445773      3.49807297      5.33841159
Cl      0.97761968      4.19057131      5.39569633
N       0.34561684     -0.33822313      5.98917738
N       0.45594109     -0.87424474      4.81709258
N      -0.03084021      2.32931283      2.38418723
C      -0.05247520      2.41449974      3.67108804
C       0.17359338      0.97642610      5.87447749
C       0.16868290      1.29381042      4.51664766
C       0.51638222     -0.18676615     -0.19973716
C       0.68820251     -1.34367075      0.56115336
C       0.28910824      1.02807798      0.40282650
C       0.64063050     -1.28358263      1.93589767
C       0.22715039      1.12354663      1.79852067
C       0.41851940     -0.05622477      2.55226818
N       0.36436974      0.07906784      3.91243314
C      -0.37341642      3.72127193      4.33099899
H       0.06077055      1.60737970      6.72951818
H       0.56767830     -0.24537885     -1.27381854
H       0.86709090     -2.28584526      0.07098545
H       0.15857595      1.91859937     -0.18399998
H       0.78426174     -2.15700878      2.55088863
O      -2.14321979     -2.02497934      4.30628977
H      -1.37806653     -1.94498851      4.88842364
H      -1.89689709     -2.68750915      3.63733944
O      -2.26967289      1.34837020     -1.97264933
H      -1.58685185      2.04402411     -1.92817946
H      -2.43571023      1.05973225     -1.06272277
O      -2.49188575      0.41095651      3.22743162
H      -3.11926465      0.90324287      3.75874393
H      -2.42235510     -0.48605537      3.62581510
O      -1.06131236     -2.98559677     -2.40924467
H      -1.38144385     -2.84160208     -1.50199557
H      -1.23231265     -2.14848424     -2.87601608
O      -1.37677688     -0.51503315     -3.58405189
H      -1.85400831     -0.37966315     -4.40281271
H      -1.71862869      0.17150965     -2.94939885
O      -1.95020478     -3.97865049      2.34612884
H      -1.76062861     -4.90885770      2.47263072
H      -2.93315228     -3.86965860      2.42405082
O      -4.76187422     -1.55962411      0.49496676
H      -4.14114575     -0.79273528      0.51041543
H      -5.51233401     -1.29902442     -0.03870210
O      -4.46615111     -3.25231777      2.64252059
H      -4.34426934     -2.69116288      3.41372866
H      -4.68170467     -2.66170971      1.89818534
O       4.34524101      0.25822844      0.74238494
H       3.74704077      0.51656086      1.46906750
H       3.95316174     -0.50004942      0.28403464
O       3.28795593     -1.40014568     -1.17085475
H       3.18823954     -0.72325937     -1.84598392
H       2.76409023     -2.15130599     -1.48076668
O       3.00033257      3.59411680      1.12763310
H       3.33825927      3.20007332      0.30600429
H       2.15279600      4.01533422      0.88279384
O      -2.72224782      0.16504568      0.53628223
H      -2.17332863     -0.62162206      0.36878345
H      -2.59067469      0.39016307      1.47642672
O       1.55695377     -3.14564357     -2.51847875
H       1.78711645     -3.90519067     -3.05342899
H       0.56580807     -3.15072757     -2.43733198
O       1.39063279     -0.52870631     -3.48601669
H       0.43176400     -0.48242001     -3.63664611
H       1.56509691     -1.45250296     -3.24312491
O       1.91935548      2.10463750     -2.87274816
H       1.80186797      1.17593379     -3.13297480
H       2.63386453      2.12396575     -2.21226608
O      -2.07799214     -2.46444395      0.08323118
H      -1.83721964     -3.01424083      0.84874556
H      -3.04169025     -2.51110438      0.01558508
O       0.53323768      4.43716131      0.35607974
H       0.08540466      3.90268386      1.02544336
H       0.24913685      4.09208625     -0.50670075
O       3.97130410      2.13567190     -1.03735007
H       4.14487039      1.39914440     -0.38491689
H       4.82982662      2.41872039     -1.35323648
O       2.92017142      1.50291080      2.74024436
H       3.62536905      1.66140248      3.37058438
H       2.90007284      2.31771993      2.16971773
O      -0.26840631      3.23644346     -2.02836199
H       0.56844304      2.79636363     -2.35462137
H      -0.47452700      3.91172743     -2.67597102
