85
charge=0
F       5.75302087     -2.28492730     -2.58951585
F       3.99298116     -2.15720771     -3.82237102
F       4.55011314     -0.50694096     -2.57749683
F       4.69240163     -4.54527353     -1.76623021
F       2.76544091     -4.25056781     -2.67984416
F       2.93069500     -4.47952291     -0.55537809
F       3.63583283      0.87600575     -0.29668190
F       2.94446204      0.77464968      1.72750028
F       4.97020359      0.25182502      1.25982383
F       2.93896813     -3.29559870      1.85444761
F       4.04984169     -1.72737646      2.79327939
F       1.93123805     -1.54703044      2.56857155
N       2.33503001     -1.82921209     -1.50759057
C       2.04125339     -1.26228574     -0.37654639
N       0.93498274     -0.63685971     -0.11889786
N       4.25284537     -1.98980398     -0.20389854
C       4.49797654     -1.83785289     -2.62401725
C       3.51279614     -3.92804143     -1.62419930
C       3.71533000      0.15733751      0.82396204
C       3.03607514     -1.96904468      1.95287470
C       3.63720384     -2.39175015     -1.45842307
C       3.26561698     -1.30390606      0.58592887
H       0.20985435     -0.62782646     -0.86625212
H       0.67848766     -0.23255800      0.79228791
H       4.83318899     -2.69087286      0.26863780
O       5.63419257     -4.13401187      0.94162835
H       6.30491772     -4.52052318      0.37302275
H       5.06191844     -4.84384384      1.24446743
O       0.26486678     -3.30111612      0.92491106
H       0.60954992     -4.14604832      1.21821989
H      -0.19217687     -2.89554127      1.69015583
O      -0.48567190      1.79483928     -0.85771212
H      -0.34745172      2.33359052     -0.05624391
H       0.26354106      2.00437072     -1.44973410
O       0.66959580      2.56606226      3.58568166
H       1.58986004      2.86758641      3.38752397
H       0.42780925      2.95294569      4.42753862
O      -3.52737315     -1.40144538      2.47330417
H      -2.68088276     -1.76902934      2.76905282
H      -3.72239794     -1.83951677      1.62898828
O       1.68208442      2.30889101     -2.36751948
H       2.37503077      2.30490030     -1.70004150
H       1.78802087      1.50411301     -2.89730693
O      -0.86304835     -2.04016693      3.06262424
H      -0.57234340     -1.14086446      2.76858121
H      -0.45615067     -2.18341593      3.91748370
O      -3.86593508     -2.26899345     -0.15543037
H      -3.62179971     -1.40573205     -0.54609297
H      -4.71171590     -2.51092163     -0.53408309
O      -1.74995314     -3.98891051     -0.79943615
H      -1.02894984     -3.71877749     -0.20087986
H      -2.50634833     -3.42559327     -0.57029886
O      -2.74020270      2.77410699     -1.75383583
H      -1.85510413      2.41761090     -1.45770058
H      -2.57448220      3.29594159     -2.53832336
O       3.08111244      3.44565044      2.88442233
H       2.91068239      3.51824047      1.92077963
H       3.77667105      2.79424228      2.98486610
O      -0.21712626      3.57665983      1.16787594
H      -0.04095825      3.25085890      2.06535902
H      -1.19079697      3.74451259      1.12297231
O      -0.55886237     -3.19690325     -3.02310040
H      -1.06656784     -3.60378517     -2.27745955
H       0.34311829     -3.50914652     -2.93180339
O      -0.14704155      0.34425181      2.15800672
H       0.20337761      1.06278734      2.70550086
H      -1.04135818      0.64047113      1.83680955
O       2.34870126      3.55218603      0.27072778
H       2.52003586      4.33827155     -0.25011301
H       1.39887519      3.58302511      0.49721930
O      -3.06636973      0.10836161     -1.13706125
H      -2.20384436     -0.13795206     -1.53228305
H      -3.25986812      0.99594354     -1.47490723
O      -2.60818721      0.87540997      1.42786997
H      -2.70140840      0.62385851      0.48471317
H      -3.06051473      0.15640125      1.92451489
O      -0.75787041     -0.69993332     -2.23852195
H      -0.23265316     -0.18821352     -2.86540746
H      -0.73127304     -1.63627000     -2.56445505
O      -2.85272079      3.56597065      0.93735851
H      -2.92213746      2.65899193      1.28405968
H      -3.00171789      3.47273122     -0.01662698
O       1.57615401     -0.16614852     -3.66410251
H       1.90675652     -0.50155692     -4.49893946
H       1.80359623     -0.82454110     -2.98458675
