77
charge=0
O       2.87280483      0.34923942      0.66891199
Br      3.19817148     -1.13225423      3.66080015
Br      0.18257371     -0.32851387     -1.00536410
N       2.08447120     -3.43634362      2.61028157
O       1.65046433     -3.97795126      1.43144248
C       2.54472281     -0.71505125      0.19555801
C       2.51762889     -2.23076060      2.34210434
C       2.36796460     -1.93700371      0.96228539
C       1.81312484     -3.08940947      0.45421408
C       1.41791887     -3.30769041     -0.95067078
C       2.02947473     -0.85891539     -1.21939582
C       2.12463075     -2.25309786     -1.81063177
H       1.67403641     -4.31864412     -1.27011156
H       0.32754259     -3.20814904     -1.03191148
H       2.47725159     -0.11767613     -1.88102264
H       3.18989488     -2.48536008     -1.88433074
H       1.70221203     -2.24598277     -2.81629404
O       0.89130703      0.11199475     -4.12940062
H       0.94616127      0.38213520     -5.04665839
H       0.04452420     -0.37620021     -4.04073771
O      -1.88272296     -2.92511738     -1.26521007
H      -2.03639090     -1.96128344     -1.31454981
H      -2.72048972     -3.30128592     -1.56902337
O       5.57916935      1.14543767      0.42520854
H       5.58573380      1.94454485     -0.10790251
H       4.99842162      1.35204114      1.18123104
O      -3.56683056     -0.32534558      0.96718576
H      -3.02822309      0.41835149      1.27748563
H      -3.08228976     -1.13179030      1.22953862
O      -1.62354634      1.51164542      1.44640163
H      -1.26167094      2.28554926      1.88687335
H      -1.61424684      1.73150203      0.48550019
O       4.84370435     -1.28009157     -0.50937734
H       5.12323891     -0.37288828     -0.24957443
H       5.50802994     -1.85806524     -0.12903092
O       0.17468227     -0.41996622      2.15303006
H      -0.24221345     -1.04896819      2.75122499
H      -0.52648384      0.20204527      1.87207282
O      -3.08212316     -0.44274760     -1.66160025
H      -3.77489494     -1.05545850     -1.95405525
H      -3.27541202     -0.28963028     -0.70705303
O       0.42585125      2.47717173     -2.71978013
H       1.20554687      2.61415599     -2.16242945
H       0.59450936      1.65442227     -3.21168647
O      -1.43804778     -1.24829151     -3.81236500
H      -1.99011177     -0.70682097     -3.22959112
H      -1.33930945     -2.08857765     -3.35408511
O      -1.75116113      2.22547323     -1.14609290
H      -2.27793977      1.51507555     -1.52489140
H      -0.98838624      2.34108160     -1.75762701
O       4.09203928      2.29658231      2.47912889
H       4.41485686      2.11643682      3.36192029
H       3.10882385      2.14532188      2.51684207
O       4.45782798      4.05899506      0.44388678
H       4.38077176      3.49969698      1.24297863
H       4.16256853      4.93363609      0.69967900
O       2.53699793      2.63151009     -0.84434040
H       3.24940089      3.23610990     -0.56589841
H       2.67825834      1.82737982     -0.31061196
O      -2.47159423     -2.79762714      1.40384001
H      -2.08623592     -2.95124432      0.51868923
H      -1.76338827     -2.87121952      2.05619697
O       0.38503152      3.49816646      0.58769027
H       1.14162183      3.27190704      0.01047069
H      -0.38813671      3.44106700      0.01817654
O       1.47508497      2.03585894      2.68021243
H       1.19906230      1.12273870      2.50483390
H       1.06668034      2.58312399      1.98642463
O      -0.61033773     -2.84705474      3.54975089
H       0.23805330     -3.30978209      3.53086709
H      -0.98825510     -2.98230921      4.42067726
O      -5.17212892     -2.61735962      0.66342135
H      -5.12482758     -1.66591915      0.82256414
H      -4.36731132     -2.96823144      1.07246943
O      -4.59384901     -2.79292274     -1.92740897
H      -5.34973852     -3.09449640     -2.43048322
H      -4.87862428     -2.77332200     -0.97993434
