97
charge=0
S      -1.41949878      1.33056534     -1.19319450
Br      1.37093597      3.01641807      0.85339918
N       0.99082354      0.22246541     -0.38898595
S      -3.51442761     -0.05313717      0.31885566
S       1.40053212     -0.49060555      2.10541498
C      -1.81650503      0.22042591     -0.05915399
C       0.42189541     -0.23967665      0.64807703
C       4.98517004      1.44443224     -0.42765966
C       4.61909269      0.23001721     -0.98391625
C       4.02150729      2.26951549      0.12663641
C       3.30052161     -0.17996694     -0.96390767
C       2.70241274      1.86127179      0.12794825
C       2.31894798      0.62298912     -0.38698780
N      -0.92995539     -0.50257292      0.68167073
C      -4.31753368      1.10664839     -0.81220351
C      -1.92394699     -1.99813318      4.01617815
C      -1.58823121      0.38040814      3.32451033
C       0.33988693     -1.20968891      3.39690605
C      -1.36475390     -1.50572139      1.63686892
C      -1.14366536     -1.06330423      3.09296336
H       6.02048247      1.74852769     -0.41128719
H       5.36629101     -0.41099086     -1.42531759
H       4.29811126      3.21210837      0.57044309
H       3.01503292     -1.13428421     -1.37432971
H      -5.38533447      1.01947133     -0.63730559
H      -4.07420455      0.83257451     -1.83472474
H      -3.97762585      2.11563562     -0.59839357
H      -1.64903992     -3.03487074      3.83724188
H      -2.99006460     -1.89205430      3.83708349
H      -1.71214821     -1.75373877      5.05330042
H      -1.39941782      0.65182185      4.35967273
H      -2.64982193      0.49009880      3.11725740
H      -1.03677888      1.07820415      2.69698691
H       0.62438492     -2.26068986      3.46791750
H       0.60712486     -0.69670206      4.32203123
H      -0.78435848     -2.41304286      1.44105134
H      -2.41450256     -1.73911178      1.46611972
O       2.30824823      4.09865274     -2.33965931
H       1.81713626      3.37679519     -2.78952063
H       1.98468010      4.91109439     -2.73408972
O      -5.50714706     -2.36869119     -1.82440448
H      -4.73548297     -2.92998493     -1.47565435
H      -6.12246990     -2.99359907     -2.21082194
O      -4.22387605     -3.27214540      1.73636957
H      -5.01092608     -2.74840406      1.46761976
H      -4.55398861     -4.00278291      2.26063873
O       0.69827517     -0.38520225     -3.09396260
H      -0.20144174     -0.54639349     -3.42520714
H       0.60643415     -0.19371977     -2.14069355
O       1.66823850     -2.89141123     -2.84807273
H       1.00712111     -3.35050407     -3.37931467
H       1.49188837     -1.94143087     -3.01488140
O       4.74738145      5.09019953      2.10010154
H       4.29965205      5.41350833      1.28383068
H       5.13187191      5.86092631      2.51736434
O       3.44607278      3.24396778      3.60212494
H       2.56108936      3.30352376      3.23225672
H       3.97897893      3.91105328      3.12544162
O      -0.85199883     -3.28901062     -4.16248818
H      -1.49901200     -3.88491810     -4.54176783
H      -1.07711818     -2.39368470     -4.46883054
O      -3.59103527     -3.78617507     -0.87664488
H      -2.78143348     -3.27271677     -1.10682279
H      -3.70247285     -3.68151270      0.08710636
O       0.71006179      2.30595620     -3.53892905
H       0.93443924      1.35562197     -3.51864618
H      -0.02828875      2.39321514     -2.92732243
O      -6.28128010     -1.83252052      0.74650694
H      -6.10138361     -0.91596382      0.96145135
H      -6.06513975     -1.94329117     -0.20238192
O       0.88550869     -3.14743652     -0.31274787
H       1.14699873     -4.01428035      0.00077226
H       1.30183498     -3.04966937     -1.20462750
O      -1.43011565     -2.40419244     -1.56485242
H      -0.66057559     -2.64000485     -1.01750714
H      -1.21887927     -2.72852650     -2.45534091
O       3.61567380      5.81765192     -0.21189510
H       4.25696342      5.54963581     -0.89735175
H       2.82453522      5.30110330     -0.39740914
O       4.99423991      4.48876037     -2.18843456
H       4.07527031      4.22224322     -2.38461993
H       5.43994485      3.69956346     -1.87565316
O      -4.29724524     -0.65755687     -3.55475486
H      -4.67150223     -1.26626459     -2.88321949
H      -4.95451610     -0.58050655     -4.24750291
O       4.47154561      0.68280053      3.25541813
H       4.23116194      1.62798602      3.25923050
H       3.83718901      0.24495076      2.68522833
O       0.84346253      0.40031537      6.05232028
H       0.73426026      0.34542686      7.00226276
H       1.75049008      0.75269035      5.91944889
O       3.36490580      1.34499454      5.73982964
H       3.86824803      0.81060625      5.10498129
H       3.33987322      2.22064247      5.33271533
O      -1.73111374     -0.70754326     -4.45303699
H      -1.65559516      0.12375639     -4.92528949
H      -2.60259868     -0.69748515     -4.00817996
