87
charge=0
Cl     -0.62074806     -4.00609227      4.47069678
Cl      0.04440782     -1.32814209      2.96582016
Br     -0.98810564      2.79891543     -4.38637743
N      -3.22121534      0.48475899     -1.83981337
O      -3.24219751     -1.64027540     -1.15414782
C      -1.04994223     -2.33118210     -2.81513334
C      -1.57820097     -3.25912228     -2.02443291
C      -2.73471568      1.48989513     -2.55869422
C      -2.66862294     -0.71080564     -1.94746101
C      -2.01382192     -4.65783720      2.25477863
C      -1.08069733      0.06381299     -3.55126776
C      -2.51040616     -4.42211513      0.98648127
C      -1.43758543     -2.27796839      0.95783288
C      -1.22954531     -3.70443335      2.88279137
C      -0.94337104     -2.51305343      2.22745182
C      -1.66610303      1.31691890     -3.41601205
C      -1.58805212     -0.98586289     -2.80245245
C      -2.22473522     -3.23290149      0.33270556
C      -2.71037902     -2.96977896     -1.08021929
H      -0.21460795     -2.53891179     -3.46322043
H      -1.19577499     -4.26441786     -1.96964762
H      -3.21542574      2.44779301     -2.42563398
H      -2.22339063     -5.58735978      2.75947529
H      -0.22823480     -0.08326862     -4.19665759
H      -3.11017421     -5.17664958      0.50211424
H      -1.18131672     -1.36205207      0.44852811
H      -3.55514206     -3.64089638     -1.29893907
O      -0.18165581      0.19548180     -0.46840177
H      -0.08504644      0.79153051      0.29936693
H       0.31074716      0.67584996     -1.16551267
O       3.30272255     -1.58680359      0.96253429
H       3.40181280     -2.53311145      1.16206701
H       3.17382584     -1.15304485      1.82778891
O       3.52744599      0.92943389     -0.35609208
H       2.75793104      1.15039954     -0.91051160
H       3.43064761      0.01735810     -0.04913428
O      -0.04422715      3.89076141     -1.14180640
H       0.31196017      4.76195070     -1.31862550
H      -0.98040474      4.03801493     -0.85090340
O       3.09473869     -0.31000849      3.38679841
H       2.84277915      0.54827283      2.94064937
H       3.96650767     -0.14974795      3.75273205
O      -2.41950420      4.28416090     -0.07219408
H      -3.23803284      4.20097394     -0.59604419
H      -2.53142446      3.69374637      0.68615631
O       0.74705795     -4.34362074      0.24843738
H       1.53625141     -4.42101026      0.80020618
H       0.92447358     -3.58504553     -0.33053802
O      -4.78043643      3.86673000     -1.36377579
H      -5.11389857      3.01496276     -1.00096028
H      -5.49392019      4.49934876     -1.27914240
O      -2.47077558      2.32472775      1.97094387
H      -2.12608282      2.18818521      2.87051258
H      -2.91173589      1.49903542      1.71641184
O       0.12078944      2.34401989      1.13718541
H       0.20632071      2.92996465      0.36400738
H      -0.80846862      2.42789323      1.42753651
O       1.45680347     -1.90737150     -0.96289609
H       0.78737747     -1.21726010     -0.79267873
H       2.10575804     -1.81570130     -0.23550475
O       2.64763435      1.87826138      2.04814563
H       3.10539630      1.67661573      1.20491384
H       1.73098200      2.07337590      1.79095333
O      -0.74012559      1.74171825      4.01839627
H      -0.00739777      2.31736246      3.78226951
H      -0.43285889      0.84290274      3.86218818
O       1.89666141      0.64114998     -4.43903942
H       2.40542741     -0.04289715     -3.93912458
H       2.51882766      1.06801274     -5.02865399
O      -5.45501759      1.43901744     -0.43529354
H      -5.15065556      1.22986672      0.45432477
H      -4.81764132      0.99517340     -1.02443767
O      -3.74133920     -0.07663037      1.30149815
H      -3.82967356     -0.81841940      1.90147723
H      -3.55884116     -0.44318742      0.42434533
O       3.22511347     -0.97838937     -2.80398769
H       3.73676673     -0.40985624     -2.21839235
H       2.55698756     -1.41713748     -2.23471610
O       1.41277766      1.67916072     -1.99436568
H       0.96579793      2.53455529     -1.91415934
H       1.50608826      1.46551278     -2.94444923
O       2.58840718     -2.93129312      4.22014451
H       1.66452992     -3.05394738      4.45910223
H       2.69080640     -1.98941720      4.00347240
O       3.13033848     -4.15635008      1.90212531
H       3.77027201     -4.85730893      2.02718548
H       2.92682982     -3.79521485      2.79612974
