95
charge=0
O       3.26896220      0.15380175      1.30835999
O       0.26344515     -4.65464565      1.67550164
O       2.29054175      0.25350428     -3.74236798
N      -1.43355319     -3.32515869      1.04619231
N      -1.17146908     -0.94822294      0.91966413
O       0.69221470      1.74820193     -3.37859360
O       0.20075057      4.20366644      2.77762978
O       1.50947098      2.13067201      1.31838741
S       2.32675024     -2.19424760      2.00624315
S       0.94945253      3.14837177     -1.00921558
C       2.29082618     -0.52609800      1.46004713
C      -0.21355088     -3.53792342      1.54829262
C       1.52555382      0.80871404     -2.98139435
C      -1.88529718     -2.11543629      0.78906712
C       0.03363888     -1.07709521      1.36855529
N      -3.10403047     -1.99686524      0.27691808
N       0.97982526     -0.12353037      1.21709072
C       0.52252291     -2.28755815      2.04630595
C       0.11048327      4.14989349      1.36519639
C       1.29955050      3.39316377      0.77708992
C       1.47943197      0.49560409     -1.50920004
C       0.59823305      1.21026645      0.79033485
C       0.52211320      1.38722166     -0.74305648
H       0.97629892      2.06730831     -4.31976637
H      -0.60313636      4.65153457      3.07908072
H      -3.37350017     -1.10786608     -0.11986686
H      -3.51188280     -2.82927256     -0.12800893
H       0.22113920     -2.20240270      3.10808731
H      -0.81516646      3.65081784      1.06600120
H       0.11170501      5.15839266      0.93645285
H       2.22922906      3.95265260      0.89094613
H       2.50158867      0.61900392     -1.13980905
H       1.19456411     -0.54889377     -1.38502679
H      -0.40249156      1.36857523      1.21921465
H      -0.50057314      1.21921097     -1.07990365
O      -2.01188870     -6.14059476      1.27853950
H      -1.11737708     -5.79955909      1.48047618
H      -2.58853193     -5.39151243      1.45654755
O      -3.21714554     -3.87177270     -1.88955503
H      -2.70915449     -4.68517882     -1.70196456
H      -3.70758287     -4.03715886     -2.69609267
O      -2.95899683      0.31942297     -1.71628564
H      -2.70313060      1.10796009     -2.21554210
H      -2.33840910     -0.39482599     -1.98103312
O      -3.03861179      1.21901532      0.78820280
H      -3.12886571      0.92248641     -0.14489132
H      -2.40275827      0.59842277      1.17057826
O      -1.36459619     -1.76819761     -2.32385350
H      -0.54188002     -2.05718561     -1.88163020
H      -1.98380854     -2.50815906     -2.22094753
O      -0.74985550      1.56263876      3.51303084
H      -0.21920211      2.36814100      3.46513737
H      -1.68527398      1.86376152      3.56031297
O       3.05795128      3.49774586      3.34773004
H       2.18855071      3.91104831      3.29039490
H       2.89128756      2.55373160      3.41123341
O      -2.60504403      5.06796714      2.30412711
H      -2.67756711      4.76174989      1.37877303
H      -3.26087932      5.75810774      2.41119683
O       3.14117349     -2.10397439     -2.54934213
H       2.96633393     -1.27512538     -3.03124054
H       3.34395647     -2.76993543     -3.20822583
O       4.14846260      2.36101723     -1.71326886
H       4.23514046      2.65000506     -0.78391547
H       4.96966977      1.91370953     -1.92327214
O       0.90019766     -2.65829984     -1.06743647
H       0.79861644     -3.63506400     -1.09293859
H       1.74676567     -2.51204404     -1.53485152
O      -1.92242482     -6.20564056     -1.33786572
H      -2.09097305     -7.09612529     -1.64819418
H      -1.98828157     -6.23554100     -0.34312125
O      -0.45584155     -0.96790565      4.48155517
H      -0.53319693     -0.05356859      4.15002867
H      -0.75948954     -0.94516618      5.39029229
O       3.10832508      3.99216352     -3.62847864
H       2.45059701      4.47808733     -3.12670523
H       3.51955154      3.38313352     -2.98078310
O       4.48183160      2.73922786      0.96833420
H       4.20639716      1.82470324      1.11801079
H       4.20781625      3.21389398      1.76612272
O       0.71383452     -5.34809255     -1.06912997
H      -0.18903947     -5.63906836     -1.27973151
H       0.81480870     -5.45015697     -0.11528973
O       1.81349198      2.60897617     -5.50073491
H       2.36455330      3.21829609     -4.94944760
H       2.38045279      1.85942002     -5.70846166
O      -2.77392764      3.79817160     -0.10738346
H      -2.47287167      3.65383444     -1.01369989
H      -2.96686776      2.90818545      0.23878738
O      -1.93433031      2.77285144     -2.72102037
H      -0.99658485      2.56459423     -2.84379039
H      -2.21969740      3.22558182     -3.51646260
O      -3.23770943      2.54040222      3.29100168
H      -3.48020439      2.08442042      2.47427916
H      -3.07299810      3.46637912      3.04352304
