107
charge=0
N       2.14546869      1.02829179      1.32996824
N      -1.40867445      4.27367072      1.29318785
N       0.54024711      3.00781315      1.69959751
N       3.98218705     -1.70149634      0.07310609
S      -3.53088717      3.14255469      0.05807986
C      -2.08713270      1.00030838     -0.07224102
C      -3.32166819      1.45783263     -0.38122193
C       3.05324303      0.14486581      1.24736405
C      -0.19827309      4.09766448      1.78017734
C      -1.92798415      3.20086892      0.69216870
C       3.00419781     -1.27646755      0.87472994
C       0.05869207      1.94198182      1.04663685
C       4.06479022     -2.98875880     -0.24371539
C       2.06380183     -2.14991583      1.41628012
C       3.16700838     -3.92680164      0.25933493
C       2.15546224     -3.49614522      1.10129389
C      -1.25741648      1.97408099      0.53921505
N       0.87412535      0.85949063      0.95250220
N       4.59532317     -3.18489394     -2.62398039
C       3.82649568     -4.31805908     -3.11163386
C       5.11193752     -3.34204548     -1.26635256
C      -5.56386643      0.57839962      0.10133572
C      -5.02032133      1.47041381     -2.18318295
C      -4.03150721     -0.69440387     -1.41491080
C      -4.47503989      0.70290090     -0.97385227
H      -1.77360250     -0.00488677     -0.25029585
H       4.03754438      0.51086468      1.51656621
H       0.23613915      4.93202215      2.31497796
H       1.31796978     -1.78838496      2.10339506
H       3.26732521     -4.96819772      0.00013638
H       1.44203679     -4.19851332      1.50314752
H       0.54774764      0.01077725      0.47122176
H       4.00097966     -2.35940030     -2.64525437
H       3.48430750     -4.08640730     -4.11795729
H       2.95224213     -4.55615235     -2.49381968
H       4.47635688     -5.19246577     -3.15350719
H       5.96861897     -2.66991706     -1.15624225
H       5.45305999     -4.37083524     -1.13701915
H      -5.16919689      0.06892852      0.97754619
H      -6.40604661      0.00919669     -0.28382818
H      -5.91773512      1.56269839      0.39984588
H      -5.86251303      0.93636734     -2.61607778
H      -4.24929033      1.57450962     -2.94328931
H      -5.35504509      2.46299085     -1.88942684
H      -3.70094432     -1.27832055     -0.56048584
H      -4.86804341     -1.21167782     -1.87764357
H      -3.22515218     -0.63190804     -2.14067682
O       5.42716708      0.11613664     -1.33194213
H       4.91725557     -0.55825027     -0.81238718
H       6.13186404      0.43491481     -0.76813416
O       3.15107814      1.01838865     -2.59061829
H       4.02236706      1.01087539     -2.16843823
H       2.83342367      0.10370167     -2.50148681
O      -3.36742571      5.24472739      2.91726157
H      -2.71931260      5.16272997      2.18830550
H      -3.00217082      5.87429927      3.54134804
O      -2.11223314     -0.40489919      5.41142322
H      -1.83232967      0.54739611      5.47223045
H      -2.32678843     -0.68888572      6.29967581
O      -1.31810875      2.09878483      5.28549575
H      -0.44229458      2.04872561      4.87060783
H      -1.94512654      2.37865367      4.59285667
O      -0.36936680     -0.30114940     -2.72115448
H      -0.55376224     -0.65577316     -1.83458779
H      -0.10024298      0.62510288     -2.56878989
O       0.58469394     -3.67942192     -1.54087398
H       0.16242541     -3.56203667     -2.42727228
H      -0.01525594     -4.21718890     -1.00351985
O      -0.36818684     -2.90660289     -3.92544363
H       0.39418341     -2.84730683     -4.52779311
H      -0.60651393     -1.98891656     -3.73892893
O      -0.24338827     -1.46247550     -0.26725312
H       0.12887944     -2.28349868     -0.65257704
H      -0.77900890     -1.74961363      0.50153917
O      -1.27087436     -4.46376675      0.42056621
H      -1.40666598     -3.72804404      1.03989446
H      -2.14012886     -4.81811891      0.22955918
O       3.67934361      0.01726423     -5.26432094
H       3.40419214      0.57604121     -4.52573945
H       4.55483965     -0.32156455     -5.00618636
O      -3.32949121      2.60206955      3.48028860
H      -4.15864645      2.39492376      3.91760987
H      -3.38529498      3.55557136      3.25236275
O       0.04398822     -0.90565043      3.74378260
H       0.45791332     -0.02914431      3.76410544
H      -0.65956644     -0.87073038      4.41256393
O       0.73154508      2.10423920     -2.06076485
H       0.62366817      2.83960182     -2.66519311
H       1.65735721      1.80129692     -2.17482320
O      -1.61875392     -2.10907462      1.92858608
H      -0.94446052     -1.82994659      2.57618810
H      -2.37122007     -1.51330740      2.11166755
O       1.15476806      1.70191954      4.01509846
H       2.04259058      1.72737124      4.37426565
H       1.18364037      2.19962908      3.16914382
O       2.04100683     -1.46955498     -2.40190613
H       1.18037929     -1.04165658     -2.62149754
H       1.79870212     -2.29173455     -1.95592793
O       2.08559506     -2.24781098     -5.06460292
H       2.53791750     -1.51320587     -5.50950342
H       2.21768358     -2.04701431     -4.12380245
O      -3.32667585     -0.22489936      2.88750226
H      -3.21519944      0.72426290      2.75540066
H      -3.03230013     -0.39179412      3.79776371
O       5.92632437     -0.96230495     -3.94237152
H       5.82360816     -0.52172643     -3.08601077
H       5.71080032     -1.89162547     -3.78618288
