106
charge=1
O      -1.56422928     -4.45932672     -2.42741932
C      -1.88653376     -3.29234126     -2.16547475
C      -1.15248711     -2.39135181     -1.36163254
C      -1.36812027     -1.04238881     -1.39900721
C      -1.01931537     -3.62862287      1.51340967
C      -0.11897537     -2.87226831      0.89283796
C      -1.62267982      3.27965198     -2.87799319
C      -0.65407820      3.49176595     -1.90900352
C      -2.19655708      2.02827858     -3.05908201
C      -0.22771226      2.45746380     -1.08121976
C      -1.76571787      1.00583949     -2.23497689
C      -0.78867019      1.21276761     -1.25233928
N      -2.13305212     -0.32967830     -2.24835678
C      -1.96675599     -4.55942173      0.83967226
C       1.19283118     -1.84470344     -0.94903454
C      -1.22850753     -0.01886228      0.88570418
C       2.34325264     -0.17958792      1.67848681
C       0.87488927     -2.06120274      1.67408249
C      -0.03385359      0.21650621      1.78308569
C       0.87331479     -0.52526570     -0.26638263
C       0.08022617     -2.84157220     -0.60393519
C      -0.58984217     -0.08939483     -0.52327094
N       1.02938955     -0.64688457      1.22461375
H      -2.82142127     -2.89512478     -2.58670591
H      -1.08796249     -3.57531760      2.59096408
H      -1.93165237      4.09794886     -3.50926029
H      -0.22064612      4.47400055     -1.79989552
H      -2.93137940      1.85382258     -3.82749754
H       0.52921824      2.63172235     -0.33457561
H      -2.64714280     -0.74607295     -3.01536493
H      -2.34923911     -5.29361082      1.54262083
H      -1.48509421     -5.07994991      0.01582949
H      -2.80870091     -4.00655079      0.42493542
H       1.21070057     -1.68474795     -2.02763185
H       2.17811026     -2.19663654     -0.64863335
H      -1.95218500      0.78775511      0.96775074
H      -1.72551181     -0.95692689      1.12120796
H       2.43228263     -0.33191664      2.75093084
H       2.45232822      0.87766769      1.46247081
H       3.13561230     -0.72029507      1.16572384
H       0.62177075     -2.04885158      2.73554492
H       1.85304393     -2.53795218      1.56784059
H      -0.22213572     -0.02868816      2.82290479
H       0.28845741      1.25531569      1.70885370
H       1.55512399      0.25716740     -0.60521604
H       0.32742631     -3.84492725     -0.96515528
O       0.22199940     -1.51119483     -4.10139739
H       0.56583837     -2.24536000     -4.61654150
H      -0.74974301     -1.54711454     -4.23988981
O      -3.54749069     -2.09748200      2.61829311
H      -3.74059146     -1.91282783      1.67917853
H      -3.98578040     -2.92169371      2.83221845
O       4.25874014     -0.90010138     -0.62651411
H       3.97887216      0.00712140     -0.83325013
H       5.03125632     -1.08154148     -1.16275882
O       0.37184814      1.04876760     -4.96086429
H       0.46804332      0.12722162     -4.64099369
H       0.27682214      1.59879381     -4.18150482
O       1.48618825      1.30762116      5.17434268
H       2.34395744      1.36365729      4.71917719
H       1.14794002      0.40096438      5.03762686
O      -3.83051048     -5.92035430     -2.05067070
H      -4.06665880     -6.40300844     -2.84440369
H      -2.95066107     -5.52855376     -2.20937383
O      -2.41432460     -1.57252775     -4.75575574
H      -2.38092967     -0.83641127     -5.40209236
H      -2.27016871     -2.39695212     -5.23739295
O      -0.08848094      3.16785907      4.33835492
H      -0.13889888      3.80399349      5.05335632
H       0.49956991      2.42625491      4.67833824
O      -1.11097469     -4.03741183     -5.20616820
H      -1.20700448     -4.31784387     -4.28259767
H      -1.03326647     -4.83739128     -5.72805877
O       0.41605534     -1.17418661      4.75982289
H      -0.55689010     -0.97957696      4.69703853
H       0.52886928     -1.66540648      5.57491316
O       3.47001211      3.05838899      1.45902593
H       3.97645912      3.88522219      1.47485482
H       2.53513618      3.31220937      1.60618951
O      -4.10384875     -1.67768255     -0.02066026
H      -4.50723055     -2.46952286     -0.43438624
H      -4.69673626     -0.94977631     -0.21378504
O      -2.32430820      1.96001308      3.32142881
H      -3.09403886      2.39858364      3.68730223
H      -1.54156083      2.41389053      3.68718155
O      -5.28700029     -3.84836517     -1.09998770
H      -6.06479089     -4.23700262     -0.69676994
H      -4.75848431     -4.59935215     -1.44327152
O       4.85092725      5.46861475      1.55897381
H       5.59426340      5.70525506      1.00015750
H       4.86775214      6.05646868      2.31740692
O       3.29237658      1.72164536     -0.93030621
H       3.44596981      2.20822213     -0.09577850
H       3.58915885      2.29020560     -1.64195638
O      -2.11238280     -0.56800576      4.39513730
H      -2.23952654      0.32173863      4.01894999
H      -2.63165345     -1.15996521      3.82663061
O       3.82681569      1.55368725      3.74615949
H       4.67958788      1.71822286      4.14916050
H       3.78447752      2.08836767      2.93142848
O       0.85676916      3.58388229      1.85966907
H       0.53955576      3.45329225      2.77854235
H       0.39824588      4.35477689      1.52256602
O      -1.96483760      0.61372101     -6.25667813
H      -1.11085296      0.87371347     -5.84788688
H      -1.84626807      0.69080442     -7.20420309
