73
charge=0
N      -2.13828021      0.96062204      1.16261727
N       3.50685935      1.19478345     -1.96536792
F      -0.87571220     -1.59489281     -0.47576065
F      -1.52279460     -0.17106290     -1.95032346
F       0.65932623     -0.53089188     -3.18775739
F       0.60061990      1.59090308     -2.81481341
F       1.38495525     -0.72951061     -0.31632456
F       0.80401371      1.34172279     -0.22519624
C      -1.60677014      0.46109905      0.28497582
C       2.59039156      0.55604276     -2.26398696
C      -0.89262697     -0.27307982     -0.76810669
C       1.11504849      0.41886763     -2.35824841
C       0.59984843      0.19126389     -0.89968920
O       3.00195071     -1.29901043     -2.79122614
H       3.16554485     -1.88854559     -1.95884260
H       3.84842294     -1.25723352     -3.24563554
O      -3.80525431     -1.24190016      2.28518387
H      -3.77908606     -1.36926429      1.31824805
H      -3.84500609     -0.28994098      2.40801070
O      -3.65213967     -1.16723443     -0.43085189
H      -3.49004471     -1.88863695     -1.04857829
H      -4.23365106     -0.55595490     -0.91052851
O       0.12679421      4.27297151     -1.48125669
H       0.64424329      4.16943956     -0.66031407
H       0.71557654      4.06445904     -2.20863321
O      -3.29609937      1.65323256     -3.54300915
H      -2.87740788      0.96204304     -4.09616221
H      -2.63735981      1.89256174     -2.86979053
O      -2.24917424     -0.56130826     -4.74247776
H      -1.32683494     -0.69356637     -4.51680048
H      -2.75443613     -1.19780840     -4.20432567
O      -3.99194848     -2.09095836     -3.21319961
H      -4.56562997     -2.58897135     -3.79668481
H      -4.48218755     -1.28440824     -2.95319873
O      -5.10108953      0.24120781     -2.33249982
H      -5.95397789      0.63027493     -2.52660589
H      -4.41905401      0.82869078     -2.78299048
O       2.64507169     -1.33808030      2.97923295
H       3.00389880     -0.46128452      3.17889798
H       3.20391756     -1.68941957      2.27818932
O       1.52208246      3.98533973      0.85772912
H       1.13455201      3.27473895      1.41715259
H       1.57134666      4.77019679      1.40668622
O       3.53907325     -2.67775732     -0.72646448
H       3.81257369     -1.98111462     -0.10655829
H       2.75639010     -3.11670314     -0.32843340
O       3.31018250      1.37275982      2.55497441
H       3.69278052      1.99256683      1.90064492
H       2.41238987      1.69066147      2.70888304
O       0.26486946     -0.38035419      2.03439217
H       1.12659978     -0.77690939      2.27846346
H      -0.39286227     -0.85543134      2.57071667
O       0.52074384      2.18280147      2.59566668
H      -0.34581435      2.46499350      2.89259705
H       0.40706452      1.23417268      2.32844058
O      -1.51233575     -1.89787948      3.46965390
H      -2.36610958     -1.76492082      2.99205018
H      -1.73408483     -1.95433428      4.40044824
O       4.31791688     -0.49709661      0.74983281
H       3.92575938      0.16137622      1.34973027
H       4.84476421      0.00188495      0.12297762
O       1.33442500     -3.72105082      0.40884485
H       1.18429262     -3.75408643      1.37678574
H       0.52257854     -3.38415701      0.02766439
O       0.78920510     -3.49789435      3.05680120
H      -0.06798597     -3.05755725      3.15326640
H       1.45925988     -2.85070014      3.30898489
O       3.99756327      2.82895086      0.38301982
H       4.01413110      2.36254111     -0.46255053
H       3.16575876      3.33032472      0.39671312
O      -1.76145170      2.39490053     -1.33090803
H      -1.06705574      3.08500710     -1.45106244
H      -2.49548905      2.84683327     -0.90886508
