98
charge=0
O       0.51215308      1.73699535     -1.11150830
Cl      3.36979717      1.99771274      4.12501987
N       0.69338556      0.43516956      2.91577055
N       4.00267313      1.48857669      1.66645707
N       2.71974333      0.35982077      0.01020921
O      -4.82801004      0.90142270     -0.90050501
C      -0.05550621     -0.14486453      2.02938727
C       3.81739642      0.98619309      0.43316608
C       3.06177293      1.34433563      2.57428996
C       1.76626028      0.25529880      0.92018053
C       1.86660691      0.71135193      2.26081575
C      -3.45803611      1.11427654     -0.96350625
C      -2.96251003      2.37989722     -1.27669421
C      -2.58202100      0.06250852     -0.67472922
C      -1.59442114      2.54379077     -1.30141668
C      -1.21794681      0.30635287     -0.72357426
N       4.84377216      1.08439953     -0.44017436
N       0.53091416     -0.28784083      0.80421594
N      -0.75501617      1.53461710     -1.04831461
C      -5.39711834      0.53144503     -2.15162256
C      -3.84471498      3.53809872     -1.60716526
C      -3.10105365     -1.28906783     -0.30907454
C      -0.16209760     -0.71417664     -0.39001740
H      -1.05242862     -0.49396148      2.20817307
H      -1.13726602      3.48558744     -1.56088005
H       4.58201852      1.16299745     -1.42323774
H       5.60082515      1.68676909     -0.15561006
H      -6.45216215      0.34481063     -1.96129433
H      -4.92261317     -0.37041374     -2.54456431
H      -5.28652574      1.33556600     -2.88213604
H      -4.88167250      3.32194062     -1.36827957
H      -3.75126786      3.75436244     -2.67051976
H      -3.52833042      4.42236665     -1.05931506
H      -4.17503655     -1.34603153     -0.44482348
H      -2.88015648     -1.49883138      0.73562528
H      -2.63563215     -2.05649473     -0.91986217
H      -0.60232848     -1.69607416     -0.22092707
H       0.56506110     -0.77089752     -1.20267809
O       1.48215990      0.84454223     -3.49258500
H       1.19389869      1.17993114     -2.61737651
H       1.87485645     -0.02644134     -3.29279299
O       2.64679901     -1.22003135     -2.21914102
H       2.69958010     -0.59104281     -1.46471151
H       3.55750437     -1.54478975     -2.31195882
O      -1.38669136      0.51487583     -3.70684568
H      -0.43075392      0.48648565     -3.85572283
H      -1.65441443      1.41623933     -3.94974400
O      -1.02695933     -3.77451406      0.31994272
H      -0.79523957     -4.54313713     -0.20302201
H      -1.91622098     -3.97026463      0.71346299
O      -1.79797685      3.22215759     -4.33172138
H      -1.99625900      3.35642434     -5.25974061
H      -0.83656792      3.41824302     -4.24341430
O      -3.37005875     -4.32880793      1.40227139
H      -4.12462824     -3.76288267      1.17216258
H      -3.22113694     -4.17343656      2.34904125
O      -0.40661094     -2.57627139      4.57851376
H      -1.23549180     -3.02407950      4.34468265
H       0.11963303     -2.54755562      3.76529791
O       0.86766989      3.51302151     -4.18598594
H       1.28636300      3.88219811     -3.39557621
H       1.14344044      2.58583708     -4.20971653
O       4.03000163      4.22463285      0.23939619
H       4.79469218      4.08471231     -0.35000324
H       4.13800393      3.60785720      0.96995421
O       5.93697257      3.59514098     -1.66287932
H       6.27055621      4.32496841     -2.18644334
H       5.35662551      3.07962492     -2.24700061
O       3.89910435      2.16495361     -2.88839551
H       3.28811873      2.82394720     -2.48416761
H       3.31272258      1.58549931     -3.39529825
O      -3.02604448     -3.31094862      3.93170166
H      -3.08494280     -2.39691433      3.55803045
H      -3.48141680     -3.29401680      4.77411085
O       2.92041622     -2.88640813      0.13119684
H       2.50171396     -2.55992211     -0.67624657
H       2.27043788     -2.78732074      0.84191010
O      -5.45622932      0.16535155      1.77613621
H      -5.19970180      0.39884376      0.86884775
H      -6.19011442      0.73695219      2.00818068
O       0.87343733     -3.06671147      2.09111453
H       0.15045918     -3.31224545      1.47086716
H       1.23542087     -3.89096147      2.42453007
O       2.14831049      3.82104033     -1.68877091
H       2.71052099      4.10599689     -0.94271933
H       1.54758929      3.13906425     -1.33588970
O      -3.05032558     -0.82530375      3.01042475
H      -3.85034937     -0.31154167      2.86024420
H      -2.53897406     -0.41377723      3.75547614
O       5.15101494     -1.87246955     -1.30365804
H       5.39107229     -1.05769543     -0.85073412
H       4.63951126     -2.39444814     -0.66827564
O      -1.37244632     -0.06160493      4.89567421
H      -0.66209972      0.46427327      4.50588589
H      -0.97736310     -0.95692458      4.97807086
O      -5.59697315     -2.62210134      1.32583879
H      -6.24227648     -2.99411254      1.92842961
H      -5.48500429     -1.68944079      1.56932802
