75
charge=0
O       0.90190995      1.63158182      4.29803622
O      -0.11145455      2.31817102      0.00443016
I       2.44507154     -3.93930146      2.55035477
I       1.62094988     -3.42507775     -0.81608405
I       1.99454054     -1.35982798      4.86553649
I       0.36861144     -0.30657793     -1.81854252
O       0.29566704      2.27107999      2.21700845
C       0.80124932      1.37856834      3.13507481
C       0.28311159      1.72053332      0.96324941
C       1.79137195     -2.07923564      1.90170992
C       1.46033136     -1.86423907      0.56487179
C       1.62379205     -1.05963349      2.84740606
C       0.96819250     -0.63031031      0.12600809
C       1.14519087      0.15251947      2.40633561
C       0.82688265      0.36372276      1.06550240
O      -0.70217903     -2.79181978      3.51768699
H      -1.29088892     -2.32381599      4.11240927
H      -0.59961455     -3.68980239      3.88935660
O       1.27367001      2.00328887     -4.95426227
H       0.73185975      2.75638053     -5.24456497
H       1.57448564      2.23503744     -4.06131168
O      -2.00280093      0.44262841      1.26301852
H      -2.25981100      0.84111266      0.39073897
H      -2.72463748      0.65688283      1.85676545
O      -0.43726933     -5.23382735      4.73721586
H      -1.07128440     -5.62762715      5.33838345
H       0.41842055     -5.17059926      5.24644317
O       2.62766931     -2.73959137      7.47379839
H       2.01570729     -2.33343489      8.09129027
H       3.50547538     -2.40469877      7.66912436
O       0.59101279     -7.02943522      2.94220992
H       0.13461299     -6.41070835      3.54706754
H       0.49470929     -6.65939295      2.06217612
O      -0.81715024      4.94522660     -0.67543210
H      -0.93801471      4.27101456      0.00274533
H      -1.02961941      4.47952347     -1.50954584
O       2.68990844      2.61522567      0.31412025
H       3.63964863      2.69709701      0.42079013
H       2.36687763      3.51536915      0.10874823
O      -1.36087118     -2.25800436      0.79463501
H      -1.67619303     -1.34676090      0.90623266
H      -1.19051377     -2.57803967      1.69196476
O      -2.70572748      1.52850434     -1.04632736
H      -2.03895294      2.13665433     -1.39105895
H      -2.81097160      0.84298349     -1.72948866
O      -1.10375249      3.23895850     -2.77976340
H      -0.23350853      2.86634962     -2.55268029
H      -0.99846827      3.56740505     -3.69205366
O      -0.47955985      0.11391867     -4.61714512
H       0.20982846      0.83752467     -4.74017222
H      -0.10266871     -0.67012098     -5.02022130
O      -2.86315586     -0.25221757     -3.15245818
H      -2.83442739     -1.15944736     -2.84356328
H      -2.04200658     -0.10360565     -3.65045048
O      -3.69201742      2.34784938     -3.93127902
H      -3.01631638      2.74706420     -3.36757449
H      -3.81398237      1.45087665     -3.59931454
O       1.82348398     -5.18889365      6.06061540
H       2.45106334     -5.50689792      5.39608699
H       2.14318111     -4.33340890      6.37320816
O       1.81161562      5.05308724     -0.65463582
H       0.81394740      5.05738936     -0.64270352
H       2.08079293      5.93549562     -0.39853395
O      -2.18947186      1.85807981     -6.09002598
H      -1.68308875      1.11940189     -5.72142158
H      -2.89489541      2.04112542     -5.43000871
O      -0.68819976      3.87537878     -5.41493405
H      -0.90328534      4.66164113     -5.91596284
H      -1.27106521      3.14331398     -5.77158976
O       1.64336433      2.88014081     -2.37375419
H       1.85344004      2.36781210     -1.58381439
H       1.77527489      3.80115743     -2.10789630
O       3.05787097     -6.42122038      3.78798425
H       2.18488499     -6.79221615      3.51389224
H       3.73362047     -6.94395295      3.35411323
