88
charge=0
Br     -5.73378019      3.18948575     -3.17264412
N       2.52806321     -1.45120076     -1.58034140
N       1.55349551     -1.06799123      0.62086238
O      -1.75307246     -1.46565270     -0.89522533
S      -4.41320948      1.25091445     -1.09334629
C       2.04602164     -1.30225777     -2.79420980
C       0.50796696     -0.52562035      1.18912247
C       1.50575137     -1.10063821     -0.75532682
C      -4.86470231      1.57901721     -2.72947141
C      -4.51687656      0.58033678     -3.58229050
C      -3.87584694     -0.47990558     -2.90655652
C      -3.74909034     -0.27618477     -1.56635533
C       0.40790666     -0.72912344     -1.49753266
N       0.47195017     -0.45212590      2.52660759
N       0.76987952     -0.87319821     -2.80641249
N      -0.53404715      0.03197294      0.49932660
C      -3.09889981     -1.17723768     -0.56510508
C      -0.86423905     -0.33272683     -0.85630921
H       2.60798411     -1.49967785     -3.68372211
H      -4.70363324      0.60906899     -4.63986783
H      -3.49689120     -1.35698505     -3.39824541
H       1.29198239     -0.75855828      3.02088950
H      -0.15418227      0.19112743      2.99952474
H       0.18456545     -0.63877914     -3.61808181
H      -1.29344537      0.40440753      1.05589205
H      -3.59271719     -2.15391774     -0.55113447
H      -3.17015996     -0.73555594      0.43688003
H      -1.35900867      0.51336109     -1.35324443
O       4.05191070     -1.20162328      4.26079414
H       4.26523381     -0.44941875      4.81566763
H       3.20538562     -1.55614425      4.59189074
O      -0.65705644     -3.37166482      1.02312098
H      -0.99244800     -2.81306319      0.30961425
H       0.16448676     -3.76237306      0.70607567
O      -0.86411570      1.71344829      3.82613561
H      -1.65008385      1.73398733      3.25863936
H      -0.34281365      2.49644209      3.57682260
O       0.85283345      3.76821555      3.03075468
H       1.16853378      4.40902868      3.66871462
H       1.60132600      3.16205041      2.85947295
O      -5.62834965     -2.49156269     -5.36002539
H      -5.91517384     -2.45047852     -4.44629191
H      -4.65925581     -2.53429840     -5.34639252
O      -0.94960962      0.00791559     -4.74171661
H      -1.69183011     -0.57298997     -4.96357984
H      -1.31559013      0.74858534     -4.22205607
O       1.57224682     -1.89683528      5.16500568
H       1.22256694     -2.54739750      4.48743263
H       1.52937128     -2.35766350      6.00344197
O      -1.80199409      2.11674889     -3.20012169
H      -2.20215062      2.78435563     -3.76086346
H      -1.01301866      2.54941626     -2.80516137
O       4.60617371     -2.58854634     -0.00982178
H       4.81238947     -1.80746834      0.51731986
H       3.99428859     -2.27295030     -0.69855080
O       2.73395804      1.84637267      2.72810950
H       3.32930614      1.14982234      2.35975315
H       2.41202582      1.47652803      3.57528272
O       0.22376837      3.41741191     -1.98978031
H       1.02497627      2.95890204     -1.71633040
H      -0.20342508      3.68555256     -1.16311476
O       0.78661134     -3.65127625      3.43116617
H       1.51993817     -3.79489829      2.79982814
H       0.02402394     -3.47768496      2.86263339
O       2.41563783     -3.61999342      1.29154557
H       3.32825181     -3.60664649      0.95536054
H       2.08274567     -2.73421208      1.05743768
O      -2.95197962     -1.67812695     -5.82365051
H      -3.52710217     -0.99609239     -6.22083635
H      -2.42366981     -2.04325936     -6.53588991
O       1.84142179      1.99917027      0.08504203
H       2.18224177      1.18212653     -0.28790108
H       2.22277906      2.05074073      0.97950139
O       1.60184903      0.87750930      5.02893682
H       0.68639953      1.16147407      4.92045824
H       1.56140355     -0.08165941      5.17105912
O       3.96264942     -0.28160233      1.70684485
H       3.16904853     -0.68228363      1.29481143
H       4.10671129     -0.75732787      2.54682517
O      -5.07653456     -0.21226095     -6.76423583
H      -5.44562262     -0.08014091     -7.63824038
H      -5.56084767     -0.95694192     -6.35927092
O      -0.50893676      3.24361053      0.70422350
H      -0.15427498      3.71427207      1.47335650
H       0.19978822      2.61413965      0.46952342
O      -2.55790217      1.82231366      1.64233661
H      -3.41446058      2.20320193      1.44696708
H      -1.88424455      2.41098699      1.22408561
