87
charge=0
Cl     -1.24520351     -2.25525918      4.29462809
Cl     -4.11346102     -1.48285820      3.26142662
Br     -0.77124905      4.59563740     -3.47809104
N      -3.20068060      1.66269236     -1.94072976
O      -3.16120723     -0.57463865     -1.78953076
C      -0.64744859     -0.75557042     -3.03990762
C      -1.17300603     -1.84256167     -2.48339425
C      -2.68210267      2.82546916     -2.31990814
C      -2.53001424      0.54563699     -2.17618410
C      -0.53575677     -2.35931450      1.69512124
C      -0.74032343      1.73921568     -3.22446835
C      -0.77450988     -2.23913010      0.33639084
C      -3.06047392     -1.67165723      0.79160211
C      -1.55366860     -2.11797474      2.60320453
C      -2.82177236     -1.77019241      2.14932768
C      -1.46270649      2.89643359     -2.96383474
C      -1.28021011      0.52871528     -2.82221941
C      -2.03961844     -1.89896561     -0.12161908
C      -2.38224679     -1.76748862     -1.60217675
H       0.23735048     -0.78779123     -3.65303311
H      -0.74061571     -2.82074583     -2.60633345
H      -3.25522386      3.70652884     -2.07112700
H       0.43271462     -2.65494479      2.06769702
H       0.23277042      1.76311675     -3.69485555
H       0.02349841     -2.42371821     -0.36373606
H      -4.04695022     -1.41412306      0.44192466
H      -3.07740078     -2.58035448     -1.85934696
O       2.33513944      0.79749088     -0.66546415
H       1.37233008      0.78267763     -0.56109070
H       2.60679938      1.69962120     -0.38379154
O       3.22084097     -2.96606801      0.10488247
H       2.48053387     -3.19083638     -0.48511251
H       2.89516312     -2.27926255      0.72218291
O       2.22498861      0.90403073     -3.51052633
H       2.45830789     -0.00155498     -3.75069399
H       2.32960977      0.94090804     -2.54791559
O       0.15198781      4.08333628     -0.16114765
H      -0.62847642      4.27074431      0.42822444
H       0.02282277      4.61598622     -0.94949999
O       2.59212617     -0.80885619      1.58240401
H       1.82625301     -0.47421482      2.07879473
H       2.69111948     -0.18306282      0.84539848
O      -2.09139049      4.32620074      1.15625688
H      -2.75271847      4.66841108      0.52515759
H      -2.33117264      3.39576813      1.30948384
O       1.56455012     -4.05785619      3.41978896
H       2.36179488     -4.36163036      2.92403664
H       1.41831984     -4.71562142      4.09952627
O      -4.03027135      5.21988730     -0.56641744
H      -4.81321846      4.72638826     -0.24155491
H      -4.20014434      6.14592816     -0.38809378
O      -2.68047485      1.63040723      1.37951392
H      -2.57620777      1.33913858      2.29655733
H      -3.58833891      1.43230233      1.10112784
O      -0.35358164      1.39959152     -0.05876837
H      -0.11701910      2.34604814     -0.12833057
H      -1.24650920      1.39197843      0.32519426
O       4.28806257     -1.11265668     -1.53696520
H       3.78850818     -0.34930864     -1.21699392
H       4.10404080     -1.83242409     -0.89572275
O       0.42653080      0.53170425      2.45190723
H      -0.35134858      0.68844767      2.99876502
H       0.20435509      0.85973579      1.56386537
O      -1.96441581      0.89968082      3.99847177
H      -1.80075619      1.49595637      4.73187814
H      -2.03844573      0.00551579      4.35623423
O       1.48567738     -3.52332705     -1.96351874
H       1.90864335     -2.90662960     -2.59814137
H       1.76050408     -4.40507472     -2.22017463
O      -6.15646845      3.76167236      0.25231883
H      -5.78736257      2.85819029      0.26612162
H      -6.92622219      3.73458595     -0.31797664
O      -5.05117822      1.27901682     -0.02544704
H      -5.50167380      0.45638064     -0.22238265
H      -4.43045931      1.44128350     -0.78259355
O       2.91522201     -1.88414763     -3.60450487
H       3.51206598     -2.23165475     -4.26800676
H       3.49751071     -1.57898508     -2.84594591
O       2.78853847      3.34433311      0.00683067
H       1.87790692      3.67734618      0.09601398
H       3.21777097      3.88474778     -0.65822345
O       3.78499523     -2.20969592      3.70529271
H       2.92385484     -2.59440092      3.91663092
H       3.60250568     -1.57368781      2.99919391
O       3.92287733     -4.55366693      2.23866460
H       3.80107092     -4.14583551      1.36441193
H       4.26342564     -3.83335241      2.79796946
