72
charge=0
O      -2.14447983      2.06233587     -0.46452866
O       0.25058804     -0.72651713      2.45091163
Cl     -0.38007026      0.33240712     -2.05838147
Cl      1.28926833     -1.17480166     -0.32457186
Cl     -2.94695540      3.18253758      2.33610152
Cl     -0.94946930      1.39566044      4.43163798
C      -1.60977661      1.57943384      0.50497625
C      -0.29489403      0.25190473      1.97996078
C       0.03164678     -0.05837775     -0.48666326
C      -1.84007271      1.98763928      1.91996186
C      -1.04339261      1.27732138      2.74923833
C      -0.58252149      0.52956289      0.56885869
O      -0.17908017     -3.32421330      1.56955257
H      -0.31337890     -3.43721897      0.60944477
H       0.04792324     -2.39074540      1.69851493
O      -2.79182306     -1.91609089     -1.71616823
H      -2.55074823     -1.40811649     -2.50516719
H      -2.92091341     -1.29429870     -0.97613103
O      -1.56404968      3.22131363     -2.90451247
H      -1.86012623      2.70257323     -2.13779350
H      -2.25526775      3.85900570     -3.08975175
O       2.26887065      2.05330697     -0.90825412
H       3.18373579      2.34124687     -0.91986892
H       2.07215798      1.80621041      0.02318614
O       2.21970554     -3.09324189      3.07938341
H       1.52087256     -3.40871533      2.48680335
H       1.78375079     -2.94795310      3.92946460
O       1.36099637      3.69477204      3.03189313
H       0.82433209      3.57980106      3.81811062
H       0.76340260      4.06774486      2.34422021
O      -0.57743083      1.36139462     -4.81325889
H      -0.94338892      2.07956841     -4.27743622
H       0.37286343      1.33283408     -4.57265645
O       0.75715545     -1.58381593      5.00140350
H       1.32598493     -0.98426213      5.48716611
H       0.66746996     -1.20301250      4.10594917
O      -0.34260160      4.59589519      1.16557778
H      -0.01953071      4.39966504      0.25054476
H      -0.44565295      5.54871521      1.19533054
O      -0.81614968     -3.52334087     -1.09547327
H      -1.12872945     -4.41800792     -1.23962388
H      -1.59703866     -2.93273869     -1.27679422
O      -2.64610430     -2.42618738      2.39751561
H      -1.84358612     -2.91960015      2.14443749
H      -2.48569699     -2.10824015      3.30423242
O       0.21603335     -2.63230720     -3.54519196
H      -0.01936012     -2.97349661     -2.66723551
H      -0.50540292     -2.03072830     -3.80288527
O      -2.00240050     -1.72676460      4.99280689
H      -2.31527902     -2.42979161      5.56395915
H      -1.03168543     -1.71039177      5.08180112
O      -1.84840756     -0.89043741     -4.22757918
H      -2.29712444     -1.18216767     -5.02225654
H      -1.37760846     -0.05038326     -4.47254491
O       1.75960198      1.43611621      1.66344794
H       1.74767680      2.24275082      2.22441252
H       2.31317120      0.76643621      2.11665053
O       0.53941907      4.14751888     -1.29048174
H      -0.11200410      3.87994956     -1.95766605
H       1.17395446      3.41156806     -1.22453969
O       1.94753477      1.31285692     -3.77415551
H       2.19921932      0.37066708     -3.68694578
H       1.99639842      1.66276761     -2.87772901
O       3.19667232     -0.56449345      2.82723641
H       2.80397050     -1.46563788      2.85365798
H       4.08388029     -0.68234358      2.48549057
O      -3.16864898     -0.53196459      0.63710716
H      -4.11195827     -0.37488045      0.71253215
H      -2.97273939     -1.25647942      1.28877418
O       2.52931928     -1.31206738     -3.39981671
H       1.67295721     -1.80134758     -3.43746536
H       3.07002349     -1.68456794     -4.09677282
