95
charge=0
O       2.76688515     -0.71608883      4.48042580
O       0.48419122     -5.02855100      1.81298532
O       3.77347310      0.17505214     -0.71529215
N      -0.96737929     -3.49301194      1.03799964
N      -1.01094658     -1.31264484      1.97434133
O       1.58491040      0.43071409     -0.99884566
O      -0.99697836      3.43970819      4.13502468
O       0.91464973      1.39214759      4.11894501
S       1.70481155     -3.09852782      4.06199239
S       2.41822692      2.43941575      2.33008249
C       1.84408305     -1.33193682      4.04099953
C      -0.08718335     -3.96080984      1.92016410
C       2.64425742      0.19885199     -0.27121841
C      -1.49208002     -2.27665835      1.13395544
C      -0.13775488     -1.68558399      2.84679753
N      -2.42124504     -1.88019721      0.29519087
N       0.73892682     -0.79995059      3.38573671
C       0.10954403     -3.08187016      3.19875849
C       0.05993744      3.51875102      3.21436055
C       1.23741106      2.67094625      3.72016982
C       2.31342118     -0.08393619      1.17846816
C       0.58525421      0.59090642      3.02405325
C       1.42437339      1.00109802      1.77107598
H       1.74418213      0.38559036     -1.99506381
H      -1.71361538      4.03247232      3.82733458
H      -2.69586333     -0.90091097      0.38462903
H      -2.61314977     -2.41636989     -0.56520511
H      -0.64569966     -3.49324826      3.89747200
H      -0.26312948      3.15638567      2.23021172
H       0.42069921      4.54993924      3.10305917
H       1.74248527      3.15215430      4.55807408
H       3.23427192     -0.20747065      1.74928186
H       1.77135332     -1.03360551      1.14291964
H      -0.48165305      0.68370148      2.77186268
H       0.73797845      1.34764634      0.99477761
O      -0.38721595     -4.69799158     -1.32864913
H      -0.68925547     -4.40885012     -0.43847081
H      -0.01300426     -5.57179930     -1.20264597
O      -3.48204255      0.72333333     -2.03299405
H      -3.50926479     -0.20796050     -2.26580411
H      -3.44978741      0.76723018     -1.06656049
O      -0.92939347      1.55644410     -2.39348434
H      -1.90102225      1.49755244     -2.46848230
H      -0.65190180      0.61580901     -2.34337813
O      -2.77873582      0.91311782      0.68664020
H      -1.88401529      1.20881386      0.48068545
H      -2.83571823      0.96047089      1.66890369
O      -0.42318808     -1.09167891     -2.49439787
H       0.16301118     -1.51378964     -1.81883894
H       0.14534798     -0.97827627     -3.26566562
O      -2.75905916      1.35277915      3.32381540
H      -2.10349019      1.90765606      3.77406145
H      -3.61624426      1.74720541      3.56082694
O       1.85816043      4.10811958     -0.36531005
H       2.27358042      4.97234988     -0.38565652
H       2.23975054      3.62698170      0.38608110
O      -2.99600989      4.87962945      2.90024951
H      -2.99106031      4.48962555      1.98393075
H      -3.08776094      5.82682215      2.79352596
O       3.71686491     -2.21598731     -2.28135201
H       4.12588437     -1.62785898     -1.63708635
H       3.91128633     -1.81881096     -3.14189304
O       4.26940836      1.76886372     -2.94874286
H       3.42120812      2.23332097     -3.00647217
H       4.26846882      1.30544910     -2.09449458
O       1.27821766     -2.46774550     -0.99722087
H       0.85010647     -3.32760690     -1.15361968
H       2.12064129     -2.49046967     -1.48885568
O      -2.42815304     -2.92417642     -2.20733972
H      -1.77974618     -2.24118196     -2.46274032
H      -1.90089385     -3.72875437     -2.10767146
O      -1.39733926     -4.79308532      5.05819543
H      -2.21838317     -5.28687374      5.06343234
H      -0.68680002     -5.44691429      4.88960435
O       4.28146205     -0.43770557     -4.42007222
H       4.84994633     -0.43558868     -5.18995528
H       4.45227164      0.40521046     -3.93069410
O       1.56667188      2.79359142     -2.86786646
H       0.64471176      2.49237662     -2.82633669
H       1.70252609      3.30203771     -2.05615488
O       0.65225392     -6.37949393      4.22207301
H       1.51060638     -6.16262453      4.59153944
H       0.66640910     -6.05767894      3.30286283
O       1.74165718      0.12328247     -3.65129119
H       2.57992305     -0.21625391     -4.01011946
H       1.68290004      1.05176988     -3.90511917
O      -2.99826678      3.77346867      0.51993585
H      -2.08433589      3.52713990      0.26717840
H      -3.47142520      2.93248340      0.53738650
O      -0.57864477      2.72219589     -0.06774499
H      -0.69672823      2.28201052     -0.94992425
H       0.14778298      3.34558126     -0.19589533
O      -4.89279918      3.03193643      3.72384872
H      -5.65175170      3.15721228      3.15276932
H      -4.29138424      3.78035172      3.56702235
