82
charge=0
Cl      1.08407354      4.46607921     -0.92390113
Cl     -1.42439484      3.37155099     -0.02104139
Cl      0.43298430      4.55168198      1.87038619
N      -0.46506713      0.38512186      3.38080956
N       0.45092074     -0.39144361      2.89533956
N       1.81584672      1.79410973     -0.21715618
C       0.90751066      2.22513928      0.59298607
C      -0.53180450      1.51714240      2.68161109
C       0.42550437      1.44364600      1.67459817
C       3.82215732     -1.19565402     -0.78794565
C       3.44909808     -1.99422382      0.29344345
C       3.28729761      0.05905337     -0.95949875
C       2.52305611     -1.54615112      1.20810935
C       2.34666850      0.54698587     -0.04141207
C       1.96775496     -0.28251432      1.03821217
N       1.00138688      0.21395388      1.87347348
C       0.30457212      3.58011184      0.38100921
H      -1.23590153      2.28563261      2.91619046
H       4.55051914     -1.56434868     -1.49105400
H       3.89226134     -2.96881964      0.41386271
H       3.57628530      0.67385293     -1.79603972
H       2.20265271     -2.14917401      2.04190288
O      -2.36206529     -1.03728065      4.69224015
H      -2.17545641     -1.12272497      5.62766554
H      -1.61290525     -0.53385984      4.29634153
O      -3.01990845     -0.16139926      0.45439666
H      -3.43014532     -0.01675807      1.33622219
H      -3.42480011     -0.98565495      0.11754532
O      -4.26425988     -0.19708086      2.81525327
H      -4.72214058     -1.02720879      2.61808217
H      -3.67239228     -0.39411245      3.55624892
O      -1.19046563     -2.03926092     -2.54502308
H      -1.29541364     -2.92880603     -2.17425381
H      -2.08542496     -1.76924486     -2.81614221
O      -3.76838335     -1.15579818     -3.01301690
H      -4.29572217     -1.02035952     -3.79975664
H      -3.56419362     -0.24465406     -2.64935735
O      -0.48503832     -3.22480888      1.09509958
H      -0.33599490     -2.29834717      0.84550311
H      -1.13350595     -3.21883795      1.83180536
O      -5.04128815     -2.72642345      1.84954198
H      -4.76626327     -2.64604875      0.91604681
H      -5.79440967     -3.31710401      1.86741501
O      -2.46372980     -3.17742361      2.92369078
H      -2.37994739     -2.48774397      3.60145390
H      -3.36083687     -3.09048383      2.56977848
O       5.35387184      1.81191292      1.03886871
H       5.08723643      2.25249479      0.21325367
H       4.56609631      1.83384031      1.60320987
O      -0.33042253      0.75868809     -2.46362349
H      -0.38723358     -0.03442973     -3.00904664
H      -0.18054882      0.41756340     -1.56062714
O       4.07576652      4.69662497      1.31238521
H       4.99864855      4.69630175      1.57730914
H       4.07492073      4.38384163      0.39051148
O      -4.00058564     -2.48590038     -0.63707073
H      -4.10193527     -2.09636262     -1.52277397
H      -3.26436793     -3.12813541     -0.71302001
O      -0.52937342     -0.76931697     -0.22828978
H      -1.41338586     -0.49489664      0.10376584
H      -0.71849603     -1.33024994     -1.01083808
O      -3.05488900      1.11895456     -1.96429136
H      -2.11082591      1.20174586     -2.18597953
H      -3.08974981      0.87928864     -1.01962094
O       1.41400396      2.54043580     -3.63650110
H       1.23553702      3.35671912     -3.16272374
H       0.83323717      1.87190140     -3.23056328
O      -1.86721456     -4.13629831     -0.89280864
H      -1.29338736     -3.82958011     -0.12369214
H      -1.89519506     -5.09085837     -0.83414757
O       4.13103266      3.24419510     -1.00754179
H       3.25675555      2.85293185     -0.84346334
H       4.33427124      2.99161681     -1.92647828
O       6.21071656     -0.79921036      0.88651356
H       5.89208694      0.12200946      0.91800037
H       7.14197203     -0.75483270      1.10904443
O       3.06490261      2.50479818      2.52878207
H       3.30707408      3.37535752      2.13835101
H       3.24223804      2.57845561      3.46799659
O       4.07956631      2.20687039     -3.51026334
H       4.45304850      2.48321560     -4.34716633
H       3.10347404      2.26964710     -3.60919244
