85
charge=0
O       3.40611224     -4.04398867     -0.89617205
O       0.86413501     -0.53508931      0.93201152
Cl     -2.69935110      3.66655433     -2.30227607
S       0.92328023     -1.35093387     -3.99029019
C       2.64953561     -3.07911582     -0.92573813
C       1.96851319     -2.65374391     -4.45594139
C       2.13132983     -2.34278824      0.14033105
C       2.56940324     -3.20372970     -3.39197926
C       1.27789767     -1.25536341      0.00151975
C       1.35134089     -1.60573021     -2.34768631
C      -0.40768152      2.30154468     -2.58778559
C      -2.09047958      1.28800432     -1.18341198
C       0.43271595      1.23182986     -2.34958386
C      -1.25077169      0.21431519     -0.95563765
C      -1.66127518      2.31996071     -1.99990706
C       0.00432328      0.18680913     -1.54189533
N       2.21892666     -2.60937244     -2.20743971
N       0.87067468     -0.92311925     -1.31574599
H       2.06804436     -2.92702635     -5.48553564
H       2.42054497     -2.63654750      1.13572520
H       3.25977676     -4.02606512     -3.35826963
H      -0.08343153      3.12128293     -3.20686561
H      -3.06876993      1.31477338     -0.73663501
H       1.42192810      1.21518291     -2.77642203
H      -1.57358104     -0.60414282     -0.33680702
O       3.51039583      0.13283442     -1.72505308
H       3.39244524      1.08403941     -1.58347501
H       4.01819150     -0.17049044     -0.95633353
O      -4.70368960      1.18596480     -3.24182611
H      -5.11823135      1.23454046     -2.35855674
H      -4.30692003      2.04978636     -3.38261055
O       4.14778517     -1.91285924      4.21760933
H       3.69441795     -2.72709814      4.44132804
H       4.83521195     -2.16280038      3.55046801
O       3.06090138      2.81122015     -0.82941832
H       3.87506021      3.20890199     -0.51615412
H       2.58777683      2.47475538     -0.02818409
O      -2.96914906     -2.07385817      0.98946191
H      -2.36852526     -1.53504623      1.57522409
H      -3.23921305     -2.83151179      1.50908079
O      -2.74160759     -0.65007970     -3.45841914
H      -2.87605509     -1.04975750     -4.31929972
H      -3.47488674     -0.00543381     -3.34704785
O      -4.63319688      0.08847152      1.12570367
H      -3.97807611      0.69466014      1.50851513
H      -4.15666563     -0.74488074      0.96454296
O      -0.30956497     -3.69379047     -2.08081697
H      -1.23677208     -3.37019616     -1.98103104
H      -0.36106444     -4.63810892     -1.92634282
O      -2.67840869      1.99585819      1.82121895
H      -1.88928691      2.44885431      1.47585811
H      -3.39454202      2.63619934      1.64962870
O      -5.73994834      1.52819204     -0.73959862
H      -5.35006900      0.90967844     -0.06174011
H      -6.69012739      1.46109890     -0.63995893
O      -4.51035128      3.63391557      0.61332596
H      -5.01721452      2.98587227      0.09359230
H      -3.91947597      4.07015109     -0.00561366
O       4.19731101     -4.82010606      1.56958115
H       4.68358219     -5.63894453      1.46625767
H       3.88405757     -4.57652605      0.67108559
O       3.00748489     -0.04695021      2.70452947
H       3.37755575     -0.65894212      3.38118555
H       2.20487472     -0.46620005      2.35874848
O      -1.47110022     -0.46966109      2.42387252
H      -1.85656920      0.41855212      2.35623994
H      -0.61457322     -0.43271653      1.97152710
O      -0.53800841      3.39631061      0.80771480
H      -0.23795134      3.85082971      0.00551360
H       0.25409753      2.96957632      1.16308356
O       0.94545853      4.57350745     -1.25915381
H       1.68769883      3.94265078     -1.25297934
H       1.29233932      5.41561142     -0.95981128
O       5.67610945     -2.62006805      2.16353361
H       5.20530206     -3.45136781      1.95467136
H       5.40370987     -1.98384215      1.48411288
O       4.77590439     -0.35767566      0.73923815
H       4.10505553     -0.21306855      1.45379070
H       5.54061230      0.16654488      0.98310812
O       1.77388149      1.94515394      1.31852441
H       1.32135958      1.11690182      1.05570027
H       2.32618727      1.67302918      2.06469433
O      -2.79598488     -2.78794869     -1.74404916
H      -2.90200582     -2.50345693     -0.82459196
H      -2.81469930     -1.98172776     -2.29370804
