95
charge=0
F       5.17503610      0.81028059     -4.28292557
F      -1.70722694      0.51589682      5.25010522
F      -0.09962867     -0.80966376      4.74857111
F      -1.98427344     -0.96260309      3.73254895
N       2.67881982     -1.50589208     -0.57415459
O      -1.79004477     -0.31577077      0.81053416
O      -0.21972667     -2.13164722     -0.74794550
O       1.37442961     -0.20660682      2.57886699
O       0.08135450      1.90060737      3.86963789
S       3.09102563      0.74951412      0.69184014
C       3.29512726     -0.39230259     -0.66149543
N       4.11765397     -0.03335181     -1.64453847
C       5.47282816     -0.37326013     -3.64131141
C       4.27611403     -0.84408682     -2.83329276
C      -1.08911022     -0.08323289      4.23048798
C       1.76930328     -1.57139665      0.53459928
C      -0.53414304     -0.78592008      1.24263265
C       0.17806215      0.31185319      2.03554963
C       0.37325818     -1.12548923      0.04801834
C       2.29423549     -0.63455226      1.64280225
C      -0.64299080      0.93534939      3.17895673
H      -2.26408536     -1.05411866      0.33047776
H      -0.76214933     -1.67366544     -1.43787658
H       0.45137709      2.56299114      3.22491103
H       4.38717370      0.94653899     -1.69248503
H       6.33977362     -0.17379324     -3.00569852
H       5.72523893     -1.09391526     -4.42307873
H       3.38062292     -0.80344243     -3.46496660
H       4.43145384     -1.88077635     -2.52655284
H       1.71464933     -2.59503086      0.91521486
H      -0.65215343     -1.68309308      1.86306900
H       0.41907629      1.13743561      1.34632431
H       0.50723756     -0.21948937     -0.55471003
H       3.09599112     -1.12120177      2.20883580
H      -1.57018739      1.35208994      2.75178471
O       1.19485947      3.49044232      2.04652861
H       2.14203800      3.58054319      2.16715036
H       1.05714159      3.25393232      1.11127362
O      -0.40606280     -4.31552013      0.95177366
H       0.07543413     -5.04859160      0.56549684
H      -0.36616799     -3.58203239      0.31436687
O       1.73876475     -3.35343871     -2.35018843
H       0.88230769     -3.32907842     -1.90448570
H       2.31018045     -2.81794046     -1.76427873
O       2.90369038     -1.21936114      5.78484533
H       1.98950011     -1.49182966      5.68283108
H       2.91271404     -0.25796633      5.60434988
O       2.72419104      1.30218503      4.75375152
H       1.78308138      1.52621182      4.72017935
H       2.93418156      0.94924005      3.88448962
O       4.58110942      2.78440391     -1.84102211
H       3.85753070      3.39400468     -1.55376972
H       5.39989701      3.27346081     -1.75683021
O       0.63981098      2.68758566     -0.51690336
H      -0.32984414      2.69357675     -0.62016197
H       0.94100639      1.99823910     -1.13654623
O       2.49249154      4.39288412     -1.54530962
H       1.78653518      3.88757008     -1.09847676
H       2.26478577      4.38298398     -2.47982286
O      -4.32821478      0.88830340      0.66393721
H      -3.51210809      0.58931364      1.08332307
H      -4.98475177      0.21436604      0.90508369
O       4.32313508     -1.95321140      3.58705646
H       3.82134185     -1.75541329      4.40678241
H       5.20129685     -2.20213941      3.87768854
O      -3.13402626     -4.38211020      1.11591151
H      -2.17523835     -4.49305844      1.23905979
H      -3.21900462     -3.74806000      0.39067684
O      -3.39455645     -2.04273853     -0.42801847
H      -4.20802167     -1.86872909      0.09247886
H      -3.54035778     -1.61966475     -1.28233812
O       2.79721042      2.57407237     -3.97044860
H       3.55045676      2.58008543     -3.35334931
H       3.11428069      2.12615863     -4.75686864
O      -3.99440628      0.21573041     -1.94270131
H      -4.38842954      0.85762661     -2.53327035
H      -4.13412400      0.54960351     -1.02719900
O       1.14879140     -1.31883899     -3.98477308
H       0.19707357     -1.38441139     -4.10177882
H       1.41450085     -2.12810940     -3.48880368
O      -1.96150803      2.02790816     -0.69683330
H      -1.84064144      1.17683500     -0.23975221
H      -2.74964024      2.42159045     -0.31749101
O      -1.38604705     -0.51238171     -2.53424547
H      -2.27149968     -0.15388967     -2.35268585
H      -0.77966225      0.24240473     -2.54570739
O      -4.36463785     -2.94005663      2.98844804
H      -3.92826376     -3.59288952      2.38814070
H      -3.66173718     -2.51832304      3.48589252
O      -5.53732249     -1.51302671      1.15304430
H      -5.14156077     -1.99769631      1.93178141
H      -6.39302381     -1.91661968      1.00451338
O       1.09054623      0.96215202     -2.55592304
H       1.20633690      0.10489802     -3.01908560
H       1.59613983      1.59830134     -3.09660657
