69
charge=-1
O       1.12744688      2.13808655     -2.65636783
O       0.02343626      0.74290959      1.52265224
N       0.72088143      1.82317313     -0.39150344
C       0.78074213      1.45294387     -1.69137701
C       0.24479786      0.78432863      0.28895654
N       0.30009373      0.16957073     -1.81074705
N       0.04681377     -0.30604956     -0.52940095
H       0.52685449     -0.48277168     -2.54320538
H      -0.76655341     -0.91386607     -0.41428984
O      -1.19663080      3.65080543     -3.17156168
H      -0.28465560      3.33069528     -3.06936162
H      -1.61002664      3.51470967     -2.30575055
O      -3.05886271      3.39898310      1.80816992
H      -2.29544901      3.11472058      2.36490110
H      -3.07032634      4.35512394      1.86944780
O       0.39287914      1.32072199      5.12317257
H       1.18948252      1.27080391      4.57299466
H       0.05992479      0.41109708      5.15102252
O      -2.12827696      1.42248755     -4.41589610
H      -2.41393888      0.94453357     -3.62590761
H      -1.89868193      2.31974467     -4.09188037
O       2.22623585      0.69644419      3.06254207
H       1.38587441      0.72442251      2.55983752
H       2.87402637      1.04116387      2.41837386
O       0.27809684     -3.81402527     -1.08045069
H       0.44898505     -3.46409559     -0.18577663
H      -0.40424369     -3.25947417     -1.49593128
O      -2.01794684      2.77091486     -0.62106276
H      -1.08466467      2.69868641     -0.36914442
H      -2.49988004      2.96564832      0.21085140
O       0.44511021      0.87005338     -4.95460298
H       0.82174797      1.38312723     -4.20508385
H      -0.52211533      1.04985535     -4.90270539
O       2.12381913     -1.90853502      3.74502022
H       2.30844117     -0.97005111      3.51800269
H       1.83142869     -2.32397050      2.91219992
O      -2.44331041     -1.67695359      0.12049907
H      -2.38368838     -2.57817323     -0.20286191
H      -2.17846432     -1.67569399      1.05756413
O      -0.13060905     -1.46434091      5.00727795
H      -0.18609151     -2.03275622      5.77420314
H       0.75489048     -1.65656205      4.58161859
O       0.98719370     -2.61362598      1.31360685
H       1.49130559     -1.92680500      0.83756938
H       0.17935600     -2.18965442      1.67529730
O       2.30914421     -2.55011166     -2.30983983
H       1.85440402     -2.18025272     -3.08238527
H       1.65146025     -3.15646410     -1.89801115
O       0.63243926     -1.60762228     -4.34649973
H       0.58532521     -0.63170209     -4.62776306
H       0.70308313     -2.10904724     -5.15795323
O      -1.43452318     -2.18477949     -2.57143058
H      -0.80543649     -2.04423078     -3.29785846
H      -1.89596331     -1.34287971     -2.45416112
O       2.86199299     -1.17163044     -0.11799126
H       3.62401858     -1.64292070      0.22362706
H       2.67142722     -1.58681981     -0.99765247
O      -1.14639857     -1.41229688      2.45101115
H      -0.99666801     -1.44508846      3.40901204
H      -0.79190629     -0.53260234      2.16431965
O      -2.70197286      0.36495739     -1.82266434
H      -2.91773823     -0.20930545     -1.07687988
H      -2.50410958      1.23709320     -1.42939324
O       3.40876259      1.46201309      0.73839731
H       3.28049399      0.58637055      0.33961535
H       2.68356274      1.99834466      0.38785798
O      -0.81922937      2.79422384      3.10585207
H      -0.54769342      2.40913909      3.95762083
H      -0.45886649      2.17528492      2.44503859
