80
charge=0
O      -0.01290781     -1.74176339     -2.14085362
O      -2.57777691     -1.17077909      1.64399115
O      -3.03356130     -1.02614835     -0.75019788
O      -0.74962191     -3.04643696     -0.50311631
C      -0.38864994     -1.95913478     -0.98285906
C      -0.12603363      0.57892722     -0.56053093
C      -0.45925346     -0.77222914      0.00639623
C      -2.27485628      1.22926449      0.47824930
C      -0.82958371      1.65505899      0.26855798
N      -0.75772089      2.93796197     -0.45065832
S      -2.22855238     -0.58810115      0.35750885
H      -0.51034131      0.60627573     -1.58013341
H       0.95092085      0.75020819     -0.60450606
H       0.04411106     -1.00942573      0.93890057
H      -2.66892924      1.48873859      1.45301955
H      -2.92800590      1.62354526     -0.30049212
H      -0.32679031      1.76532297      1.23450382
H       0.20791540      3.36195450     -0.32849030
H      -1.42071723      3.60991541     -0.01251887
H      -0.96164712      2.79447324     -1.49558271
O      -1.99301295      4.52802086      1.37070048
H      -1.34443693      5.20420357      1.58449271
H      -1.98106195      3.90703316      2.11389435
O      -1.82865375     -1.84698383     -4.18695615
H      -1.09599677     -1.86822266     -3.54570380
H      -2.40591004     -2.57723505     -3.95634281
O       0.17553221     -3.70519965      1.89328989
H      -0.64962149     -3.87872303      2.38916436
H      -0.15142161     -3.48871384      0.99144910
O       2.47803305     -3.15366268     -1.88595154
H       1.62035030     -2.77415894     -2.11881458
H       2.31248473     -3.87741006     -1.23861120
O      -0.96605951      0.14951722      3.39999292
H      -1.65131353     -0.36610497      2.94514158
H      -0.15448482     -0.38840835      3.33693308
O       0.94175174      0.77482857     -3.53899172
H       0.69936853     -0.13881360     -3.34444995
H       1.70856256      0.96383578     -2.97618341
O       3.88658289     -1.34234394     -0.67707942
H       3.33418427     -2.03901172     -1.13698875
H       4.79646974     -1.58167579     -0.85533458
O      -0.28640092     -5.42009211     -1.74352354
H       0.02737169     -5.21419699     -2.62619985
H      -0.59221345     -4.57486438     -1.35550803
O       3.22606107     -0.21907819      1.72987459
H       2.46189348     -0.66814794      2.12465847
H       3.45376724     -0.71511199      0.92224360
O       1.50314939      4.06153135      0.31999485
H       2.25107613      3.45497990      0.45050213
H       1.23161820      4.33829868      1.21217494
O       1.13530327     -1.55102998      2.99277823
H       1.54556725     -1.82715401      3.81403736
H       0.80116956     -2.39551969      2.56707620
O      -3.83904526      2.65444542     -1.77812022
H      -3.54045733      3.40403224     -2.29676021
H      -3.85110807      1.90114007     -2.38432734
O       1.85923744     -5.06540747     -0.08770242
H       1.12330389     -5.44127750     -0.60863109
H       1.46307999     -4.74826625      0.73266049
O      -2.92410782      0.37543242     -3.09921169
H      -3.06757506     -0.13379465     -2.28361152
H      -2.57730643     -0.28738417     -3.72980826
O      -1.12413852      2.42459775     -3.01951455
H      -1.82357698      1.74960352     -3.13862225
H      -0.30844213      1.98554727     -3.34568382
O      -2.38355406     -3.71201981      2.73299254
H      -2.54768209     -2.81410209      2.40127281
H      -2.88955470     -4.29859953      2.16723228
O       0.60887888      4.48340148      2.89448341
H       1.28792853      4.50315488      3.56943968
H      -0.05073540      3.82136117      3.17289635
O       3.47799525      2.26524416      0.91058929
H       3.32976753      1.36140380      1.28854945
H       4.39304433      2.48133736      1.09063520
O      -1.42548028      2.74150307      3.50722706
H      -1.92890772      2.86474693      4.31354595
H      -1.21084789      1.77797542      3.47347605
O       2.85045696      1.05256149     -1.54499754
H       3.24956594      0.18826413     -1.34243157
H       3.15148883      1.65190696     -0.84864946
