106
charge=0
O      -3.10451949     -2.20119370      0.51387588
O      -3.24431929      0.74837420      1.61332106
O       7.56107332     -0.40917460      1.95043621
C      -3.60045579     -1.53660889     -0.37556913
C      -2.14647140      0.27967363      1.34667573
C       6.35034544     -0.31356144      1.92221451
C       3.17720835      0.15399972      0.04596248
C       4.20562845     -0.47698848      0.61432713
C       1.83785840     -0.38816881      0.10568230
C       0.77640450     -0.02970525     -0.63375540
N      -2.21159725     -0.84484274     -2.20438966
C      -4.95131809     -1.81323395     -0.93200450
C      -1.18262145     -0.10455645      2.40739238
C       5.50700306     -0.42400128      3.14184013
C       0.83130017      0.99137572     -1.73508874
C      -0.99234888     -1.49295618     -1.72809985
C      -2.86989347     -0.35520044     -0.99774116
C      -1.72290259      0.14830803     -0.08848919
C      -0.52726915     -0.76171733     -0.43679655
C       5.81942710      1.46253773      0.30468309
C       5.63207055     -0.03103509      0.60636474
H       3.32777486      1.08291276     -0.48495167
H       4.02613369     -1.42698885      1.09618282
H       1.71706562     -1.18287583      0.83007779
H      -1.97466754     -0.04721885     -2.79144578
H      -5.65579513     -1.28790908     -0.27834641
H      -5.05626515     -1.43686842     -1.94346907
H      -5.18441275     -2.87428441     -0.88719730
H      -1.44306992      0.36448355      3.35171766
H      -0.16117500      0.12161968      2.12611074
H      -1.25243392     -1.18394080      2.54950992
H       6.12172057     -0.37018640      4.03642504
H       5.00051623     -1.39162824      3.11911092
H       4.73759345      0.34361537      3.15208378
H       1.65358289      1.68682012     -1.59438581
H       0.98994346      0.48889185     -2.69013282
H      -0.09045599      1.56391275     -1.80226549
H      -0.23327456     -1.48925144     -2.50685883
H      -1.23531959     -2.53115246     -1.48531380
H      -3.59279265      0.42429319     -1.24295196
H      -1.51132694      1.18192176     -0.39529254
H      -0.38344889     -1.50383470      0.34822954
H       5.48542546      1.69129307     -0.70345075
H       6.87231551      1.72254458      0.37531814
H       5.25554336      2.06484933      1.01362010
H       6.17123132     -0.59216908     -0.16895921
O       3.79353637     -3.10374260      2.77865130
H       3.79669628     -3.86506733      3.35952337
H       2.86850657     -2.78810665      2.75314323
O      -2.06948190     -1.04826535     -5.97838512
H      -2.58029192     -1.61419783     -5.31721084
H      -2.49245899     -1.18075251     -6.82710631
O       0.34589379      4.38477614      0.16193840
H      -0.07517515      3.94959409     -0.59284658
H      -0.40689963      4.72538026      0.67183860
O       0.34421712     -1.73628269     -4.89154966
H       0.99681235     -1.91778542     -5.56959841
H      -0.46772555     -1.44815870     -5.35172239
O       1.47360590      0.02135561      4.45004545
H       2.28047408      0.48745019      4.19584373
H       0.77276990      0.68697294      4.42062658
O      -2.21749441      4.71744839      1.18402530
H      -2.40075576      4.09961630      1.93857475
H      -2.80313182      5.46422307      1.30964577
O      -1.49463766     -3.26194172      2.79437221
H      -1.72926344     -3.25663265      1.86062581
H      -2.33500302     -3.20283604      3.26733684
O       8.91975715     -0.26382649     -0.49054673
H       8.47454159     -0.30387213      0.37507116
H       9.80148968     -0.60821365     -0.34305399
O      -5.74902581     -0.56552730      1.82041470
H      -5.05352993      0.10203769      1.77657283
H      -5.45781602     -1.19184316      2.49443331
O       3.25920295      1.99333872      3.39015705
H       3.76682019      2.79761578      3.50194673
H       2.61168054      2.16093826      2.68119659
O      -1.77220613      3.12613330     -1.09693818
H      -2.51887542      2.90802976     -1.67924746
H      -2.14067963      3.63489277     -0.35837989
O      -0.92195732     -4.02865407     -4.01370636
H      -0.37616461     -3.25781287     -4.25981052
H      -0.47182626     -4.46405616     -3.28913877
O      -0.11417636      2.37828666      3.95245634
H       0.31574456      3.05292125      4.48037100
H       0.33537132      2.37824139      3.07948384
O      -2.69275931      3.03944175      3.16313739
H      -3.07038952      2.24320289      2.76089682
H      -1.83473883      2.77463240      3.54100510
O      -3.72533577      2.27509602     -2.85627754
H      -3.08881074      1.88434179     -3.47956017
H      -4.28214264      2.86384497     -3.36702107
O      -1.78068311      1.17653346     -4.45887778
H      -1.92736843      0.43357045     -5.07549058
H      -0.84576456      1.38623941     -4.48778917
O      -3.20396488     -2.49679821     -4.15858673
H      -2.56665247     -3.23119493     -4.11953803
H      -2.99518956     -1.93754983     -3.37715589
O       1.22549371     -2.18852265      2.83035628
H       0.42084227     -2.67760601      3.03728745
H       1.28831798     -1.45472313      3.47215663
O       1.22393688      2.37556257      1.60715057
H       0.96385386      3.16677472      1.06604138
H       1.25724832      1.62556664      1.00062469
O      -4.35143809     -2.89786307      2.89533191
H      -4.01522074     -2.68454296      2.00821644
H      -4.98379942     -3.60985854      2.78684612
