96
charge=-3
O       4.29004290     -1.83666070     -0.31856279
O       2.40037472      2.44502698      0.74149629
O       1.88053382     -2.33914214      0.34171046
O       2.33977986     -1.00978814     -1.74557935
O       1.03644824      0.73786620      2.08552045
N      -0.59539750      0.54428702     -0.42738422
N      -0.00903329      0.89289948     -2.55185743
N      -5.82585308      0.77251997      3.17795249
O       2.88738863      0.01372338      0.50506754
C      -0.99829919      0.51909400     -1.68655477
C       1.00844810      1.14882941     -1.76202450
C      -5.87180565      1.42512293      2.02350485
C      -4.92865328     -0.20750533      3.27451147
C      -3.83989784      0.19011603     -4.05870870
C      -4.90967618     -0.04297682     -3.20926048
C      -2.57213865      0.33222560     -3.53398714
C      -5.07132510      1.14713822      0.93661336
C      -4.07864551     -0.57713223      2.25992453
C      -4.70036074     -0.14806542     -1.84982743
C      -2.34268727      0.24822464     -2.16108027
C      -4.12947059      0.11067354      1.03732795
C      -3.42444087     -0.01100158     -1.29785456
N      -3.22754472     -0.18326439      0.06152556
N       0.68370092      0.95100207     -0.48416717
P       2.84656951     -1.40958401     -0.37204682
P       1.80763385      1.08857526      0.85513966
H       1.95756169      1.52427167     -2.07576164
H      -6.59799590      2.23019786      1.97724893
H      -4.89826410     -0.71535672      4.22936111
H      -3.99273565      0.25790011     -5.12583270
H      -5.90954381     -0.16188992     -3.60760270
H      -1.73448023      0.52278962     -4.18474743
H      -5.14077564      1.73919137      0.03612167
H      -3.36640737     -1.37336871      2.39350024
H      -5.52822920     -0.37029179     -1.19073166
H      -2.48090945     -0.85483517      0.33898970
O       3.96780262      0.53849767     -3.11457465
H       3.35075190     -0.05874295     -2.62459111
H       4.84303807      0.23589482     -2.80678355
O       4.83758698      1.16201257      2.76041863
H       4.85432037      0.19823556      2.61204677
H       4.16341239      1.49175137      2.15908609
O       4.62786587      2.43571850     -1.04527722
H       3.91459832      2.44645088     -0.38693195
H       4.28769855      1.92667307     -1.79812919
O       3.67782807     -4.51590762      0.20855052
H       2.84222987     -4.06688766      0.39718244
H       4.22644484     -3.75903313     -0.04879952
O      -1.65172007     -0.45830340      4.19865217
H      -1.68456843      0.21483973      3.49683478
H      -0.94999622     -1.05714657      3.91863137
O      -5.66237855      1.63424908      6.01293149
H      -4.69127061      1.58402798      6.08472763
H      -5.84127226      1.41903207      5.08629537
O      -2.84504343      1.44788131      5.95069338
H      -2.49136447      0.68020784      5.47504498
H      -2.54633193      2.20911985      5.42762591
O       0.44552411     -1.82363575      2.51504094
H       0.65018439     -0.86628634      2.47659182
H       1.01702208     -2.16411257      1.79128078
O      -0.04189197     -2.65088401     -1.36371594
H       0.71120608     -2.64893678     -0.70330672
H       0.07685441     -1.79191287     -1.78185684
O      -1.45126453     -3.02519517     -3.92434297
H      -1.15078523     -3.08832410     -3.00936987
H      -0.86229976     -2.36588189     -4.32938613
O       0.58605714     -1.16355733     -4.60578842
H       1.19417089     -1.85210989     -4.24368937
H       0.48644350     -0.50373927     -3.90319733
O      -1.85826635      3.36012975      4.09786932
H      -1.92143589      2.66535166      3.42160941
H      -1.00989925      3.77678927      3.91328474
O      -1.63863800     -2.22334100      0.83617148
H      -0.94062651     -2.05006991      1.50853601
H      -1.14475793     -2.46040377      0.02980591
O       0.35093344      3.92695400      2.03137546
H       1.16101358      3.53110481      1.66913964
H      -0.31620287      3.24137028      1.91325889
O       2.08519499     -3.02343023     -3.38804439
H       1.43088755     -3.52379535     -2.88950068
H       2.35516423     -2.30987419     -2.75555179
O      -1.45173605      1.45238556      2.14636120
H      -1.70121958      1.13104860      1.27021309
H      -0.48845920      1.21261919      2.19992017
O       4.62448898     -1.61000104      2.34266947
H       3.69730428     -1.67737541      2.58273341
H       4.61066329     -1.69087065      1.36170245
O       0.54665395      2.42348094     -5.09375884
H       1.31892242      1.88731334     -5.35713879
H       0.27414093      2.03955559     -4.25081998
O       6.03863723     -0.13958395     -1.44893838
H       5.43956924     -0.80339721     -1.03426492
H       5.81090016      0.69216455     -1.01033826
O       2.59772655      0.58481331     -5.53550695
H       1.93843305     -0.10930313     -5.36191779
H       3.14521722      0.61272078     -4.72807343
