100
charge=0
Br      3.13656325     -0.09654633      3.15273331
Br      4.83261029      4.53050165      0.07473501
N       2.39462692      2.92322324     -1.10627319
N      -0.41453792     -2.30179088      0.96333110
N       0.83650192      1.15350963     -0.99520055
O      -1.16708387     -0.55102338     -0.21534523
C       1.35966764      2.26624132     -1.52484803
C      -0.16877186     -1.16678299      0.42419763
C       1.42754472      0.63752467      0.06471960
C       4.24059359      2.22251949      1.80903715
C       3.31800282      1.18018059      1.79978251
C       3.98555255      2.98348350      0.68259929
C       2.51438965      1.31539818      0.67281077
N       1.03170096     -0.55380833      0.58464433
N       2.95116831      2.45564335      0.01205313
N      -4.34876404      0.13934437      0.36699715
C      -5.29817238     -0.90136071     -0.01779018
C      -3.86659714      0.83011044     -0.83300840
C      -4.57944592     -2.03712089     -0.77474692
C      -3.39039697     -0.17073431     -1.89606697
C      -1.79621185     -2.61588377      0.67744716
C      -3.22206386     -0.48245749      1.04972010
C      -3.19993493     -1.51981806     -1.20014609
C      -2.36469615     -1.31049384      0.06816106
H       0.88548072      2.64429016     -2.41687270
H       5.00104777      2.40622453      2.54054413
H       1.79178000     -1.16707393      0.95784339
H      -6.06479766     -0.43673689     -0.64070946
H      -5.78079894     -1.27783506      0.88826724
H      -4.67369811      1.46017205     -1.21182777
H      -3.04164625      1.47032832     -0.52664440
H      -5.14707789     -2.32914425     -1.65775549
H      -4.46799580     -2.91799454     -0.14132260
H      -4.12662930     -0.28362153     -2.69249280
H      -2.45912812      0.16512740     -2.34252822
H      -1.83645160     -3.44657031     -0.03432510
H      -2.30400972     -2.91364580      1.59628536
H      -2.59731312      0.29603643      1.49181328
H      -3.60833742     -1.11008120      1.85560066
H      -2.70494754     -2.23486887     -1.85834284
O      -1.70928584      3.15406469     -2.26858093
H      -1.29164135      2.93755963     -1.42211330
H      -2.54239584      3.57582458     -2.03076204
O      -0.94806945     -3.13746438     -2.94673034
H      -1.07755428     -3.33979161     -3.87466715
H      -0.58804764     -2.22324352     -2.91774272
O      -4.81372243      2.37789330      1.89917234
H      -5.67179658      2.35755159      2.32390207
H      -4.72471639      1.54521633      1.38008709
O      -1.23113795      1.33612076     -4.23836245
H      -0.96986285      1.86222563     -4.99471294
H      -1.45009388      1.97259258     -3.52715944
O       5.32189212     -0.76643449      0.51555244
H       4.55191253     -1.33152855      0.72416583
H       6.07032210     -1.35973483      0.43735542
O      -0.84358594      4.63583907      2.55669914
H      -1.23073400      5.50736849      2.47034381
H      -1.53575109      4.05502351      2.97718561
O       0.09938357     -0.65787311     -2.94264493
H       0.09841240     -0.12923539     -2.12310798
H      -0.32531812     -0.06806806     -3.59174371
O      -3.56613347      4.03908053     -0.09486104
H      -4.16511749      3.65560918      0.55645295
H      -2.68878978      3.70447404      0.14661507
O      -1.05912328      2.86823396      0.47051343
H      -0.81385465      3.57993699      1.08777724
H      -0.98311813      2.05022073      0.98136459
O       1.37834977     -4.48441849     -2.30782380
H       1.93628865     -3.69841062     -2.21804883
H       0.48107249     -4.13766910     -2.46238831
O      -2.53980081      2.84671046      3.46430330
H      -3.34803493      2.74044352      2.93599109
H      -1.97124077      2.08214490      3.25030483
O       1.56195086     -4.14843025      1.74634427
H       0.74375448     -3.67086542      1.53077948
H       1.55633156     -4.93185217      1.15986088
O      -0.11356511     -1.40940977      3.66651345
H       0.76125430     -1.52329727      4.04569576
H      -0.14392586     -1.98095826      2.88445803
O       1.45867833     -6.06189340     -0.15287757
H       2.15366379     -6.69705301     -0.32679340
H       1.38899177     -5.50643971     -0.96413759
O      -0.66822535      1.03626624      2.59346086
H      -0.52152336      0.18092810      3.04434542
H       0.11085271      1.58564947      2.80387703
O       4.01279557      0.24120706     -1.67672613
H       4.62730538     -0.00578020     -0.96285364
H       4.43287875      0.93786395     -2.20087603
O       2.43542009     -1.92715265     -1.97780080
H       3.08593669     -1.20052164     -2.00256611
H       1.64257171     -1.55001983     -2.38846052
O       3.05072074     -2.26928297      0.71417615
H       2.62751723     -3.05126054      1.16059883
H       2.87210086     -2.36103175     -0.23895467
O       1.24892941      2.93868399      3.09870034
H       1.45842787      2.99160005      4.03326018
H       0.63815870      3.67295986      2.91399179
O       4.76578665      2.67915605     -2.83401396
H       3.94585463      3.09980375     -2.54372098
H       5.47267077      3.30441895     -2.65907398
