103
charge=0
O       3.04338460     -0.75820849     -2.50132538
O      -3.10810093     -1.85965110      2.07925523
O      -4.15603117     -3.99088155      1.62718799
Br      4.88460892     -2.74655436     -7.70594645
Br      1.38221245     -3.83891364     -7.78091361
N      -0.45310335      1.90336834      3.02923842
N      -0.95433458     -0.31264634      3.57356249
O       2.60711805     -0.86226639      0.19663909
O      -5.18061834     -2.42741445      3.19434955
C       2.28653329     -1.57589893     -3.05875108
C      -0.34656867      0.64236447      2.80049915
C      -0.58388301     -1.48088783      3.09572712
C       3.79893355     -1.96958868     -5.07793565
C       3.61308136     -2.56290011     -6.33284249
C       2.30013627     -2.99119444     -6.38805047
C       2.59032615     -2.05989832     -4.40501222
C       0.32626601     -1.30485503      1.94365742
C       0.94292760     -2.24590166      1.21948101
N       1.69408217     -2.69594894     -5.21985270
N       0.37634092      0.05995480      1.79471170
N       1.19471390     -2.05704157     -2.46733668
N      -0.94808850     -2.65910630      3.56703383
C       1.72563466     -1.94636546     -0.02337108
C       0.72356882     -1.63172290     -1.16375630
C      -1.98861306     -2.82120308      4.55407289
C      -3.08331936     -3.72187166      4.02792571
S      -3.93576682     -2.95022553      2.62385761
H       0.04289931      2.45738916      2.34148384
H       2.99573435     -0.64195586     -0.67116038
H      -5.38111144     -0.97784356      3.33908842
H       4.71183045     -1.54179496     -4.71808844
H       0.83018302     -3.28246926      1.47651552
H       0.69620543     -2.84171429     -5.02468955
H       0.97280868      0.58117941      1.15767917
H       0.57409525     -2.66818684     -2.97919333
H      -0.72516894     -3.49145331      3.00281687
H       2.30745380     -2.83675901     -0.30565723
H       0.53711563     -0.55270513     -1.17128588
H      -0.21541978     -2.14783479     -0.96990439
H      -1.55055609     -3.26139398      5.45934687
H      -2.39018184     -1.83766274      4.80194654
H      -3.86851961     -3.87056007      4.75979762
H      -2.69475323     -4.67882992      3.69791035
O      -5.35207652      0.05792122      3.35008355
H      -4.52824992      0.29797942      3.93965991
H      -5.05542775      0.27061810      2.34989206
O       4.22276477      1.03573633     -4.16676289
H       4.30348977      1.79999134     -3.58477185
H       4.01269816      0.29087002     -3.57020173
O       1.88894560      1.07093819     -5.40303767
H       2.02228805      1.12048530     -6.35064972
H       2.79657490      1.01710975     -4.99914570
O      -3.27224670      0.61874653      4.68404162
H      -2.45961282      0.23854233      4.27445079
H      -3.16253168      1.58463210      4.58418038
O      -2.55583204      3.13096905      4.00080625
H      -1.71195906      2.68411759      3.69653743
H      -2.29447081      3.85480535      4.57031898
O      -0.75621200     -4.77987231      1.77349785
H      -1.12582101     -4.25113898      1.03780664
H      -1.39480191     -5.49860042      1.91278764
O       2.93037718      2.04660478     -1.81316887
H       2.78021046      1.10433207     -1.97247318
H       2.32729174      2.52244006     -2.40110088
O      -0.58480905     -0.06031709     -4.41719050
H      -0.62406628      0.34208392     -3.52959722
H       0.25000655      0.23799273     -4.80238636
O      -4.38250004      0.30616273      1.07098622
H      -3.87463745      1.15286437      1.05879608
H      -3.76530775     -0.42814646      1.24994482
O       1.66600807      2.25801046      0.59185278
H       2.23060909      2.48410046      1.37004504
H       2.25197891      2.22500278     -0.18686116
O       3.41474136     -0.15937328      2.77827945
H       3.07904641     -0.41261156      1.90164163
H       4.32046188     -0.46976217      2.81852813
O      -0.87619934     -2.68198741     -4.33784278
H      -0.89496542     -1.69176556     -4.35804398
H      -1.74276815     -2.98164199     -4.61444187
O       1.29681497      2.72657082      4.99039525
H       0.56479252      2.41613875      4.41990968
H       1.47194251      2.02098976      5.61503347
O      -3.13161889      2.62781650      1.27424041
H      -2.27309587      2.77520277      0.84931616
H      -3.04848410      2.90566923      2.19749724
O      -3.01696675     -6.32974970      2.01663696
H      -3.53097239     -5.50964689      1.83495138
H      -3.41559291     -7.02065106      1.48652757
O      -0.72989893      3.16112120     -0.05849556
H       0.16842881      2.85305246      0.21264138
H      -0.65372908      4.09753707     -0.24424104
O      -2.01703776     -3.12690149     -0.00576957
H      -2.79949447     -3.65182516     -0.20349590
H      -2.32384112     -2.54067028      0.71588537
O       3.05399308      2.57439838      2.82157675
H       2.52392644      2.80242119      3.60449493
H       3.25431446      1.62477388      2.90963032
O       1.13842049      3.05970044     -3.73466638
H       0.77117116      3.82116454     -4.18425103
H       1.34754002      2.39037884     -4.42023757
O      -0.24290666      1.29735050     -2.08286655
H       0.20478274      2.00222809     -2.57638822
H      -0.71625458      1.74937830     -1.37020684
