104
charge=0
O       3.21350405     -1.92021302      1.45112440
O      -1.51189273     -2.12964912     -1.20928469
O       6.15791142      2.52804435     -0.50746143
O      -6.96685012      0.76798041      3.38082068
O      -7.73482636     -1.08854421      2.02123148
N      -0.23397411     -1.34695121      1.85956612
N       1.13915465     -0.41100076     -1.32087270
N       1.53303959     -1.54691713     -0.96890446
O       2.11121574     -0.88903835      3.09924741
O       6.84979059      1.64339313     -2.79727546
O       6.30859012      0.05126331     -0.91657710
O      -6.96138123      0.95720425      0.94519680
C       2.17731910     -1.54087850      1.97816453
C      -0.83335971     -2.03757229     -0.22177811
C       0.86673835     -1.74719771      1.33985183
C       2.44694855      2.24367866     -3.45631109
C       1.57070483      1.33090006     -2.90552231
C      -2.80005941     -0.11004838      2.19468320
C      -3.59676658     -1.97489841      0.85938048
C       3.77534289      2.27676763     -3.05711489
C       3.37473278      0.44307312     -1.56406066
C      -4.11094456      0.23269837      2.47604682
C      -4.89877374     -1.63937219      1.16823275
C       2.03336901      0.41137271     -1.95992355
C      -2.55676715     -1.20048856      1.36091721
C       4.23104621      1.37342046     -2.10940190
C      -5.13631016     -0.53079780      1.95335866
N      -1.24436646     -1.53541496      1.01069396
C       0.67078124     -2.26567511     -0.06908269
P       5.93909056      1.44783192     -1.51514331
S      -6.79464725      0.00583721      2.15540083
H       3.04393006     -0.61831884      3.48172639
H       7.27547277      2.57739799     -2.88977577
H       6.17649120     -0.76088114     -1.55072036
H      -7.77345544      1.66917076      1.03856363
H       2.09445233      2.94430387     -4.19746544
H       0.53709755      1.29029057     -3.21119175
H      -1.97480092      0.45741535      2.59752182
H      -3.38814737     -2.83323952      0.24745007
H       4.45367755      3.00507219     -3.47312793
H       3.71126636     -0.23662115     -0.79620629
H      -4.34652643      1.08348087      3.09390751
H      -5.71705758     -2.23692803      0.81171483
H       0.91342533     -3.33021303     -0.14642028
O      -0.08224547      1.14657853      3.45787850
H       0.33520017      0.28058274      3.37689118
H       0.60430490      1.75069842      3.74575303
O       7.86336165      3.96504178     -2.94785446
H       8.40019313      3.97184374     -2.13042596
H       7.08127381      4.51107359     -2.72847532
O      -7.84016617     -2.46559378     -0.28700560
H      -8.74205356     -2.67509324     -0.53459411
H      -7.87959380     -2.01892591      0.58247659
O      -9.71304821      0.74950844      3.14460637
H      -8.81534241      0.72142873      3.51175030
H      -9.86754109     -0.13406370      2.80091399
O      -1.29391408     -4.45265177      0.46636959
H      -1.28093865     -4.85784236     -0.40435557
H      -2.17481835     -4.67135842      0.82792652
O       5.67751904      4.97422509     -1.70832913
H       5.83008617      5.69046837     -1.08942515
H       5.71249979      4.15187723     -1.18769992
O      -7.39433027      3.45768453      3.41187668
H      -7.10114317      2.53426190      3.51190747
H      -7.79278053      3.70980834      4.24696237
O       4.26078948     -0.98234138     -4.31904600
H       4.84717603     -0.32552552     -4.75056726
H       3.91071977     -1.53817773     -5.01692247
O      -6.09659953     -0.54122827     -1.40137832
H      -6.29167349      0.17697719     -0.79131958
H      -6.74939570     -1.23278530     -1.21352666
O       5.86154505     -1.94977484     -2.37192275
H       5.24858553     -2.50643809     -1.84061094
H       5.30989002     -1.62585599     -3.11509146
O      -8.82865238      2.53836840      1.35629857
H      -8.37086001      3.14409665      1.98153837
H      -9.39547146      1.96939951      1.92615641
O       4.38120088     -0.03988538      3.91970061
H       5.08727784     -0.61091808      3.58868735
H       4.42844473      0.75535151      3.35676827
O      -5.62993647     -4.30191394     -0.84839234
H      -6.43913116     -3.80674226     -0.67234780
H      -5.11407265     -3.74150315     -1.46551746
O       3.86902635     -3.11721371     -1.02497302
H       3.77183858     -2.91174868     -0.08515357
H       3.11885949     -2.67318111     -1.44546049
O       8.67011678      3.64117712     -0.38229294
H       7.79211223      3.23280783     -0.26871584
H       9.30616767      3.00927189     -0.04480874
O       6.13427739      0.69148531     -5.29125162
H       6.92290118      0.28701216     -5.65801277
H       6.40184331      1.08315948     -4.44237676
O      -4.24862825     -2.47715659     -2.30085056
H      -3.33116598     -2.28573376     -2.07610209
H      -4.76171789     -1.67867342     -2.10638373
O      -3.90656601     -5.11411437      1.04878784
H      -4.55554257     -4.82938675      0.36529319
H      -4.14345599     -6.01394946      1.27567838
O       4.71349505      1.42320949      1.67049282
H       5.21440453      0.59427796      1.56847584
H       5.14433752      2.03801351      1.06527028
O       5.87081896     -1.10180245      1.71155984
H       6.31931831     -1.02904453      0.86251578
H       5.02930329     -1.55731372      1.54917980
