88
charge=0
Cl      3.24128894      3.40088279      0.07831212
Cl     -0.58872641      4.03120654      3.63096224
Cl     -0.97296799      1.08847832      4.82567884
Br     -1.23654969     -2.25749628      1.33122312
Br      1.50373660     -0.65739171     -0.40673856
C      -1.13529226     -0.82992007      2.55610227
C       1.13209499      2.14152119      1.03148801
C       0.63950989      2.10377348      2.26076809
C      -1.67360851      0.34530202      2.29554984
C       3.41240249      1.22948155      1.70463807
C       2.54665496      0.94500007     -0.64353329
C      -3.05589652      2.07871486      3.42412702
C       2.52496642      1.79722268      0.61582211
C      -0.73835645      2.58795698      2.55891848
C      -1.64867910      1.53585260      3.20576820
H      -0.61808573     -1.09433553      3.46343090
H       0.49452021      2.48733638      0.22946471
H       1.21830647      1.75698725      3.10337482
H      -2.15542772      0.52425954      1.34565740
H       4.41165594      1.05650251      1.31015290
H       3.00712504      0.28642871      2.06813610
H       3.48559854      1.92177340      2.53931006
H       2.10263581      1.46684616     -1.48758306
H       3.55987787      0.63265385     -0.88183391
H      -3.44887498      2.46298183      2.48726089
H      -3.03681769      2.88892490      4.14828732
H      -3.71262185      1.29286568      3.78723336
H      -1.22263286      2.94175343      1.64500583
O       2.10202271      0.33956882     -4.35367911
H       2.73722261     -0.25347883     -3.91697710
H       1.27329303      0.28641999     -3.84656208
O      -2.20974471     -3.57858219      4.31424953
H      -2.69350292     -2.75471401      4.48892548
H      -2.42644387     -3.82773653      3.41220628
O      -0.21796027      0.93358139     -3.00255950
H       0.04757843      1.83654002     -2.73816348
H      -0.91102578      1.02950428     -3.65764238
O       5.15138350     -1.66776621     -0.84470129
H       4.70913617     -2.12137444     -0.10150859
H       5.50295533     -0.83007030     -0.49610576
O      -5.28286383      0.86438020      0.90765626
H      -4.86590339      1.74248847      0.77625534
H      -6.22752433      1.01136328      0.96732996
O      -4.20234756      3.30038039      0.47232491
H      -3.29689857      3.24938380      0.09453014
H      -4.68112284      3.92953238     -0.06866311
O      -4.38965366     -1.50863259      2.18979244
H      -4.11577946     -1.33164937      3.09558562
H      -4.65002200     -0.66011642      1.80292758
O      -4.29380880     -2.89976836     -0.22658859
H      -4.38672704     -2.54536367      0.67299292
H      -3.41083077     -3.27254628     -0.27026942
O       0.40781772     -2.93248029      4.67042822
H      -0.51727022     -3.22674242      4.53135277
H       0.81307509     -3.59067681      5.23525494
O      -1.83390110      0.42755928     -0.77711277
H      -1.19554089      0.18735792     -1.46002354
H      -2.71291928      0.07515746     -1.06518890
O       3.81784678     -2.95204874      1.16234075
H       3.17618158     -3.51060942      0.71936373
H       3.31906394     -2.45372638      1.83717808
O      -4.26334457     -0.43334382     -1.36668093
H      -4.30437033     -1.38273340     -1.13168197
H      -4.72273644      0.01314752     -0.63838001
O       5.99817748      0.91694143     -0.35138647
H       6.94403375      1.03828447     -0.26472170
H       5.76567298      1.24020436     -1.25150209
O       0.73796571      3.42635250     -2.35234612
H       1.50860960      3.33017379     -2.95158696
H       1.10781367      3.78076503     -1.53732545
O       4.16551924     -1.03960794     -3.17365066
H       4.57872081     -1.65471159     -3.78022928
H       4.45312180     -1.33325900     -2.26553894
O      -1.74670010      3.03038726     -0.56269504
H      -1.76742629      2.03798635     -0.65518524
H      -1.28909461      3.37029400     -1.33584336
O      -3.34868979     -1.08010468      4.90969063
H      -2.57565173     -0.50002074      4.99423442
H      -3.75924446     -1.13196762      5.77524076
O       2.89153208      2.77519392     -3.85323317
H       3.11860356      3.22189253     -4.66932878
H       2.60627031      1.85061034     -4.11099050
O       2.02060715     -1.68637000      2.80167110
H       1.57607642     -2.13902022      3.53921538
H       1.37718451     -1.66017436      2.08683576
O       5.22470286      1.50170576     -2.85929285
H       4.90175503      0.61213428     -3.09397430
H       4.49444932      2.10672596     -3.05609640
