102
charge=0
N      -5.00363359      4.73140131     -5.45190558
N      -4.44864113      3.89785981     -2.66543009
N      -2.82094190      4.57026448     -5.89036799
N      -2.46407374      3.18971103     -1.96362710
N       1.24350289      1.46361398      5.04548370
N       2.41559476      1.18162719      2.99859287
N      -1.28802342      1.45957165      1.18764743
O      -2.35246689      3.62089272     -3.24794296
C      -3.80705780      4.46772110     -4.96159813
C      -3.57291283      4.02423025     -3.61880788
C      -3.46962468      4.89524519     -6.98512086
C      -3.72285323      3.36300713     -1.65207333
C       2.33759310      1.10484646      4.34259832
C       0.19405240      1.88560241      4.37723069
C       1.34344382      1.57952324      2.34803860
C      -2.35556533      1.66912917      0.44459516
C      -1.04079929      2.26915352      2.21815627
C      -1.88369152      3.33379336      2.52511080
C      -2.97067383      3.58306668      1.70507243
C       0.16123688      1.95261910      2.98378259
C      -3.22713308      2.73620185      0.63339400
N      -4.77974662      5.00383797     -6.72973670
N       3.39706494      0.66479839      5.00543033
C      -6.46897556      2.69314370     -0.56467501
C      -5.56214995      3.78533997      0.01747235
C      -5.27178470      1.73692195     -0.61831870
C      -4.32625570      2.94461473     -0.36121770
H      -3.01911185      5.05271878     -7.94244210
H      -0.67307125      2.14524477      4.97114465
H       1.42807823      1.62647681      1.26944657
H      -2.52409110      0.95812696     -0.35183229
H      -1.66503414      3.97384216      3.36589593
H      -3.60439512      4.43686783      1.89416623
H      -5.58535832      5.09072260     -7.37562815
H       4.19518601      0.29142628      4.49359841
H       3.34302699      0.53126260      6.00769935
H      -7.30172892      2.38019054      0.06065879
H      -6.83093301      2.95036535     -1.55589893
H      -5.67295946      3.89014377      1.09457269
H      -5.62340763      4.76045657     -0.45859176
H      -5.11153579      1.22080475     -1.56111990
H      -5.24567215      1.02381465      0.20296067
O      -2.10521979      0.83300885     -7.18760173
H      -1.50796620      1.58694377     -7.11973028
H      -1.87062466      0.26621550     -6.44401473
O       6.85591888     -0.72159501      5.88367032
H       7.69847302     -1.14641938      5.71827817
H       6.42780675     -0.61359175      5.01545114
O       4.77190096     -2.18686709      6.88790784
H       4.17353732     -1.53449435      7.29255638
H       5.57678446     -1.68255649      6.66071194
O      -6.98675325      4.59477834     -8.21396104
H      -7.17905647      3.89641570     -7.53875363
H      -6.92615408      4.13708783     -9.05392358
O      -7.04657189      2.74935520     -6.29655698
H      -7.00091076      3.27339951     -5.49137178
H      -6.16348507      2.33626481     -6.36969465
O      -0.99326950     -0.70687408      3.86617386
H      -1.58533352     -0.85286970      4.60612365
H      -0.16008223     -1.16462746      4.10315815
O       0.05616744     -0.61634720      0.09256094
H      -0.36321230      0.09305560      0.63668586
H       0.95628197     -0.72562270      0.40749082
O       0.64931915     -0.63126455      6.85068530
H       0.77054880     -1.33654197      6.19082563
H       0.67654292      0.19822199      6.34342996
O      -0.60671324      2.93817743     -5.85240878
H       0.10076224      3.37250266     -5.37306762
H      -1.37524925      3.54659169     -5.82176536
O       3.08573573     -0.20738545      7.76615761
H       3.07063336      0.16140931      8.64921814
H       2.14981307     -0.44130801      7.53718735
O      -1.21222334      0.65928696     -4.41075707
H      -0.70950285      0.72627479     -3.57341346
H      -0.97724304      1.46887881     -4.90086898
O      -1.39636291     -2.37167773      1.71021524
H      -1.39885052     -1.70009983      2.41729093
H      -0.95476433     -1.94484576      0.95884316
O      -4.47030849      1.88712858     -6.22856520
H      -3.75050106      1.48069432     -6.74408426
H      -4.32689358      1.58423567     -5.31299296
O      -0.05473885      1.21468054     -2.03431190
H      -0.72754570      1.84623026     -1.75430088
H      -0.04629631      0.49183126     -1.38328869
O       4.33444361      0.22303977      1.30184136
H       4.74220278      0.97486089      0.87022419
H       3.62668501      0.58026984      1.88412917
O       1.10209508     -2.21823558      4.65325181
H       0.76749305     -2.99152785      4.15091714
H       2.07352674     -2.27173060      4.57036154
O       0.10366081     -4.13218904      3.04233744
H      -0.48374091     -4.83597063      3.31922790
H      -0.43550294     -3.54445917      2.45864798
O       3.77767919     -2.71713282      4.54385407
H       4.12215334     -2.55639870      5.47251931
H       3.86155688     -3.65797856      4.38367837
O      -3.77311848      0.86095832     -3.75752738
H      -4.10311046     -0.03939958     -3.76868662
H      -2.80655127      0.78994739     -3.96949413
O       5.40610234     -0.75637730      3.57719591
H       4.85514075     -1.53846920      3.76659805
H       5.17728195     -0.48735668      2.66705699
