96
charge=0
N       1.32875452     -7.02706116     -2.49925627
C       1.25044859     -6.24548433     -1.65825112
O       1.29063117     -5.32003131      0.57803410
O      -1.61985958      2.29634360     -1.40420894
C       0.97132118     -4.14181743      1.12375406
C       1.07188425     -5.20343500     -0.75203275
C       0.61069938     -3.94400867     -1.05527835
C       0.54225419     -3.24344532      0.17297013
C       0.16100264     -1.25268784      1.61303674
C      -0.31227652      0.02792176      1.78186618
C      -0.44582011     -1.15927583     -0.70737498
C       0.08675710     -1.87633434      0.36473096
C      -0.87516146      0.72873231      0.71245809
C      -0.91765902      0.13257308     -0.55590051
N      -1.30189808      2.03172353      0.86816819
C      -2.42457701      4.02508714      0.03347792
C      -0.43208063      0.89623851     -2.89278895
C      -2.78452054      0.31629444     -2.22043042
C      -2.20910471      2.52985670     -0.14551945
C      -1.44957293      0.90359356     -1.74692026
H       1.09505086     -4.05272427      2.18488489
H       0.36758992     -3.59183173     -2.03537119
H       0.59421867     -1.77432236      2.44964606
H      -0.23833366      0.50990411      2.74245325
H      -0.50075268     -1.62227561     -1.67705581
H      -1.51371343      2.32683630      1.81598987
H      -1.48623724      4.56190465     -0.07132051
H      -2.83326816      4.21375171      1.02130896
H      -3.12080900      4.39288428     -0.71334431
H      -0.34486551     -0.10066153     -3.31060367
H      -0.75501173      1.57320041     -3.67902055
H       0.54771591      1.21446124     -2.54512707
H      -3.14538760      0.87911779     -3.07769049
H      -3.52661100      0.36371156     -1.42764954
H      -2.65806166     -0.72431456     -2.49942714
H      -3.17595769      2.00010129     -0.08295582
O       3.74613482     -3.27154801      0.06793726
H       3.88446481     -3.87503911      0.83014090
H       4.57668112     -3.24941740     -0.41006160
O      -2.89279019     -3.15704697     -2.32237656
H      -3.48021324     -3.87053454     -2.57536180
H      -2.08433719     -3.26432938     -2.85990412
O       3.70460826     -0.84106824      1.32878963
H       3.62739484     -1.67986464      0.83585040
H       3.26301813     -0.15978751      0.78205974
O       2.34179430      0.91386910     -0.19790413
H       1.52062984      0.47008705     -0.42335039
H       2.09505650      1.78027929      0.18785668
O      -3.94212619     -0.13740490      1.15738379
H      -3.60501409     -1.01042429      0.84995175
H      -4.89255975     -0.23948092      1.23474455
O      -0.09961324     -6.01914705     -4.78188544
H       0.30256025     -6.53209129     -4.06409835
H       0.44187292     -6.17467549     -5.55856925
O       3.95612359     -4.94648141      2.18430499
H       3.45299432     -5.72747688      1.94413046
H       3.42686385     -4.48257268      2.86423908
O       1.27414537      3.19669153      0.81542389
H       1.39667191      3.28639395      1.78140127
H       0.34493325      2.91869056      0.73505155
O      -3.05017940     -2.54135024      0.36121116
H      -3.06946587     -2.69588328     -0.60150676
H      -2.12199562     -2.58210239      0.60797501
O       0.65747467      3.98676324     -1.81642545
H       1.16619035      3.91950452     -0.99712344
H      -0.06751528      3.34553441     -1.73460968
O      -0.00746987      3.71231841     -4.71133997
H       0.48874626      3.83061597     -3.89471036
H      -0.93783278      3.87950600     -4.48162938
O       1.10755552      0.57225709      4.66523219
H       1.30708294      0.67674841      5.59632777
H       1.79535356     -0.01346528      4.29226555
O      -2.95709238      0.35934911      3.64127531
H      -3.31158454      0.21958671      2.73690372
H      -2.24867427     -0.27857934      3.75172942
O      -1.94063624      2.83524255      3.59614526
H      -2.51706021      3.44466419      4.05754041
H      -2.32160197      1.93605867      3.72868019
O       0.90438161      3.08574948      3.49405623
H      -0.05621775      3.18114582      3.55767434
H       1.08642316      2.20717596      3.86747909
O      -0.73046253     -3.47260074     -3.98067931
H      -0.80488055     -2.96151090     -4.78904415
H      -0.54577156     -4.39339128     -4.25154000
O      -2.48039614      4.13967852     -3.47017869
H      -2.11555243      4.95365317     -3.07582843
H      -2.34060865      3.45024406     -2.80905680
O       3.11544569     -1.06383931      3.80559143
H       3.96075005     -0.84274587      4.20081194
H       3.26988100     -0.95797631      2.81163394
O       2.39674559     -3.64656790      4.01502624
H       2.56191031     -3.87813987      4.93001168
H       2.62787136     -2.69475641      3.92204339
O      -0.90839263      6.13298190     -2.39674299
H      -0.24896731      5.45270116     -2.15025653
H      -0.54153798      6.59125211     -3.15460813
