76
charge=0
Cl     -1.87029625     -1.75339976      4.70912107
N      -0.31800525     -0.08001505      0.31979847
N      -0.00485196     -3.53601562      4.90752517
N      -0.21847391     -1.12802037      2.33528311
S       1.34765746     -4.22332341      4.41023822
S       1.68945286     -3.02294312      2.75837992
S       2.14425683     -0.48330294      1.10281888
C       0.37372767     -0.59238649      1.25608624
C      -0.45282369     -2.53807859      4.23505409
C       0.24432589     -2.07062569      3.06157191
C       0.46271439      0.39274309     -0.78615548
C       1.90738031      0.62045732     -0.33291848
H       0.02306615      1.31088368     -1.17001652
H       0.41452843     -0.36761993     -1.57261643
H       2.63174158      0.38054840     -1.10244174
H       2.06735591      1.63743223      0.02265888
O       2.01929675     -1.15570836      5.07846205
H       1.59566728     -0.34068169      4.75842737
H       2.79385336     -0.88232821      5.57249375
O      -2.14942710     -2.21687358     -1.34805685
H      -2.52769646     -1.96342368     -0.49223602
H      -2.13516846     -1.42022876     -1.89924944
O      -2.25471058     -0.04406691     -3.14132903
H      -2.37422613      0.88016660     -2.78320900
H      -3.03222888     -0.22958132     -3.66944032
O      -1.78514313      1.78048303      3.49578260
H      -0.96939125      1.31778915      3.75038652
H      -1.54058765      2.39498435      2.79567687
O       1.58392311      2.31871088     -3.22648710
H       1.09473957      1.59378887     -3.64872739
H       2.47265362      1.95318515     -3.06374856
O      -1.41793884     -4.07629750      1.77419999
H      -1.87035948     -4.85624333      1.44741728
H      -2.03972295     -3.33453073      1.65067209
O      -2.79061088     -1.71444384      1.33873060
H      -3.42162006     -1.17295720      1.83623003
H      -1.92361134     -1.33009745      1.55159429
O       4.70635859     -1.06785273     -1.03218575
H       3.97897295     -1.67429668     -1.25279758
H       4.68630016     -0.96959686     -0.07879843
O       0.82615095      1.22249076      4.26890003
H       1.13772649      1.68662541      3.45927325
H       0.86588240      1.86476293      4.98063679
O       2.51798999     -2.73499991     -1.60033134
H       1.68549878     -2.79787755     -1.08519336
H       2.77858922     -3.63864181     -1.78399034
O       3.86589589      0.79917425     -2.99764633
H       3.49034300      0.07149515     -3.53412892
H       4.42861682      0.34929531     -2.35194071
O      -0.91366927      3.27345042      0.89578394
H      -1.59696334      2.59009351      0.72238339
H      -0.60008365      3.52789439      0.01322358
O      -0.14195402      3.66435013     -1.77612515
H       0.55932370      3.16214056     -2.26986729
H      -0.12279727      4.55128695     -2.13803699
O       0.18758498     -3.12936040     -0.34507892
H      -0.60409581     -2.81500755     -0.83030792
H      -0.16493784     -3.55766233      0.44784786
O       1.37401768      2.76015423      2.15485043
H       1.80108022      3.61478908      2.21958914
H       0.52271445      2.91089011      1.67903638
O      -2.56526941      2.35638262     -2.16687926
H      -1.72787385      2.84961731     -2.10075555
H      -2.78131616      2.08207427     -1.25838579
O       2.48810639     -1.31712760     -4.02046808
H       2.45581887     -1.82852511     -3.19579481
H       1.62649045     -0.88582402     -4.11146334
O      -3.91618851      0.42539759      2.64255709
H      -4.66704621      0.65965975      3.18771463
H      -3.12811889      0.84758565      3.05956224
O       0.13806543      0.19348366     -4.32848874
H      -0.71796689      0.04117283     -3.87292693
H      -0.05139620      0.28912105     -5.26268614
O      -2.65357098      1.29760780      0.33245769
H      -1.93063600      0.63111105      0.29997950
H      -3.26488606      1.00540154      1.02529352
