84
charge=0
O      -2.70079327      1.99202357     -1.76509593
O       1.28730942      1.30692786      1.12476053
O       2.71411064     -3.53707990      1.12827166
O      -2.24080158     -0.15942767     -2.15188290
O       3.71761914      1.01868847      1.82573928
C      -1.97543471      1.01417421     -1.65627085
C       0.90832129      0.20270097      0.69954900
C       3.36519347     -2.50810928      1.33263923
C       2.84296881     -1.17335940      1.32603371
C       3.81632279     -0.27801765      1.68018124
C      -0.71903108      1.09284706     -0.88089411
C      -0.30018168      0.07625098     -0.12768340
N       1.52092658     -0.95852478      0.93370131
C       4.83230273     -2.44535989      1.67118497
C       5.12988562     -0.96104422      1.88165784
H      -3.27864791     -0.24689419     -2.51607197
H       2.74937926      1.29383137      1.63239096
H      -0.20537409      2.04238855     -0.88285337
H      -0.80910139     -0.87256246     -0.13317180
H       1.07017133     -1.79894819      0.55398347
H       5.03434084     -3.04764246      2.55728547
H       5.41091639     -2.87105893      0.85105161
H       5.53783600     -0.73949691      2.86746780
H       5.83390905     -0.58132351      1.13624313
O       4.49444066     -0.07976320     -2.85418126
H       5.16393351     -0.10288953     -2.14314611
H       4.25435335      0.84800886     -2.95067878
O      -1.71684228      4.14906359     -0.11974633
H      -1.67478817      3.70216425      0.74238397
H      -2.18881277      3.54655649     -0.71391460
O       2.09859410     -0.53761587     -1.73138569
H       1.46114643     -0.98363445     -2.29969535
H       2.96401390     -0.57106174     -2.19265432
O      -4.96319287      2.24349391     -3.32249970
H      -5.65144515      2.65511163     -2.79689880
H      -4.13503855      2.35213510     -2.81997477
O      -5.36984242     -0.22938731     -0.30974659
H      -5.39421065     -1.17663628     -0.06650165
H      -4.61679724      0.13822482      0.17990966
O      -3.03170414      0.17956289      1.21521726
H      -3.28298743      0.10546235      2.14025694
H      -2.74241592     -0.71636523      0.95450235
O       0.83126199      4.06496638     -0.99318242
H       1.23001016      4.93503804     -0.98355291
H      -0.09503521      4.18860931     -0.68353585
O       0.90101369     -3.54960356      3.15380889
H       0.93553736     -4.41650059      3.56153688
H       1.42584384     -3.61083747      2.33162333
O       6.32830237      0.28819262     -0.83928711
H       5.87072263      1.14176710     -0.61729696
H       7.17169375      0.53580283     -1.22049560
O      -0.97149528      0.15033537      3.73017498
H      -0.01753292     -0.01332253      3.80641827
H      -1.07596268      1.01892758      3.31003623
O      -2.27470313     -2.43046695      0.71987845
H      -1.51535613     -2.87784097      0.32167248
H      -2.14112700     -2.51845011      1.70011070
O       4.98002631      2.49070022     -0.29536927
H       4.66000024      2.35435089      0.60257724
H       4.18103160      2.45073759     -0.87014696
O       0.24212068     -3.19716347     -0.29929987
H       1.05578427     -3.69875990     -0.16733098
H       0.22389952     -2.88980231     -1.22241975
O      -1.27111430      2.30009772      1.94730608
H      -0.37077060      2.15346004      1.61556387
H      -1.85139630      1.64985304      1.51805023
O      -0.19580009     -1.97947025     -2.75327478
H      -0.90293856     -1.35307608     -2.51575183
H      -0.44445178     -2.36154726     -3.59656287
O      -4.89269349     -2.86732199      0.08645801
H      -4.91951441     -3.30119332     -0.76750699
H      -3.95045810     -2.79341196      0.33299050
O       1.55545824     -0.97034874      4.05881240
H       1.66860205     -1.00235366      5.01014802
H       1.33552277     -1.87214919      3.77303233
O      -1.68389825     -2.42401460      3.26308619
H      -1.53307451     -1.48711223      3.49542453
H      -0.81177496     -2.84334783      3.27987939
O      -4.63022050     -0.35783173     -2.81926255
H      -4.86429278      0.51597738     -3.20506973
H      -5.02088338     -0.33966093     -1.89959819
O       2.75663170      2.18483649     -1.76685233
H       2.37161590      1.30077882     -1.64557419
H       2.07470123      2.82355725     -1.50544023
