110
charge=0
O      -1.61396225      4.54832267      0.95769974
O       1.89614193      4.14167228     -0.83580220
O      -1.74056582      2.40815754      1.08550833
O       0.63147707      5.48975587      0.26145531
N       1.68942657     -1.88285644     -0.91817218
C       1.49562587     -0.62379447     -0.65972294
C       2.32159402      0.28365893      0.05619231
C       1.86282952      1.54407438      0.24189424
C      -0.25669924      1.10175064     -0.91660503
C       0.55798742      1.95007336     -0.19522131
C       0.22508196     -0.16732685     -1.20875528
C       0.09063375      3.28292914      0.15459648
C      -1.62443619     -1.47718597     -2.15369002
C      -2.12299083     -2.63071183     -1.66644653
N      -0.28623534     -1.20606351     -1.86992182
N      -1.13719928      3.45107541      0.73468570
N       0.89776566      4.36145307     -0.13833266
C      -2.44910173     -0.44746985     -2.85083397
C      -3.55915663     -3.00280282     -1.83244226
C      -1.20044296     -3.58086869     -0.95476305
C      -3.68293302     -1.10465116     -3.46007857
C      -4.41993506     -1.85409255     -2.35643543
C       2.62605740     -3.36803601     -3.07041971
C       2.07537409     -4.74632836     -2.69646627
C       1.54185092     -2.29622180     -3.20540601
C       1.13600070     -4.67845989     -1.49183103
C       0.71809651     -2.27073699     -1.87846762
C       0.05716039     -3.65574093     -1.80981646
H       3.29386506     -0.02797548      0.40195272
H       2.47170349      2.26328158      0.76482110
H      -1.21110026      1.44520458     -1.27212079
H      -2.79248370      0.28887507     -2.12176071
H      -1.85673881      0.07167312     -3.60369394
H      -3.94433879     -3.36654341     -0.87671932
H      -3.60074324     -3.84653450     -2.53145494
H      -1.65259135     -4.56502662     -0.84605696
H      -0.97329577     -3.19867092      0.04091921
H      -4.31941138     -0.33524749     -3.89311787
H      -3.39256416     -1.79682174     -4.25319694
H      -4.62864577     -1.15773945     -1.54464188
H      -5.36950233     -2.24630805     -2.72117808
H       3.15813841     -3.44048899     -4.02001328
H       3.33867111     -3.05787925     -2.30674401
H       2.90841367     -5.40868565     -2.46600147
H       1.53103516     -5.16707285     -3.54566191
H       1.99562440     -1.31683383     -3.36771913
H       0.86622653     -2.51190829     -4.03418819
H       0.68475625     -5.65611974     -1.32527052
H       1.68682571     -4.38989250     -0.60099384
H      -0.29605146     -3.88041028     -2.82424066
O      -0.08087613     -3.70244647      2.84555993
H      -0.26892347     -2.90688357      2.28152426
H      -0.68303210     -4.38835948      2.53070160
O       0.60207099      0.39220160      2.67250634
H      -0.10456256      0.71165731      3.24642075
H       1.14905328     -0.22475160      3.20092396
O      -1.33388403      5.91156163     -2.79341259
H      -0.37484611      6.01740383     -2.91907205
H      -1.54936674      6.46332351     -2.01596833
O      -2.01127651      1.30575318      3.49150055
H      -2.49456232      1.92815926      4.03814481
H      -1.90488404      1.74184964      2.61734024
O      -1.89145190      2.23126336     -4.55506115
H      -2.86519280      2.08834363     -4.55003043
H      -1.73049463      2.98797138     -5.12170358
O       3.84765678     -6.06900109     -0.12784769
H       3.27984875     -5.79624370      0.59776253
H       4.35555673     -5.28475713     -0.38125331
O       1.90969332     -1.73576347      3.70819309
H       1.20456510     -2.38636817      3.79486441
H       2.40305510     -1.99090981      2.90820564
O      -1.87481191      3.41059729     -2.06549131
H      -1.77755228      2.94762217     -2.91854834
H      -1.73052406      4.35939769     -2.29372663
O      -0.65420705     -1.56898189      1.38550863
H      -1.58333183     -1.37485541      1.59882804
H      -0.15033307     -0.80030336      1.74413073
O      -3.55790180      0.62976089      0.00871011
H      -2.94958316      1.30624632      0.34318648
H      -3.61802606     -0.02075978      0.71709216
O      -4.57413580      2.01588296     -4.31541378
H      -4.59589285      2.20327327     -3.33910954
H      -5.08558421      2.71876810     -4.71833288
O       1.42643371      6.27793264     -2.61340954
H       1.81783993      5.50535533     -2.17780371
H       1.42739826      6.97743068     -1.95446869
O       3.08193434     -2.69842188      1.37646485
H       2.56218444     -2.41429563      0.60231813
H       2.81541970     -3.61996266      1.56526377
O      -4.44554189      2.64915334     -1.76015446
H      -3.54724006      3.04970790     -1.77576989
H      -4.38243413      1.90657871     -1.14543883
O      -1.61927111      7.09949262     -0.34593071
H      -2.27269612      6.54759457      0.09378558
H      -0.77442465      6.76282546     -0.01565867
O      -0.62106347     -6.03303114      1.32287618
H      -0.81869908     -6.96941648      1.36679723
H       0.33518683     -5.95460966      1.20907709
O       5.21921551     -0.88836666      1.43449150
H       5.42000773     -0.42988043      2.25111460
H       4.52366867     -1.52758434      1.63945402
O       4.99384134     -3.49379286     -0.55243571
H       4.46797065     -3.07707125      0.14698915
H       5.82448692     -3.01650308     -0.57203559
O       2.04199649     -5.07585712      2.09883891
H       1.26449216     -4.55010074      2.43223800
H       2.44192023     -5.48641876      2.86737419
O      -3.13513859     -0.89916981      2.39315038
H      -3.58866071     -1.42463974      3.05304130
H      -2.76788981     -0.11496082      2.85591742
