72
charge=0
O       0.90647095      0.55012313      2.68256026
O      -0.07694871     -1.68802839      3.97145143
Br      0.49730245      1.41734690     -0.12149560
Br     -2.16910025     -3.63115997      3.07895937
Br     -1.37124063     -0.78914762     -1.71762494
Br     -2.97882519     -3.01918338     -0.06696435
C       0.05833628     -0.14922965      2.15414284
C      -0.46513116     -1.39286369      2.85479373
C      -0.30484910     -0.00533338      0.74419685
C      -1.43591384     -2.18129921      2.12572799
C      -1.12690872     -0.87206632      0.11182229
C      -1.75557372     -1.94117243      0.83099407
O       0.21582474     -5.36659767      1.14481102
H       0.62184028     -4.99808586      1.94454975
H      -0.63522597     -5.72144864      1.41055382
O       3.04367999     -0.55618015     -0.50943337
H       2.63916662     -0.91642275      0.28972149
H       2.96532979     -1.24819653     -1.17714128
O       1.32271723      3.69417255     -2.43128051
H       1.95403437      2.95125786     -2.28969161
H       1.80764363      4.37358287     -2.90148692
O       1.11288952      3.22671340      3.48093057
H       1.38010483      2.44533223      2.97846713
H       0.61809937      2.88331321      4.23465013
O      -1.04241480     -3.85065995     -3.12415810
H      -0.97294614     -3.07462792     -3.71514522
H      -1.98085884     -4.01893584     -3.02285868
O      -0.18799019      1.21599927      5.11683787
H       0.42702649      0.73437114      4.53679408
H      -0.31356344      0.66601786      5.89197705
O       2.17789558     -2.51543065     -2.42303715
H       1.48121627     -2.83371298     -1.80569191
H       2.33914620     -3.24399805     -3.02525513
O      -0.47272314      4.62801344      1.86843891
H       0.18577869      4.15206988      2.42775423
H      -0.60891648      5.48517714      2.27321294
O      -0.84224186      4.70120711     -0.94445086
H      -0.05611976      4.38575128     -1.41479286
H      -0.61129020      4.70153288     -0.00522319
O       2.90569471      1.54541169     -2.34850017
H       2.34865148      0.95794348     -2.88140278
H       3.09586960      1.03971048     -1.54420317
O      -1.79733737      0.62603585      2.92600861
H      -2.03773967      1.42034765      2.35443684
H      -1.47333414      0.99038164      3.77077344
O       0.25786205     -3.48325248     -0.82066440
H      -0.28612477     -3.66638698     -1.62381875
H       0.25874691     -4.30474166     -0.29481957
O      -2.34734580      2.49831761     -1.31440569
H      -1.96787811      3.40143794     -1.25014833
H      -1.89362481      2.12669768     -2.08946692
O      -2.36669444      2.69839606      1.47501178
H      -1.75115507      3.43561477      1.64157449
H      -2.36572681      2.58085761      0.50831643
O      -0.92980394     -1.57742860     -4.67125916
H      -0.14229170     -1.06596392     -4.41831067
H      -1.65190217     -0.94804057     -4.71296986
O      -3.56565754      0.34034725      0.07434810
H      -3.33560130      1.05202889     -0.54468395
H      -3.97852538      0.77310792      0.82397649
O       1.33681036     -4.05004843      3.39345461
H       0.79053104     -3.39124906      3.84977044
H       1.89523384     -4.45555891      4.05895199
O      -0.58146753      1.88988476     -3.43310580
H       0.02466713      1.14808814     -3.51635190
H      -0.03345986      2.63564028     -3.13896381
O       1.47723268     -2.15055543      1.28506202
H       1.09085598     -2.62446101      0.52958691
H       1.73342114     -2.82863024      1.92516156
O       1.43183597     -0.35804915     -3.84772534
H       2.00239765     -0.40477445     -4.61791874
H       1.67838122     -1.11479362     -3.26725616
