83
charge=0
Cl      4.87078547     -1.57162383     -0.83913365
Cl      5.18382369      1.08347268      0.56080800
C       0.95084099      0.73647895      1.00205817
C       0.83124918     -0.34099147      0.23405221
C      -0.18910318      1.47303016      1.62447511
C      -0.45810072     -1.00318993     -0.14249602
C       3.70432062     -1.03591028      2.01386745
C       2.33338661      1.27417164      1.21851713
C       2.07806012     -0.95419428     -0.31319366
P       3.46298734     -0.00728280      0.50687288
H      -0.38249965      2.39020657      1.07360305
H       0.04517025      1.73425939      2.65460100
H      -1.08923460      0.87137121      1.60617815
H      -0.27345359     -1.78701999     -0.86787419
H      -1.14320492     -0.28006734     -0.57488714
H      -0.93064283     -1.44389781      0.73186692
H       4.21819643     -1.96690865      1.79028286
H       2.71421584     -1.26121278      2.40718753
H       4.27747154     -0.48701165      2.75797932
H       2.46681084      2.23327804      0.71470589
H       2.55305063      1.41878189      2.27872888
H       2.09875416     -0.92255998     -1.39949329
H       2.16940458     -1.99549596     -0.00502141
O      -3.28820154      3.65457427      2.10942163
H      -2.74166783      3.89247404      2.87911280
H      -3.46082496      2.71342477      2.23698408
O       0.93774966     -4.09770662      1.11544278
H       1.86318836     -4.27129248      0.86641041
H       0.49110653     -4.02620104      0.25969436
O       0.88515884      1.55006838     -2.56877165
H       0.90690668      2.17850758     -3.29238915
H       0.78942148      0.65391214     -2.99946024
O       0.78169784     -2.27831911      3.03510056
H       1.03765407     -2.80650033      3.79297896
H       0.80066153     -2.89948368      2.26561089
O       3.25177493     -1.86635817     -3.56147225
H       3.80617780     -1.20210208     -3.98333029
H       3.66262518     -2.01699456     -2.69578433
O       0.59043483     -4.20806006     -1.68350789
H       0.04473457     -3.64569258     -2.26707417
H       0.46553433     -5.10984405     -1.98177717
O      -1.67855207     -1.22449398      3.28157767
H      -2.06945259     -1.88536686      3.85536665
H      -0.74268404     -1.49405966      3.14465429
O      -2.86731030      1.34430507      3.68482685
H      -2.33543943      0.53613168      3.66024243
H      -2.29016605      2.03781750      4.02455127
O      -1.59326505      4.27147423      0.20331531
H      -2.29112268      4.00029690      0.86100221
H      -1.97911120      4.98438468     -0.30789044
O      -3.78054586      0.26271374     -1.23982213
H      -3.81094524      0.13159028     -0.27814109
H      -3.06674476      0.90299720     -1.40465821
O      -1.65354510      1.98762137     -1.48508607
H      -0.75181723      1.79296931     -1.78544176
H      -1.59084352      2.75811507     -0.90365002
O       0.23015912      4.82026941      2.16268302
H      -0.37044239      4.71123778      1.39642841
H       1.01004363      4.29729400      1.96709185
O      -1.37529690      3.87217815      4.10196017
H      -1.42800853      4.53052913      4.79546938
H      -0.72108273      4.21134183      3.44889184
O      -3.21919702     -2.23779326     -1.81182370
H      -3.23728017     -2.57273029     -0.91382331
H      -3.46415903     -1.27777133     -1.73061384
O      -3.66667167     -0.36016382      1.48002736
H      -2.91080857     -0.76401792      1.93189241
H      -4.00301671      0.29014053      2.10285816
O       5.09702438      0.35291342     -3.20521141
H       5.26144585     -0.32439979     -2.51963400
H       5.89325671      0.88373336     -3.25843040
O       0.78165509     -0.74018257     -3.78706961
H       1.63276299     -1.21824705     -3.74846093
H       0.09571592     -1.38227857     -3.53869376
O      -1.07173565     -2.70336832     -3.22133478
H      -1.41416657     -2.97337541     -4.07459724
H      -1.87086916     -2.48075633     -2.66963175
O       3.20330117     -4.27029881     -0.39790994
H       3.86961833     -3.59054058     -0.56690422
H       2.57109467     -4.21705821     -1.12653623
O       3.27241609      1.27969637     -1.37329462
H       2.36565605      1.38653825     -1.74508921
H       3.86174683      1.01393027     -2.10949033
