64
charge=0
O      -2.48590321      1.39131158     -0.70534457
Br      1.31151841      0.25355730      0.17237732
C      -0.24783556      0.75462374     -0.48197211
N      -1.35731747      1.09442279     -0.40900678
O       1.12272899     -3.00843729     -0.45415555
H       1.36278552     -2.56569140     -1.28263721
H       0.25901105     -2.65113557     -0.20179164
O      -3.92407847     -2.21620318      0.19910612
H      -2.96115223     -2.29095131      0.12691291
H      -4.27141002     -2.10181022     -0.71274649
O      -4.21270564      0.19450341      1.21619683
H      -3.73118415      0.72679113      0.56583595
H      -4.15561985     -0.74719618      0.89943321
O       2.41856562     -2.53934931      1.87208365
H       1.70307891     -2.15555715      2.39696629
H       2.02777957     -2.78034317      1.00650072
O      -0.12154206      0.39714467     -3.06379526
H      -1.04490018      0.20434988     -3.27718821
H       0.36249302     -0.44409363     -3.05926582
O       4.22519525     -0.65675469      1.77744447
H       5.01939122     -1.01807288      2.17260251
H       3.56610214     -1.40431332      1.74787174
O      -4.87860342     -1.44174112     -2.18373561
H      -5.46631190     -0.77858286     -1.77553393
H      -4.19685127     -0.94315568     -2.65668736
O       2.00489299      2.12856627     -2.71922252
H       2.66449591      1.42583172     -2.84580568
H       1.15038074      1.69447274     -2.86486581
O       2.84301282      3.03450113     -0.37066620
H       3.21810149      3.90256550     -0.52429044
H       2.44482765      2.75152310     -1.23179215
O      -2.96760844      0.37675272     -3.21576890
H      -3.36350735      0.98250015     -3.84465156
H      -2.95308377      0.83873150     -2.35796244
O      -1.00008318      2.47282993      1.94112157
H      -0.03083045      2.69355367      2.01003349
H      -1.45299271      3.14262650      2.45434882
O       1.54679547      3.02907049      2.13588711
H       2.00788934      3.03575331      1.28354071
H       1.93876178      2.29117005      2.65046589
O      -1.78194399     -0.01501330      2.45130625
H      -1.46049276      0.90378660      2.29897271
H      -2.74391294      0.02687917      2.27500256
O      -1.20567323     -2.04082776      0.76242661
H      -1.17236794     -2.79532813      1.35505628
H      -1.36690345     -1.26339422      1.34235916
O       2.48230488      0.80854824      3.34815723
H       1.78303138      0.13951777      3.39701625
H       3.18840799      0.40644145      2.81528823
O       3.79924121     -0.00768354     -2.68346008
H       4.12091162      0.28746254     -1.78068462
H       4.58427161     -0.08347646     -3.22643801
O       0.46122924     -1.17905621      3.48075408
H      -0.36261844     -0.75385296      3.18103670
H       0.34682315     -1.37535975      4.41153687
O       1.70096196     -1.69529000     -2.84822409
H       1.93161279     -2.31370401     -3.54279601
H       2.47361615     -1.10199822     -2.73017452
O      -6.29973946      0.32976009     -0.60701182
H      -7.09741460     -0.08773494     -0.27969261
H      -5.68767221      0.38046639      0.15276470
O       4.63638669      0.92397134     -0.41144786
H       4.49998787      0.34461564      0.35999834
H       4.06517930      1.69947826     -0.26711600
