103
charge=0
O       0.35949385      1.73672266      2.99172108
F       1.50687981     -7.45550123      1.26059359
N       0.23635467     -2.96992530      0.54816931
S      -4.29338039     -2.71769980      1.60961914
C      -0.61194580     -2.03171231      0.29147449
C      -3.09728756     -1.84731705     -0.49670668
C      -2.06423825     -2.20038636      0.41523155
C      -2.54780360     -2.71403860      1.58835046
C      -4.34188021     -2.05585634     -0.00426088
C      -0.12723072     -6.53435060      2.69887957
C       0.78506903     -5.25037440      0.86126557
C      -0.94671561     -5.46194799      3.01175344
C       0.70731541     -6.40711976      1.60773460
C      -0.02443566     -4.16213960      1.18560076
C      -0.92211055     -4.29250314      2.26813002
N      -1.78308657     -3.23103968      2.60764845
N      -0.10695798     -0.83860907     -0.13121385
C      -5.64371863     -1.78181029     -0.66755002
C       1.25988118     -0.51598795      0.22597094
C      -0.90137898      0.36540273     -0.18941717
C       1.11372503      2.43865869      0.93537475
C       1.27649792      0.11636469      1.61477434
C      -0.89590994      1.08693695      1.15915123
N       0.46630488      1.35488764      1.68954529
H      -2.92201359     -1.49766590     -1.49807412
H      -0.14333977     -7.44178151      3.27957991
H       1.47892465     -5.18694402      0.03866091
H      -1.61914663     -5.52825672      3.85398153
H      -2.28495056     -3.34521914      3.48736439
H      -6.23410255     -1.07426588     -0.08540951
H      -6.22679739     -2.69652381     -0.77145365
H      -5.46406758     -1.36555457     -1.65557428
H       1.85343540     -1.42594973      0.26651897
H       1.67449374      0.14797785     -0.53305443
H      -0.49120606      1.00113673     -0.97657897
H      -1.93269807      0.13155885     -0.44325280
H       2.13526083      2.55225401      1.28928269
H       1.09766020      2.23554598     -0.12913952
H       0.56934275      3.35687096      1.13868002
H       2.29035893      0.36155836      1.93312501
H       0.85210205     -0.59136426      2.33192394
H      -1.40123434      2.04952947      1.06128439
H      -1.40649109      0.47109431      1.90725405
O       1.77684872     -3.01144861     -1.77470476
H       1.39502992     -3.74244903     -2.30994678
H       1.29643090     -3.04813965     -0.92345896
O       0.69122885      2.27762077     -2.24512479
H       1.58022643      2.02099269     -2.52390222
H       0.65851289      3.24218455     -2.15482962
O       0.19507726     -0.30010403      4.66675075
H       0.34122428      0.51289167      4.12182888
H       0.36162903     -0.04990690      5.57572244
O      -2.00023030      2.69531817      3.83155535
H      -2.57161640      2.63570947      3.06318477
H      -1.11577581      2.34384151      3.55766762
O      -1.49693192      4.29844016      0.37102452
H      -0.80201479      4.49343827     -0.28691853
H      -2.29863372      4.71180445      0.04769149
O      -0.96919054     -2.77778949     -4.33753792
H      -1.70271496     -2.24924969     -3.97315461
H      -0.21496787     -2.17774838     -4.37497950
O      -0.84981165      0.79780838     -4.00100339
H      -0.51411430      1.46464411     -3.38309799
H      -0.16963073      0.10133723     -3.98450543
O       2.93568821      4.97665858     -0.44428006
H       3.55630168      4.39514566     -0.88596009
H       3.07960500      4.83064414      0.52252714
O      -3.55631764     -2.53094841      4.73984274
H      -4.49742389     -2.49739526      4.56226490
H      -3.20107473     -1.65568162      4.49354414
O       1.02292158     -9.80684940      3.15849531
H       1.28193700     -9.16611682      2.48994937
H       1.54427217    -10.59481211      2.99799806
O       1.50796791      4.08305864      3.74941157
H       1.17006415      3.17876276      3.58843946
H       0.74089867      4.66075111      3.57261731
O       3.14065534      0.91475479     -2.78676903
H       3.49153986      0.15060977     -2.27909666
H       3.74432739      1.04941986     -3.51888354
O      -0.90740971      5.14193730      3.02561153
H      -1.09700628      4.93023697      2.09923528
H      -1.37431813      4.46778226      3.54740439
O      -2.85907733     -0.89183156     -3.58172860
H      -3.43635630     -0.82739999     -4.34351570
H      -2.18253598     -0.18372658     -3.69627716
O      -2.39641862     -0.17011152      3.89702624
H      -2.53220795      0.72736251      4.22862727
H      -1.49182697     -0.40918155      4.18872584
O       1.16605236     -1.00880313     -3.55916768
H       1.31061543     -1.70718457     -2.89099724
H       1.81540770     -0.31984329     -3.36059278
O       3.48201820      4.41968181      2.08286022
H       4.08465861      5.03398464      2.50278987
H       2.72681529      4.30864834      2.72943324
O       0.29279244     -4.79494190     -3.08340661
H      -0.34706820     -5.29040860     -2.57034692
H      -0.22025557     -4.14849077     -3.61758802
O       3.93381470     -1.38412943     -1.63268832
H       4.72534109     -1.88939859     -1.82110727
H       3.18940650     -2.01828075     -1.68444207
O       0.49554048      4.92562776     -1.44081010
H       1.38299171      4.96504176     -1.00373118
H       0.39475085      5.75831371     -1.90426133
