104
charge=-1
O       1.21506180      0.12020276     -3.96804590
O       3.66247785     -2.69859242      0.37864935
O       0.15382943      1.19968145      5.53314112
N      -0.86254175      2.60898086      0.38929741
C       0.80719332      0.76015263     -2.96089708
C       2.88685736     -1.78025007      0.67858214
C      -0.27101976      2.02507619     -0.64774043
C      -0.07138582      1.89487287     -3.06533338
C      -0.58742072      2.48667486     -1.95807353
C       1.16488711      0.34597593     -1.63598510
C       3.36881082     -0.42239254      0.90671284
C       1.44899076     -2.02075629      0.80221718
C       0.65444101      0.94429684     -0.52823011
C       2.51695576      0.61656990      0.98564319
C       0.57849175     -1.00135240      0.90519381
C      -0.98153476      2.59168397      3.99495582
C      -1.23035080      2.91928903      2.70430915
C       0.57328175      0.86468214      3.25006280
C      -0.07150566      1.53843302      4.32988877
C      -0.58342052      2.24163307      1.63488504
C       0.33614634      1.19921692      1.95578855
C       4.85268740     -0.23090324      0.98733954
C       0.99162221     -3.44890606      0.77756125
C       3.00400658      2.01675767      1.13529846
C      -0.89129187     -1.24305590      0.99211218
C       1.03037839      0.43301676      0.85481547
H      -0.32171155      2.25634018     -4.05071469
H      -1.26542320      3.32055750     -2.04628892
H       1.85609675     -0.47874340     -1.53782752
H      -1.46001288      3.11608217      4.80828647
H      -1.91713310      3.71181849      2.44904003
H       1.27049369      0.07191080      3.48121512
H       5.11471755      0.33368026      1.87988640
H       5.21233449      0.31712899      0.11688852
H       5.34099562     -1.20193702      1.01110151
H       0.40341655     -3.67989433      1.66392744
H       1.85709760     -4.10592711      0.74004563
H       0.36849417     -3.63751413     -0.09551391
H       3.49091774      2.13435826      2.10384006
H       2.19409459      2.73778821      1.07265655
H       3.74397012      2.24347473      0.36844957
H      -1.46458768     -0.32857524      0.87142486
H      -1.19561627     -1.96379442      0.23600857
H      -1.14162990     -1.67355546      1.96193453
O      -3.61605252      2.85038744     -0.15421285
H      -3.79203851      1.89829515     -0.04963986
H      -2.67878457      2.97030386      0.08058304
O       0.89276303     -2.55333550     -3.42275853
H       1.05931012     -1.63202413     -3.69968673
H       1.72246909     -2.86485100     -3.03436909
O      -3.72677467     -2.84666807     -0.20166771
H      -3.75721686     -1.90110984     -0.00975444
H      -3.00471806     -2.97545607     -0.82652141
O      -1.43790050     -2.80143462     -2.14332179
H      -1.90132123     -3.09327088     -2.95754622
H      -0.50473726     -2.74594149     -2.45077161
O      -2.77742912     -0.41344464     -4.89101161
H      -2.66215672     -0.34435970     -3.92629753
H      -3.22195020      0.43073051     -5.13759039
O       1.43649691      3.20990834      6.91610979
H       2.21711142      2.65911625      7.02727994
H       0.76111560      2.60904500      6.55817985
O       2.71481838     -1.88029467      4.94651196
H       1.76331371     -1.88265417      5.18278412
H       2.77028680     -2.10889112      4.01724655
O      -3.62025132      2.08974676     -5.26879437
H      -2.78448165      2.41900314     -5.65287868
H      -3.66555625      2.48457581     -4.38326406
O       1.88854859      4.08954017      4.21505135
H       2.62881045      3.48672165      4.05106718
H       1.67896916      3.99149965      5.15583646
O      -2.12615693     -3.08934649     -4.73197877
H      -2.50549585     -2.21644729     -4.93165329
H      -1.19715051     -3.03060034     -4.97452721
O      -1.18142141      2.69440966     -6.39247896
H      -1.25740131      2.89084982     -7.32603493
H      -0.83737941      1.76288540     -6.34475689
O      -2.23895369     -0.32161566     -2.20627526
H      -1.46943229      0.25086017     -2.15467665
H      -1.91797480     -1.26446594     -2.12230020
O       4.08832373      2.26476422      4.20243683
H       3.64421711      1.64972228      4.83311793
H       4.75177371      2.73027436      4.71315487
O      -0.42998232      0.16875500     -6.16704514
H      -1.25937214     -0.14538903     -5.75292267
H       0.24346249      0.15493444     -5.46097522
O       3.36672879     -3.21686155     -2.24715423
H       3.48378489     -3.09410094     -1.28364381
H       4.01080997     -3.87406871     -2.51291624
O       2.83742187      0.68601373      5.96137460
H       2.98843226     -0.23247495      5.67756544
H       1.88410962      0.84295326      5.80994382
O      -3.99846803      0.10170694     -0.25887134
H      -3.36870996     -0.01655090     -1.00687835
H      -4.87343080     -0.00794269     -0.63588165
O       0.14823809     -1.48634357      5.73602110
H      -0.00076796     -1.68091601      6.66212617
H       0.10760011     -0.50566193      5.66114355
O      -3.77960336      3.38047314     -2.78533230
H      -4.43860188      4.07165905     -2.85267086
H      -3.72319243      3.15651139     -1.82853466
O       3.96154518     -0.67958584     -3.51787653
H       3.79172636     -1.53518154     -3.10146675
H       3.09791474     -0.34955925     -3.80193624
