70
charge=0
O      -1.01397177      0.46137684      0.16137180
O      -0.25477697     -1.88660654     -0.15431519
O      -1.47690046     -0.68037264     -2.01625108
O       1.40665333      0.03314821     -0.08925281
O       0.17847890      1.16787962     -1.95279304
O       0.94339107     -1.20495601     -2.24992039
P       0.12507073     -0.58233457      0.77378197
P      -1.39065248      0.83616216     -1.39514987
P      -0.50449565     -1.97674091     -1.75463725
P       1.55173581      0.20877896     -1.72221895
O      -3.69127526      1.26426811      0.08094227
H      -4.05541101      0.69307025     -0.62872991
H      -3.87587820      0.80874888      0.90759591
O      -0.50441975     -1.00138798      4.19338168
H       0.38153618     -0.57399513      4.12150225
H      -0.60752567     -1.28196062      5.10381040
O       1.10096716      1.07223693     -4.58849408
H       0.66628868      1.22075391     -3.73384772
H       1.16068746      1.92741195     -5.01852428
O       2.12422685     -2.22131479      1.26999582
H       2.49383026     -2.18387742      0.38145695
H       2.80253097     -1.84060124      1.84973404
O       4.03969051     -0.73904966      2.63935678
H       4.94476284     -0.87942996      2.91759878
H       4.04882980     -0.01840492      1.96064639
O      -4.29063075     -0.44651398     -1.90758267
H      -3.77285355      0.01205214     -2.58411269
H      -3.77631983     -1.23587342     -1.68079083
O      -2.58211988     -0.22239613      2.45709999
H      -2.08976670      0.16754736      1.72440188
H      -1.92714781     -0.45552230      3.13108176
O       2.02387168      3.15730806      1.50122081
H       1.26762396      2.63774550      1.85190870
H       2.09099940      3.94108924      2.04883234
O       3.71437353     -1.22561594     -1.17268246
H       4.32512108     -0.56626822     -0.83340277
H       3.80469029     -1.22097268     -2.13622891
O      -1.04028180     -0.68832613     -5.01319023
H      -0.21437154     -0.17963069     -5.04294053
H      -1.00730714     -1.20846575     -4.20546236
O      -0.09298417      1.77452312      2.39723895
H      -0.48973063      1.66130199      3.26385068
H      -0.78414322      2.26505477      1.85731356
O      -2.81021980     -2.78690616      1.47572484
H      -2.90870825     -1.88618249      1.83406742
H      -1.93507089     -3.09229564      1.78683209
O       0.28018328      3.70133285     -0.66832274
H       0.98926886      3.59069400     -0.01518898
H       0.27103754      2.88869498     -1.18623570
O      -1.81543151      3.15213454      1.02537446
H      -1.24455002      3.49247731      0.31249599
H      -2.49033309      2.59270939      0.61204788
O      -2.73830382     -2.80196072     -1.11942999
H      -2.77772382     -2.76735053     -0.11700346
H      -2.99698696     -3.69333565     -1.35705981
O       3.17287250     -0.91345327     -3.93447798
H       2.48886275     -1.56016218     -3.73794770
H       2.70445202     -0.17640124     -4.34375536
O       3.76135254      1.11347493      0.77248212
H       2.99886214      0.65038741      0.38942465
H       3.38776258      1.95790986      1.07113989
O      -0.31355186     -3.21923374      2.49918715
H      -0.34799654     -2.48796801      3.13436855
H       0.45823942     -3.05500314      1.94664291
O      -2.67883340      1.06729250     -3.76451002
H      -2.18995393      0.43491661     -4.33180447
H      -3.20609784      1.62373542     -4.34036464
O       1.79035412      0.26584918      3.83447401
H       2.59057785     -0.19230270      3.53044603
H       1.45404108      0.75668856      3.07648443
