64
charge=-3
O      -1.18719037      0.22806068     -1.19321892
O       0.75694712     -1.24440083     -0.54162028
O       1.02198841      1.27900616     -0.45979670
P       0.42548882      0.11524324     -1.39000824
O      -2.02668859      1.96544514      2.37051749
H      -2.01573016      1.04313071      2.04298433
H      -1.42441265      2.43877444      1.74331198
O      -0.56493911      3.15829525      0.46230782
H      -1.29289274      3.11061807     -0.17969394
H       0.04178165      2.43323476      0.12570271
O       1.01781393     -2.14467204      1.85490660
H       1.95567982     -1.91980918      2.00086180
H       0.81804103     -1.66859723      0.97908310
O       3.61889866     -1.20398973      1.70975861
H       3.52908980     -1.52842448      0.78478372
H       3.26335218     -0.30533748      1.69012896
O       2.14303068      1.37514697      1.77023441
H       1.73829918      2.20939977      2.01581016
H       1.67751003      1.18727706      0.84484769
O       0.98097880     -0.09692831      3.78390598
H       0.71139317     -0.86664809      3.25746573
H       1.42362497      0.46872898      3.11771553
O      -2.25805381     -1.47018717     -2.73198898
H      -1.52854948     -1.58180613     -3.34514303
H      -1.86761734     -0.75821965     -2.06828372
O      -3.87758534     -0.17472692     -4.55655234
H      -3.44523410     -0.71365377     -3.86241097
H      -3.45833845      0.69526679     -4.43157565
O       4.50806249      2.58006388      0.78691266
H       3.80600745      2.11787606      1.27647233
H       4.17248429      2.52582026     -0.13183059
O       3.26019330     -0.47295501     -2.87342350
H       2.33612716     -0.20475616     -2.70480909
H       3.40899790     -1.12914002     -2.17328556
O      -0.78816672     -3.20979772     -1.04454833
H      -0.16769588     -2.40587464     -0.87208468
H      -1.48581408     -2.79760830     -1.57651333
O       3.04308776     -2.27043685     -0.71931490
H       2.12356503     -1.77323239     -0.69655026
H       2.77480902     -3.17143890     -0.50047530
O       3.23722825      2.18688861     -1.61437896
H       3.50161408      1.36814392     -2.05587085
H       2.36965481      1.92690001     -1.19129659
O      -2.30958860      2.07066845     -3.92403415
H      -2.56893941      2.27112327     -2.99338078
H      -1.50211384      1.56281786     -3.79503012
O      -2.60485894      2.34614331     -1.28612049
H      -1.98470674      1.53051428     -1.24459469
H      -3.33186092      2.10577881     -0.69130354
O      -0.91853585      1.63678781      4.90464631
H      -1.37811651      1.83549225      4.06645017
H      -0.23403033      1.00182754      4.62567527
O      -2.43116691     -0.41708608      1.03348804
H      -1.86321275     -0.20284855      0.23491196
H      -2.22157810     -1.33968361      1.24780197
O      -1.63543145     -3.09824700      1.51853650
H      -0.79314716     -2.80026171      1.88851153
H      -1.42375084     -3.20868809      0.56136035
O      -4.32041524      1.55163710      0.84868311
H      -3.89992076      0.67666736      0.75256920
H      -3.69847270      1.98785807      1.45931748
O       1.38991131     -4.44132299      0.34337581
H       1.30277836     -3.72018888      1.00198855
H       0.67637373     -4.23473087     -0.27719680
