96
charge=0
F      -2.18364828      4.11291840      3.99510231
F      -2.22832952      2.19025914      4.94574703
F      -0.40034229      2.92394025      4.07593949
F       5.07115256      2.94989613     -5.25189626
F       3.98304630      1.13719131     -5.62585213
F       5.58128906      1.15035214     -4.19741476
F      -5.69860513      0.86837041      0.00288280
F      -4.76104753     -0.94283997      0.69284129
F      -5.72805702      0.37390250      2.08305808
N      -0.58490537      2.10621580     -0.54285695
N      -1.23150954      2.38185502      1.60818151
O       0.08884008      1.84998493     -2.73917151
C      -0.81015457      1.70893576     -1.76722583
C      -2.10015233      2.23012432      2.57368592
C       3.23183752      3.31349905     -1.44679230
C       1.88782070      2.98070833     -1.49602180
C       4.09190796      2.94506592     -2.46209184
C       2.24725093      1.90237635     -3.62392983
C      -2.03359726      1.08668758     -2.16685265
C      -3.33041958      1.58177317      2.43532263
C       1.39989047      2.25770201     -2.57510019
C       3.58544519      2.24705250     -3.55241439
C      -2.98235150      0.83972144     -1.22691969
C      -3.64482334      1.08173365      1.19070545
C      -1.52420849      1.91027257      0.38993496
C      -2.75800497      1.24656380      0.11343257
C      -1.72429229      2.85172162      3.89982463
C       4.53623879      1.87140652     -4.64969900
C      -4.94845008      0.35517094      0.99933775
H       3.60759134      3.85915908     -0.59744408
H       1.23072887      3.27177157     -0.69650949
H       5.14119537      3.18719332     -2.41353949
H       1.86633382      1.34511739     -4.46444629
H      -2.15742028      0.78931922     -3.19494642
H      -3.99650265      1.47218212      3.27446604
H      -3.89418605      0.33267833     -1.49981219
O       0.25395754     -1.62290189     -3.83395236
H      -0.07412042     -1.59066263     -2.92101554
H      -0.28983868     -0.97104831     -4.31077102
O      -0.31243640     -0.98182610     -1.24642983
H       0.60607315     -0.83164290     -0.95526314
H      -0.80334980     -1.12492364     -0.42498596
O      -0.99818198     -1.25594948      1.39906641
H      -1.69191015     -1.85496936      1.74688891
H      -0.15592850     -1.71574759      1.53247089
O      -2.84937776     -2.73326315      2.68073850
H      -3.13205170     -2.04182345      3.32457352
H      -3.62892764     -2.96696837      2.17449523
O       2.66564613      1.46417834      1.32417562
H       3.59894500      1.62913496      1.06145403
H       2.21010706      2.33110196      1.34350534
O       1.46195238     -0.41781271     -6.26198313
H       2.39148535     -0.28499627     -6.45561387
H       1.40810158     -1.14465448     -5.63036219
O       1.58163704     -2.20319034      2.15729325
H       2.34450045     -2.77839128      2.23512240
H       1.79646222     -1.38237773      2.70930775
O      -0.36146236     -2.72808642      4.17344242
H       0.34178696     -2.79912092      3.51066916
H      -1.16559911     -3.06992093      3.76516961
O      -3.70458537      4.00092301      0.57496158
H      -3.46510494      4.92291664      0.68606900
H      -4.57825667      4.00321209      0.14885548
O       5.21202100      1.60321590      0.52822932
H       5.21018873      0.66948841      0.19805225
H       5.87557007      1.62924360      1.21904297
O       2.15662027     -0.69272326     -0.12050925
H       2.26056370      0.18271928      0.32192774
H       1.96013589     -1.31729587      0.60026485
O      -6.25874658      3.76851258     -0.53065595
H      -6.93454879      3.66643278      0.14344888
H      -6.27099218      2.96766985     -1.06047888
O       2.70994528     -0.80686924     -2.97038686
H       2.55392051     -0.74076440     -2.02086546
H       1.88309445     -1.17506153     -3.34305193
O       1.24697207      3.72130826      1.64112712
H       1.27356689      3.96091915      2.56974178
H       0.37276034      3.31624611      1.49214556
O       5.29943043     -1.60646757     -2.78064490
H       4.36389388     -1.40423639     -2.98008320
H       5.82072052     -0.97403006     -3.27787006
O       4.96735184     -0.93992615     -0.17570497
H       3.99843940     -0.97324580     -0.19448344
H       5.24623185     -1.23289031     -1.06684418
O      -3.32238662     -0.72435484      4.38164054
H      -3.45922941     -0.87895788      5.31754523
H      -2.42676452     -0.32791632      4.29837600
O       2.03152885     -0.01953772      3.45517901
H       1.16189306      0.28777566      3.75187407
H       2.32066769      0.59549895      2.74656831
O      -0.91040792      0.51457262     -5.21567177
H      -0.27458963      0.29437868     -5.91211840
H      -0.50947829      1.22820426     -4.70934182
O      -0.76106743     -0.07865887      3.83589443
H      -0.52637331     -0.95403746      4.21552293
H      -0.83611306     -0.25859511      2.87817682
