79
charge=0
O      -1.47360663     -0.56332511      2.54798660
O       4.54224564      1.88958652      0.58611533
O       0.12902373     -0.43905765     -4.03339101
N       0.61938675      0.05097491      1.99733054
N      -0.90908652     -0.76353416      0.37489301
N       3.00521528      1.36373913     -0.99679561
C      -0.62787482     -0.42886451      1.67249691
C       3.45924949      1.45554023      0.29026018
C       0.41045338     -0.20841544     -2.87279427
C       1.41131108      0.43162926      1.04765055
C      -0.07185990     -0.45179318     -0.54407528
C       1.89939973      0.77020041     -1.25698573
N       2.59216456      0.99771239      1.30052623
N      -0.30543635     -0.74141958     -1.83959743
N       1.47681217      0.58745495     -2.52711681
N       1.07189652      0.27417848     -0.27586450
H       2.90409859      0.97049383      2.29925611
H      -1.05295258     -1.46522395     -2.02325821
H       1.94968047      1.17889383     -3.25404403
O      -2.88235106      1.30757321     -0.62852049
H      -3.54532693      1.29921434     -1.34153869
H      -3.08061348      0.52557891     -0.08752215
O       0.99737401      1.15231288     -6.12941360
H       0.68980091      0.46862711     -5.50659955
H       0.21057106      1.52565923     -6.53006961
O       2.40395194      2.40454259     -4.25337267
H       3.34514034      2.39622659     -4.43597697
H       1.94348314      2.08174984     -5.06217853
O       3.89761819     -1.52825530      0.61021789
H       4.54139447     -1.99526135      0.07458383
H       4.42569728     -1.10439627      1.32493730
O      -1.98604582     -2.77274314     -2.17741826
H      -2.23933783     -2.94923582     -1.22187343
H      -1.42293970     -3.50524436     -2.43541173
O       5.39596295     -0.12137899      2.36434794
H       4.88383263      0.13388891      3.14209056
H       5.48041222      0.68119662      1.82995273
O      -3.72372939     -0.81232351      1.07917669
H      -4.50768960     -0.75776228      1.62764117
H      -2.95271749     -0.71940190      1.68057018
O       0.04903569     -3.45778215      1.91766259
H      -0.03175144     -4.37889258      2.17130665
H       0.55497212     -3.02111871      2.64182278
O       1.41844132     -2.48636517     -0.30371810
H       0.95351455     -2.95057391      0.41257180
H       2.29373690     -2.26905986      0.05093038
O      -2.49365932     -3.20320389      0.33752052
H      -1.66443470     -3.14537092      0.83190636
H      -2.98871372     -2.39539482      0.56312868
O       0.59688001      3.60246968      2.64473153
H       1.15203109      4.31390797      2.32366010
H       0.16538727      3.21594993      1.86078174
O       3.10747993      0.48473614      3.92727420
H       2.90939931     -0.45335058      4.05014995
H       2.32417235      0.96120905      4.28904366
O      -0.57327698     -0.95891806      5.20505382
H      -0.25627430     -0.07615770      5.42956172
H      -1.09996666     -0.84936210      4.39732348
O       0.57781992      3.52186128     -2.02718950
H      -0.10184934      3.00060209     -2.49324704
H       1.36832172      3.47150157     -2.57225157
O      -2.72054907     -0.92375567     -4.14787925
H      -1.78866191     -0.70174983     -4.28471450
H      -2.71796240     -1.67241886     -3.53430268
O      -0.41686320      2.51251658      0.32978687
H      -0.07159395      3.01889232     -0.42849519
H      -1.34938256      2.34124844      0.14099512
O      -1.33326781      1.77288843     -2.84106579
H      -2.05901197      1.93880221     -3.44895701
H      -1.77510272      1.58630000     -1.99015704
O       0.69703516      1.52691903      4.42270909
H       0.67519777      2.43459873      4.08066255
H       0.36684924      0.99791393      3.67912615
O      -4.16753647      1.05743146     -3.05047127
H      -3.66399342      0.32190818     -3.46914073
H      -5.08927289      0.89645626     -3.25224114
O       1.42529380     -1.99721892      3.75033150
H       0.76367434     -1.80151726      4.45107914
H       1.33181377     -1.26044034      3.12874720
