82
charge=0
F      -4.55219406     -1.76086504      1.12643561
F      -2.06475226     -2.70254323      1.74525654
F      -4.79149092      0.55971110     -0.31327246
F       3.18494136      2.15754420      0.70050484
F       3.62128470      2.54344355     -1.97736653
F       0.12541538     -1.39206313      0.89711210
F      -2.60754128      1.85807431     -1.14367944
F       0.85491918      1.10413362      1.52842780
Br      1.83762350      1.92232796     -4.29109402
Br     -0.91229683      0.51309891     -3.32600382
C      -3.46864696     -1.11635617      0.70434883
C      -2.20164524     -1.58801792      1.02211692
C      -3.58628471      0.05027480     -0.03852553
C       2.23734162      1.86319996     -0.19441502
C       2.45385010      2.06964660     -1.54790571
C      -1.07536515     -0.90542129      0.58562716
C      -2.44850126      0.71593506     -0.47470561
C       1.03884054      1.30548539      0.22603435
C       1.48448077      1.69447466     -2.46664845
C       0.29400157      1.12164329     -2.03701031
C      -1.16943820      0.24893510     -0.18848047
C       0.05028996      0.92205698     -0.67847972
O      -2.60007372      1.14342576      2.48502281
H      -3.29221099      1.17296867      3.14914175
H      -1.77107968      0.95635865      3.00030646
O      -2.69943990      3.62667512      1.38209061
H      -2.61661429      2.71659558      1.73295271
H      -2.45608014      3.60787429      0.44733361
O      -1.17856549     -5.46782364      0.78486936
H      -1.78741858     -4.99311064      1.35355444
H      -0.36922322     -4.93198160      0.74452825
O       0.49982626     -2.28617070     -1.88653940
H       0.53253683     -2.75410289     -1.02155595
H       0.74717576     -2.98627672     -2.51126182
O       1.81039429     -1.00011353      3.26340838
H       2.12716506     -1.41928850      2.44103953
H       1.74514951     -1.69721528      3.91799425
O      -2.95626022      4.76568442     -1.31902678
H      -2.81257928      5.64721432     -0.97077888
H      -3.84389229      4.49222706     -1.01307655
O       3.08348645      1.41683269      3.69907723
H       2.64947317      0.55315162      3.57125158
H       3.44693968      1.66790329      2.84659681
O       0.96623662      2.99171048      4.03055668
H       1.79901168      2.46829683      3.93061253
H       1.09230041      3.56484766      4.78728117
O      -0.90831521      3.63882707     -2.75027036
H      -1.69052108      3.93930458     -2.25509805
H      -0.96527799      4.06091910     -3.60996699
O      -2.22345246     -2.39342892     -1.91153886
H      -2.61112578     -2.15288463     -2.75496469
H      -1.26278973     -2.22819356     -1.99646512
O       1.04427036     -4.89262017     -2.47566148
H       0.07378935     -5.03308664     -2.29839178
H       1.30698984     -5.60624698     -3.05631460
O       1.17547854      4.48366453     -1.05143676
H       0.42207227      4.28631140     -1.62761062
H       0.84326168      4.41334911     -0.14510487
O      -0.48186864      0.64271407      3.96708357
H      -0.05446041      1.51542975      4.03797961
H       0.19925067      0.05896614      3.60611888
O       3.03640911     -2.24355488      1.10936436
H       2.92646994     -1.67994352      0.30514654
H       3.98073206     -2.33178725      1.24877367
O       1.05485538     -3.95082037      0.16216007
H       1.40235979     -4.49012028     -0.56383967
H       1.79540455     -3.49584409      0.59407444
O       2.70088752     -0.88701631     -1.14570791
H       1.91993187     -1.34117495     -1.52039494
H       3.35203037     -0.81513544     -1.86289678
O      -5.12243292      3.89692155      0.07812386
H      -5.41623508      3.00064192     -0.09863080
H      -4.47268381      3.84573184      0.80238635
O      -1.52021044     -5.11613534     -1.89941997
H      -1.92391066     -4.23226186     -1.88339691
H      -1.50603211     -5.41214618     -0.96846423
O       4.33586134     -0.24189240     -3.28148006
H       4.77291896      0.59826802     -3.11760629
H       3.96049478     -0.18952223     -4.16445167
O       0.10472068      3.84099003      1.47872517
H       0.46747201      3.59858558      2.34365359
H      -0.84028398      3.99033298      1.62595208
