86
charge=0
N       2.13311955      3.19552892      1.19519456
N       1.87092999      2.41568272      2.08878829
N      -0.29940178      1.27379273     -0.50450845
C       0.49232722      1.78177182      0.33178415
C      -1.21647768      0.21044276     -0.20010566
C       2.34836489      2.69281687     -1.16313041
C       0.51219938      4.20327962     -0.31848567
C      -0.27680962      1.55555800      2.78652106
C       1.51804620      0.04611348      1.84090535
C       1.36706094      2.96893487     -0.02268134
C       0.84884686      1.42243443      1.75932741
H      -0.97234190     -0.64812887     -0.82186564
H      -2.20779375      0.55188648     -0.49125788
H      -1.22674238     -0.08465922      0.84381897
H       1.79817162      2.48538060     -2.07674302
H       2.97597835      3.56683965     -1.31364224
H       2.98875800      1.84650556     -0.92245781
H       1.14633405      5.08461100     -0.35992922
H       0.00129963      4.07439138     -1.26854605
H      -0.23386563      4.33724246      0.46131974
H       0.16444683      1.65096395      3.77553670
H      -0.91032913      0.67406798      2.78332241
H      -0.88656631      2.42967087      2.57369738
H       0.83915032     -0.73084844      1.50390438
H       2.41635295      0.02930520      1.22876578
H       1.78675370     -0.14914681      2.87275728
O      -3.34140975      2.83634995     -1.55072373
H      -3.89453946      2.04778580     -1.45009549
H      -2.65350044      2.60309169     -2.18911779
O       1.07411469      0.63394101     -4.26748781
H       1.35795710      0.15000973     -3.46165542
H       1.86232091      0.77021134     -4.79270660
O       4.07130996     -0.39929351     -0.69161904
H       4.90113734     -0.53038940     -1.15100159
H       4.08196886     -1.04524179      0.06519760
O       1.80689800     -3.29056569      2.23086708
H       1.79792770     -4.24631820      2.29626126
H       0.98140199     -3.04498155      1.75832217
O      -0.21389401     -2.53251273     -1.97518874
H       0.69237229     -2.19673432     -1.92435987
H      -0.65418862     -1.91743468     -2.59236793
O      -0.40839713     -2.73501750      0.85743178
H      -1.31142516     -2.49330566      1.14026261
H      -0.42075940     -2.78991810     -0.10905738
O       1.44982879      0.26559139      5.48200354
H       1.73784699     -0.63365318      5.19785387
H       1.35162401      0.22238164      6.43318576
O       4.14208448     -2.07523235      1.33144877
H       4.39727500     -1.56045671      2.11626427
H       3.30916758     -2.51612596      1.57355637
O       4.68058844     -0.63736928      3.63278374
H       4.25971254      0.25024336      3.81372610
H       5.54849745     -0.60327113      4.03495617
O      -2.94462077     -2.98659201     -2.92673434
H      -2.62827700     -2.19355726     -3.38791153
H      -2.15670675     -3.38298335     -2.53830472
O      -3.78283392      0.75500623      1.68701905
H      -3.23081776      1.55353339      1.64213809
H      -4.26589764      0.74165994      0.84835959
O       1.73398710     -0.57546316     -1.93825688
H       2.63517419     -0.55995302     -1.54525224
H       1.19413359     -0.03729196     -1.34797636
O       2.51292311     -2.04326751      4.63485031
H       2.14574120     -2.48297846      3.85117393
H       3.36063985     -1.66553859      4.34241952
O      -1.44254310     -0.77908210     -3.72686450
H      -1.53895739      0.13539637     -3.37704836
H      -0.76882230     -0.69512351     -4.40857731
O      -2.57960914      3.20798945      1.01984734
H      -2.77818147      3.11746186      0.06145420
H      -3.15482556      3.90541650      1.33759929
O      -4.48766925     -2.15090399     -0.95903624
H      -3.91292777     -2.46456795     -1.70351249
H      -5.20202818     -2.78483436     -0.88555408
O      -2.95510945     -1.89606705      1.41329842
H      -3.19591222     -0.99982841      1.70705679
H      -3.48554581     -2.04825423      0.61823539
O       3.49031724      1.60980374      4.26749988
H       2.74325733      1.24655154      4.78415847
H       3.07765347      2.06948088      3.51687897
O      -1.14546811      1.79270659     -2.98932960
H      -0.39020308      1.75698500     -3.59074762
H      -0.76833075      1.69973911     -2.07892630
O      -4.86976952      0.53051848     -0.94082947
H      -5.81484710      0.63957737     -1.05335803
H      -4.69031217     -0.43094139     -0.99072221
