106
charge=0
O      -3.01573683     -1.61060085      0.30644806
O      -2.47695733      1.06725080      1.07878281
O       7.50211400      0.35025943     -2.50847745
C      -3.40070231     -0.65529409     -0.32816129
C      -1.60751455      1.43399443      0.30656840
C       7.87932652      0.22638776     -1.36497305
C       3.17291766      0.50065348      0.60786500
C       3.78761687      0.42553175      1.78505455
C       1.82075415      0.04245027      0.40038378
C       1.12148811      0.17994980     -0.73680892
N      -1.99800564     -1.22642016     -2.22641404
C      -4.78291070     -0.09206788     -0.19802613
C      -0.64554280      2.52847253      0.63056594
C       9.25161258     -0.26255760     -1.00816885
C       1.66776234      0.89114053     -1.94105356
C      -0.55584452     -1.30232885     -1.98198216
C      -2.56797292     -0.09209755     -1.49557300
C      -1.36777453      0.73373121     -0.99285675
C      -0.27488688     -0.35902900     -0.80271890
C       7.12544738      2.09733480      0.06396796
C       6.97294583      0.59383552     -0.19484962
H       3.68479544      0.91305445     -0.25036876
H       3.29292184      0.03078903      2.65666467
H       1.36083773     -0.44854101      1.24723969
H      -2.20684440     -1.19175622     -3.21837683
H      -4.76415225      0.99256215     -0.22558320
H      -5.35711973     -0.43959743     -1.05514872
H      -5.25487834     -0.44826228      0.71308750
H      -0.86439043      2.96988929      1.59782987
H      -0.67917307      3.29020434     -0.14458277
H       0.36035472      2.10503114      0.64054372
H       9.85729856     -0.37566611     -1.90295593
H       9.15087944     -1.22685763     -0.51160146
H       9.73228159      0.42746131     -0.31769014
H       2.52054001      0.35441783     -2.35458076
H       0.91823418      0.99271361     -2.72118825
H       2.01588945      1.88831583     -1.67542744
H       0.01435256     -1.00255672     -2.86641051
H      -0.27246608     -2.32645421     -1.72764174
H      -3.21570718      0.51655758     -2.12852615
H      -1.04918809      1.44300678     -1.75859666
H      -0.49639893     -0.89180056      0.12418197
H       6.33525227      2.44018343      0.72586640
H       7.06799868      2.65773808     -0.86507834
H       8.07964091      2.30617548      0.54429399
H       5.93848004      0.37559430     -0.48118368
O      -1.04795617     -3.11988073      1.64259808
H      -1.51589192     -4.61552482      0.60559836
H      -0.60167731     -2.45544645      2.18004705
O      -1.94513893     -4.60495220     -3.88976956
H      -2.43045920     -4.25136738     -3.07748223
H      -2.54761478     -5.22017866     -4.31091457
O      -2.91309002      1.81593236      5.29803354
H      -3.43107219      2.23541360      5.98656936
H      -2.36771450      2.51952796      4.87414968
O      -0.09384309     -5.74940743     -2.16292467
H      -0.01870974     -6.67326320     -2.40402145
H      -0.62863363     -5.31954031     -2.85388641
O       8.01994450      3.66154044      2.77069970
H       8.67047240      4.23558603      3.17964556
H       7.35938738      3.46346273      3.43802628
O      -1.55394305      3.81751502      4.09299612
H      -2.17336858      4.02080418      3.33065010
H      -1.48187011      4.62985369      4.59546544
O      -3.75682734      3.25591450     -0.76528002
H      -4.51862226      3.76128808     -0.47301830
H      -4.04313493      2.80257605     -1.57309944
O       4.75086014      0.47007969     -3.22081695
H       5.67398852      0.44515309     -2.92556295
H       4.78912460      0.51498386     -4.17747749
O      -6.01090580     -0.48548799     -3.47805023
H      -5.68160581     -1.39372102     -3.30285306
H      -6.95792381     -0.53267798     -3.33536658
O       7.22313346     -0.16816431      0.95957918
H       7.99559107      0.19084772      1.41187596
H       4.79998445      0.76251282      1.92109623
O       0.71226494      1.85958144      4.20292694
H       0.49662311      1.12373157      3.61039974
H       0.01762802      2.52025182      4.09045556
O      -1.87190598     -5.15377570     -0.11333792
H      -1.11910856     -5.40374972     -0.67561784
H      -1.79637077     -2.65441026      1.24099181
O      -4.57261861      1.96126364      2.76479735
H      -4.10155090      1.66928780      3.56458296
H      -4.16845600      1.45829077      2.04314591
O      -3.24639175      4.16280347      2.08762647
H      -2.93093132      3.90077349      1.21828697
H      -3.86477883      3.43626753      2.34430573
O      -5.34496268     -3.07914990     -3.26715772
H      -4.91695651     -3.14530815     -4.12442490
H      -4.67078107     -3.37025564     -2.61963668
O      -2.24666571     -2.12958971     -5.06462231
H      -2.02354809     -2.99172656     -4.66565584
H      -1.80065527     -2.09712856     -5.91139472
O      -3.16642069     -3.63806254     -1.82403258
H      -2.81868782     -4.21624420     -1.09587717
H      -2.74149145     -2.75405458     -1.71837304
O      -0.53077538     -0.52962773      3.26226568
H      -1.39453387     -0.30212204      2.90572772
H      -0.61985255     -0.47348415      4.23455603
O      -0.71942795      0.15283438      5.87155944
H      -1.52818379      0.68685923      5.85067687
H      -0.00700017      0.78415518      5.68022102
O      -4.86362590      1.93936155     -2.97847762
H      -5.20912608      2.40327944     -3.74215162
H      -5.17211783      1.01851584     -3.07026353
