83
charge=0
N      -0.90767927     -3.30329570      1.76749010
N       0.01808391     -1.32742739     -0.99682549
N       2.47285534      1.26041979     -0.61834143
C      -1.88612837     -4.18600748      1.77663729
C       0.14413258     -1.94311043      0.13958249
C       1.18961193     -1.61708210      1.07452258
C      -2.40908459     -4.39645755      0.49659532
C       1.98366876     -0.56548846      0.80532932
C      -1.66967598     -3.57199108     -0.33856595
C       1.78855550      0.19406369     -0.40450066
N       2.21054003      2.06034251     -1.73386840
N      -1.68521152     -3.44942562     -1.68522425
N      -0.77382033     -2.92105862      0.47091661
N       0.84271325     -0.31426482     -1.27615956
H      -2.16860412     -4.65436353      2.70052527
H       1.30661522     -2.22581533      1.95314334
H      -3.19776920     -5.05829038      0.20887327
H       2.77446052     -0.26625661      1.47033190
H       2.97896649      2.71824706     -1.81755354
H       2.13734829      1.53608133     -2.60018267
H      -2.59545586     -3.48931778     -2.13134493
H      -1.06095451     -2.75586506     -2.07280172
H       0.80008129      0.00533419     -2.24929162
O       5.13355743      0.80659984      0.46028448
H       4.94421595      0.85383937      1.40819247
H       4.26916018      0.81655243      0.02007864
O       0.62964315      2.93361472      2.54524331
H       0.08007581      2.47587069      1.89342624
H       1.43125961      3.23890642      2.08255937
O      -4.07731229     -2.19220864     -2.52662200
H      -3.59803481     -1.36254486     -2.63954199
H      -4.49808386     -2.12775369     -1.65534467
O       4.87681532      2.85083056     -3.05550097
H       5.09547685      3.03782285     -2.11001029
H       5.02547855      3.67006539     -3.52766551
O      -4.49577007     -2.48336062      2.51083011
H      -3.88428098     -3.20966783      2.35824972
H      -4.74215880     -2.15939360      1.61910405
O       1.50851990      0.79166251      3.88240530
H       1.12185237      1.63194808      3.54066534
H       0.84085874      0.11426199      3.71808597
O      -0.94171125     -1.63674306     -4.29179226
H      -1.51049434     -1.06009232     -3.74833326
H      -1.52776671     -2.15385625     -4.84491094
O      -5.01210924     -1.50814093      0.04720351
H      -5.90590892     -1.17040304     -0.03045358
H      -4.41457198     -0.71139068      0.05865728
O      -3.37833055     -0.56745009      3.96703282
H      -3.70243610     -0.64560741      4.86488184
H      -3.83079378     -1.26986302      3.43858451
O       0.97714345      0.31737971     -4.03669800
H       1.91351275      0.22860491     -4.27374168
H       0.49660129     -0.45163291     -4.38091444
O       5.28914872      3.36269809     -0.46616974
H       5.51671930      2.46548294     -0.15229757
H       4.54464603      3.63080788      0.09886898
O      -2.13680967     -0.03363259     -2.38376252
H      -1.52070746     -0.49329845     -1.78995202
H      -1.71310305      0.83707792     -2.57300685
O      -1.21209823      1.11353929      1.35960096
H      -1.83876291      1.63557812      1.90518773
H      -0.93636953      0.38459619      1.95077987
O      -3.42400782      1.90127873      2.67946700
H      -3.46512779      1.08645628      3.20766246
H      -4.00340280      1.77063266      1.92402194
O       3.73352340      0.49931673     -3.94132095
H       4.44328444     -0.13728155     -3.84847626
H       4.12020321      1.35880421     -3.68787864
O      -0.65693981      2.14729036     -2.79416640
H      -0.08931821      1.75719816     -3.47621178
H      -0.06134637      2.44975769     -2.09931069
O      -0.75830999     -0.86253502      3.17767753
H      -0.76939358     -1.77648475      2.84257573
H      -1.61700773     -0.72262055      3.61461270
O       3.91736104      1.30843599      2.95131604
H       3.03771026      1.02702606      3.31605790
H       4.43785544      1.57097715      3.71190005
O       3.05203029      3.22650460      1.25203943
H       3.47648056      2.66994787      1.93368062
H       2.76351459      2.58510552      0.57641442
O      -3.46407211      0.59312956     -0.06885230
H      -3.18829003      0.55945981     -0.99948012
H      -2.62854843      0.72202147      0.43178560
