77
charge=0
O      -0.10009873      0.23494473     -1.02767983
Br      0.89483018     -0.98736650      1.94212118
Br     -2.22192585      2.50980326     -1.55865722
N      -1.61981126     -0.53827352      2.97039609
O      -2.86392244     -0.12651483      2.59486708
C      -1.25545711      0.09401200     -0.63002833
C      -0.87256809     -0.50878539      1.90290219
C      -1.60929133     -0.07994035      0.77254323
C      -2.86336296      0.13850367      1.29274813
C      -4.02689996      0.60916436      0.52115336
C      -2.43596231      0.56594676     -1.47133783
C      -3.80898250      0.19388490     -0.93882843
H      -4.95000589      0.18642875      0.91741722
H      -4.09447636      1.70287060      0.61802820
H      -2.31328783      0.23598746     -2.50418534
H      -3.88981335     -0.89307129     -1.02276400
H      -4.57855412      0.64408653     -1.56857902
O       1.02445022      1.93844661     -4.46518508
H       1.66333317      1.97605562     -5.17766709
H       1.00246019      1.00224711     -4.15662079
O      -1.57391987     -1.90414220     -1.14415851
H      -1.71215588     -2.41875132     -0.31560851
H      -0.69703052     -2.21321768     -1.47151462
O       2.30399619     -4.19278781      1.90946029
H       1.65862021     -4.38433919      1.20990815
H       2.72715388     -3.35964654      1.66772752
O      -3.97462668      3.75301730      0.98898545
H      -3.03561105      3.99037533      0.98122935
H      -4.37640768      4.26770930      0.28720915
O      -1.24564270      4.53439493      1.07767777
H      -1.08235034      5.37982823      1.49964479
H      -0.49924716      4.38391490      0.46103821
O       1.06099893     -3.63238907      4.23090660
H       1.50475464     -3.96260805      3.41793164
H       1.43453507     -2.76448487      4.39363012
O      -0.82039309      2.28516742      2.57053733
H      -1.23987923      2.38474910      3.42659421
H      -1.07994725      3.06136108      2.03760915
O      -1.60107223     -3.34147614      1.07618960
H      -0.93056991     -3.99124433      0.82290850
H      -1.68766521     -3.41698458      2.05218169
O       2.18098220      3.00411576     -2.17778940
H       2.45589484      2.14202009     -1.80214362
H       1.65612986      2.78386146     -2.96442161
O       0.40713058     -0.51804400     -3.59866493
H      -0.45271550     -0.44027926     -4.02710888
H       0.26835598     -0.23121875     -2.67118421
O      -1.70036699      1.16371841     -4.56169959
H      -2.38155553      1.76059814     -4.87312129
H      -0.87682907      1.67742339     -4.54454895
O       3.70196263      1.01532033      1.48110092
H       2.97413577      1.62593419      1.77282942
H       4.50956810      1.52961842      1.51742154
O       3.84082826     -1.76437855      1.55969626
H       3.76225311     -0.79497021      1.56368529
H       4.37740593     -2.00153256      2.31766898
O       2.64084616      0.61594218     -0.99665741
H       3.03295226      0.74633075     -0.11243368
H       1.69793241      0.44151199     -0.84963284
O       0.84892559     -2.79915828     -2.03540733
H       1.73434756     -2.55054291     -1.66295150
H       0.80389929     -2.30712141     -2.86679484
O       1.13389308      4.30381393     -0.18824575
H       1.43586634      3.76915603     -0.97700277
H       1.58085448      5.14644463     -0.27944031
O       1.83489720      2.77803894      2.02213485
H       0.96775287      2.44052689      2.30414366
H       1.65013890      3.30109971      1.22111926
O       3.22420065     -2.03631890     -1.18036892
H       3.47311830     -2.16020560     -0.25555606
H       3.12743055     -1.07073282     -1.28472615
O       0.50261098     -4.75529824     -0.15315241
H       0.62940095     -5.62408837     -0.53555111
H       0.61277536     -4.11039978     -0.87441823
O      -1.59642144     -3.39435657      3.75917528
H      -1.74941336     -2.48629885      4.03798439
H      -0.66278044     -3.59366566      3.98689238
