101
charge=0
O       5.07177120      1.95909213     -0.97017696
N       6.74402316      5.91091255      0.65443852
N       6.13612827      5.92726190     -0.45974997
N      -1.76170485     -4.18853506      0.03042749
N       6.34433398      4.90150894      1.41305435
N       3.31468515      1.95268797      2.66894607
S      -1.99463188     -3.30685153      2.42629867
C       4.50512548      2.04454265      0.11098041
C      -1.18347607     -3.38161667      0.86803376
C       5.43984077      4.25311302      0.70425504
C       3.01226387      1.03999567      1.75287333
C       4.12151440      2.95056267      2.32694030
C      -3.13080343     -4.44379870      1.83408785
C       2.03917226      0.06740521      2.04215893
C       2.30117571     -0.84608235     -0.15733524
C       4.67973161      3.08133644      1.07715817
C       1.64355093     -0.86293458      1.10237318
C       3.24936093      0.08579130     -0.40691514
C      -2.84953447     -4.79995198      0.54438174
C      -0.03026538     -2.60376187      0.55263484
C       0.55398428     -1.75251869      1.41569175
N       5.30346509      4.89132543     -0.48381162
N       3.59940973      1.02957396      0.50988619
C      -2.71696122     -6.79934843     -0.91867105
C      -4.42114504     -5.00142839     -1.36540043
C      -3.64407848     -5.76155108     -0.28691361
H       4.30826303      3.70101285      3.08245492
H      -3.93587728     -4.78627943      2.45163933
H       1.57932003      0.09860585      3.01689588
H       2.05274417     -1.55054158     -0.93159419
H       3.75234790      0.16709979     -1.35923732
H       0.33764154     -2.72839197     -0.45516109
H       0.15865935     -1.65955500      2.41878673
H       4.60051797      4.71443948     -1.22089660
H      -1.99059443     -6.30804252     -1.56035088
H      -2.18165080     -7.35232611     -0.15008251
H      -3.29324337     -7.50249634     -1.51452752
H      -5.03651256     -5.69190241     -1.93648345
H      -3.73377232     -4.50704731     -2.04609477
H      -5.06866744     -4.25541545     -0.91051706
H      -4.35749677     -6.26653960      0.37316743
O      -5.10979082     -1.88014306      0.90992149
H      -4.68959855     -1.73764666      0.02268899
H      -6.03250807     -2.07597330      0.74086675
O      -4.49782362      0.45503268      1.96195569
H      -4.75122916     -0.43919624      1.61114142
H      -5.30403487      0.89453489      2.23800453
O      -1.58281458     -0.43951145     -1.00299303
H      -1.49360994     -0.22906651     -0.05575692
H      -1.56376452      0.43496630     -1.45352373
O       0.00067187      2.61272852      3.67826411
H       0.47545802      2.61378188      2.84230765
H       0.69431900      2.58874855      4.36616828
O       2.20539165      2.23510210      5.18206874
H       2.70856562      2.03585219      4.36562315
H       2.74102595      2.83347797      5.70414345
O      -4.40228284      1.47638415     -0.76871118
H      -4.32392384      1.27515671      0.17301890
H      -4.52174898      0.62570410     -1.21195794
O      -4.05707481     -1.25444924     -1.42038243
H      -3.13847139     -0.92779103     -1.22485798
H      -3.91738268     -1.93020672     -2.09186010
O      -0.03840491     -1.35034702     -4.04660171
H       0.79426990     -1.75304432     -3.74149754
H      -0.74542002     -1.92063654     -3.71583712
O      -3.39321412     -0.58831849      4.34067898
H      -3.77222295     -0.16935202      3.55095134
H      -3.45070452     -1.53541877      4.20163515
O       3.21089688      4.25852668     -2.12355208
H       2.60904088      3.64580184     -1.66045934
H       3.57031767      3.75712973     -2.86929290
O      -0.75622528      0.01140843      3.86681403
H      -0.53450988      0.95295439      4.01502098
H      -1.60306776     -0.15309503      4.31561224
O       2.41116384     -2.22945986     -3.10556871
H       2.86336670     -2.78419989     -3.74257282
H       2.73786926     -1.32073172     -3.26575866
O       4.79960293      2.48008131     -3.61457100
H       5.63007259      2.70438021     -4.03624146
H       5.00683863      2.27302156     -2.68455376
O       0.40447989      1.11635966     -3.05467784
H       0.17547630      0.23061052     -3.41679806
H      -0.42365221      1.60765165     -3.01701195
O      -1.92683520      2.10658871     -1.78428680
H      -1.49672471      2.57362769     -1.05131594
H      -2.87343381      2.06871678     -1.55378265
O       1.57845139      2.38614113     -0.90488347
H       1.21564722      1.89533937     -1.66553896
H       0.80970166      2.66914840     -0.39129526
O      -1.83243907     -2.80097017     -2.43484576
H      -1.67112674     -3.52308862     -1.81023339
H      -1.58749057     -1.99563300     -1.95066755
O      -0.74012351      2.85237576      0.64683864
H      -1.05814977      1.98598808      0.99095838
H      -0.97912150      3.50842536      1.30389645
O      -1.71214887      0.50914468      1.49436775
H      -1.28110294      0.24002818      2.35003653
H      -2.65590947      0.58249860      1.68367791
O       3.05650983      0.32433074     -3.64577748
H       3.68055519      1.05151755     -3.78785095
H       2.18616646      0.73456233     -3.54960824
