103
charge=0
O       4.53681436     -0.86317429     -1.31639253
O      -5.54993180     -1.83046612      1.62221707
O      -6.05489346     -3.68012252      3.11053995
Br      7.30245037     -1.94816455     -6.34020782
Br      3.83138798     -2.37241620     -7.43907233
N       0.43704248      2.55657844      3.56276143
N      -0.94026528      0.70967136      3.33062001
O       3.17828254     -1.18859910      0.99403761
O      -6.24872904     -1.36175202      3.90009980
C       3.78609964     -1.21335903     -2.24777058
C       0.23479399      1.38247525      3.10757696
C      -0.85549239     -0.44267468      2.71730932
C       5.69091310     -1.52518682     -3.90845023
C       5.75719021     -1.81551226     -5.27706261
C       4.45885999     -1.97782339     -5.72307691
C       4.34887020     -1.52076688     -3.55889424
C       0.43975625     -0.57484541      2.01309814
C       0.80922721     -1.59608117      1.23104857
N       3.61868610     -1.80017718     -4.68153229
N       1.06708003      0.60924548      2.31451817
N       2.47001500     -1.33401197     -2.09703467
N      -1.81253707     -1.35718009      2.70735161
C       2.01473961     -1.67193945      0.34772270
C       1.71089875     -0.87827077     -0.94737707
C      -3.13745377     -1.07275762      3.21294746
C      -3.84136618     -2.35228391      3.62113991
S      -5.51763776     -2.35092177      2.97422426
H       1.34999563      2.93066041      3.32763047
H       3.84137029     -1.08310705      0.27667195
H      -6.65880735     -0.53511872      3.40024080
H       6.52787214     -1.34123130     -3.26450942
H       0.14074617     -2.43552174      1.14465618
H       2.60865270     -1.85107623     -4.74962644
H       1.98628584      0.88523755      2.01202309
H       1.91239565     -1.65430925     -2.87677012
H      -1.71480379     -2.18555286      2.10258518
H       2.17428585     -2.72553577      0.07029842
H       1.90734072      0.18414545     -0.76165045
H       0.66066525     -1.00298467     -1.19955850
H      -3.03890663     -0.36903367      4.04269603
H      -3.73218751     -0.58773731      2.42845562
H      -3.96365328     -2.47191985      4.69052204
H      -3.35099975     -3.22708470      3.20502060
O      -7.24659919      0.52431934      2.58604453
H      -7.85128300      0.11138510      1.96602552
H      -6.55776098      0.99526639      2.02364380
O       5.92139433      1.59847090     -1.34125384
H       6.81360645      1.26784921     -1.20134466
H       5.34180004      0.83623525     -1.19858698
O       0.76706764     -1.68634649     -4.44967539
H       0.03756731     -1.18700160     -4.02460465
H       0.32662338     -2.34048198     -4.99488268
O      -4.83301576     -0.64210098     -0.62823235
H      -5.10505670     -1.14686888      0.16350240
H      -5.42645343     -0.88325240     -1.34030129
O      -1.35077466      4.23304045      2.24840413
H      -0.74934978      3.78581243      2.87785229
H      -0.91800627      4.10835647      1.38991161
O      -1.93522129     -3.45836391      0.89714813
H      -2.06590173     -2.80864621      0.17818055
H      -2.76085074     -3.96037113      0.96629046
O       3.88831013      3.13153849     -2.24445898
H       4.75338800      2.85435630     -1.89829035
H       3.81361150      2.61041873     -3.05081529
O      -2.85174564      1.82109693     -2.16551585
H      -2.57675908      1.57017528     -1.26045100
H      -2.64716434      2.75219256     -2.25497596
O      -5.52183164      1.62943343      0.99981958
H      -4.74672430      1.99065520      1.47167797
H      -5.17663581      0.99541612      0.35235038
O       2.31153419      2.19655936     -0.30191109
H       2.93244885      2.13050432      0.43359307
H       2.83136862      2.59231897     -1.04333758
O       7.32513337     -0.99794654     -1.04405514
H       7.67368314     -1.63864797     -0.42406883
H       6.35965882     -1.08553566     -1.02609281
O      -1.22724576     -0.52004477     -3.14124345
H      -1.69921565      0.32252638     -3.15110602
H      -1.54294741     -0.97041304     -2.33258602
O      -2.66747589      2.15733714      4.90580680
H      -1.79585989      1.85201243      4.59172528
H      -2.55877479      3.08284733      5.13407590
O      -3.23365278      2.33503102      2.24728041
H      -3.09871921      2.05484431      3.17255566
H      -2.69445715      3.15724459      2.17971159
O      -4.35416715     -4.83211734      1.30916861
H      -5.05281490     -4.49877552      1.89784345
H      -4.55671100     -5.75420150      1.14187370
O      -0.02437950      3.42564299     -0.10251683
H       0.84940749      2.96334804     -0.10929237
H       0.02344812      4.06969877     -0.81023161
O      -2.20937006     -1.27896188     -0.70996518
H      -1.87324246     -0.47332594     -0.28156333
H      -3.16870059     -1.10049612     -0.78399204
O       3.92558372      1.32785226      1.81209775
H       4.69458567      1.37640105      2.38031595
H       3.79191147      0.39169738      1.59114472
O       4.50770076      2.02568158     -4.58506286
H       4.83986475      2.51197669     -5.34224080
H       5.27836126      1.73359420     -4.08507428
O      -1.76886303      1.29938329      0.30081751
H      -1.10226156      1.99842455      0.20736738
H      -2.31682110      1.55575276      1.07297581
