72
charge=0
O      -2.39311367      2.06204407     -0.61951099
O       0.23388691     -0.30174546      2.49071211
Cl     -0.28335772      0.59468312     -2.04801660
Cl      1.32720102     -0.82318910     -0.20216716
Cl     -3.71963534      2.85864857      2.09685079
Cl     -1.78235905      1.21297451      4.35909349
C      -1.90666419      1.62300053      0.39393956
C      -0.57040719      0.45003607      1.97822766
C       0.02209009      0.21929855     -0.44679249
C      -2.39063410      1.87528509      1.78168949
C      -1.62070157      1.22221538      2.68131309
C      -0.73858957      0.73472417      0.55591491
O       0.03464244     -3.02978732      1.78350343
H      -0.01702535     -3.22555243      0.82690379
H       0.31527323     -2.10602918      1.84932434
O      -2.46716128     -2.08419435     -1.66151988
H      -2.25901384     -1.58910052     -2.46919647
H      -2.74179818     -1.44785910     -0.97592061
O      -1.57231628      3.19214249     -3.03883617
H      -1.93951772      2.71541115     -2.27504211
H      -2.21745194      3.85546281     -3.28902405
O       2.55441226      2.16350030     -1.36302639
H       3.40761311      2.51337095     -1.62716730
H       2.68070205      1.86281151     -0.42825705
O       2.22106440     -2.97796550      3.53555068
H       1.51292732     -3.30632877      2.96055549
H       1.77268328     -2.47668536      4.23187454
O       1.04321979      2.67310282      2.73146668
H       1.50819507      3.37875904      3.18550458
H       0.48103002      3.10481969      2.05599106
O      -0.59141494      1.26037713     -4.90666379
H      -0.95291713      1.98603914     -4.37901661
H       0.37321837      1.26446182     -4.71697290
O       0.67376408     -1.14773993      5.04526772
H       1.02544514     -0.45412767      5.60527001
H       0.55394302     -0.75174359      4.15895030
O      -0.52239633      3.82817600      0.87237574
H      -0.07235122      3.91996860     -0.01513843
H      -0.98789751      4.65447884      1.01208625
O      -0.37973007     -3.45345624     -0.87845203
H      -0.59844284     -4.37824482     -1.00499822
H      -1.20287458     -2.94685896     -1.11948275
O      -2.51653956     -2.28738593      2.42290282
H      -1.65769435     -2.69658418      2.20228634
H      -2.45880987     -2.06786748      3.37016974
O       0.54230438     -2.63382690     -3.40539373
H       0.36663782     -2.90833483     -2.49191577
H      -0.20882714     -2.07270063     -3.66995871
O      -1.97210062     -1.95040982      5.10124228
H      -2.03102530     -2.82166630      5.49627133
H      -1.03549651     -1.68590292      5.15626503
O      -1.61583457     -1.04495865     -4.13831438
H      -2.04437605     -1.42119495     -4.90818662
H      -1.23573328     -0.17442060     -4.43646996
O       2.97840046      1.47683587      1.16323969
H       2.28878073      1.81067127      1.76273487
H       3.13271577      0.55343101      1.42376370
O       0.59509191      4.04517987     -1.47513993
H      -0.04247941      3.76356966     -2.15091451
H       1.31455298      3.38333792     -1.48172091
O       1.97736640      1.27870253     -4.06029345
H       2.31054044      0.36085008     -3.99146873
H       2.07419157      1.63292464     -3.16773382
O       3.43340324     -1.16769988      1.92345035
H       3.00312330     -1.80656514      2.53358485
H       4.32670321     -1.48773304      1.79525610
O      -3.24853519     -0.61788772      0.51751710
H      -4.20789198     -0.63095517      0.51311373
H      -2.98025896     -1.24651588      1.23609481
O       2.81658139     -1.26824907     -3.67303359
H       1.98688870     -1.78293174     -3.53821060
H       3.25812590     -1.67726596     -4.41769289
