95
charge=0
O       3.50474484      0.05425300     -0.62738420
O      -3.16541819     -1.11637726      0.26467145
O       2.84349566     -1.89024153     -1.25704038
O      -2.09587621     -2.72734012     -0.69064608
O       1.31829129      1.51823005      3.47068047
O      -0.83191960      1.42861953      3.51941639
S       0.81561398     -3.29700144      0.59921923
C       0.43694547     -6.11750462     -3.31015090
C       0.70724734     -6.38997114     -1.98371906
C       0.17450180     -4.87445380     -3.88784263
C       0.78680544     -5.50923182     -0.91277982
C       1.42953011      0.24575884      1.06957099
C      -0.92378470     -0.20652084      1.39029120
C       0.13383240     -3.62482307     -3.31765053
C       0.63405909     -4.13498996     -0.89141681
C       1.47383776     -0.66200161      0.05376985
C      -0.91367669     -1.12133003      0.37023203
C       0.25005374      0.41004833      1.82032500
C       0.33532706     -3.24697330     -1.97617962
N       0.24717473     -1.96755032     -1.62253912
N       2.66287258     -0.82794516     -0.64806593
N      -2.11305416     -1.68115062     -0.03306986
N       0.24527555      1.16778984      2.99200626
C       0.05562561     -0.87636169     -2.54742203
C       0.36855431     -1.64228185     -0.22032403
H       0.41899249     -6.96485463     -3.98266209
H       0.87777346     -7.42943963     -1.73494798
H      -0.03366577     -4.89363391     -4.95031424
H       1.00715663     -5.94399238      0.05282842
H       2.28620352      0.87688230      1.26346405
H      -1.85401687      0.02163844      1.89074062
H      -0.12141668     -2.81986712     -3.99005265
H      -0.85906668     -1.01147682     -3.12730868
H      -0.00551051      0.05495977     -1.98708191
H       0.90118542     -0.81944959     -3.23523556
O       5.09952928     -0.78976463      2.19429536
H       5.20126681      0.12743865      1.85709759
H       5.24524548     -1.37664099      1.43965446
O      -2.13687824     -1.84996352     -4.64356706
H      -2.68748270     -2.42105881     -4.07556091
H      -2.74743011     -1.37402713     -5.20784677
O      -4.28507126      5.02161380      1.75695840
H      -3.47647052      4.54324012      2.00724263
H      -4.88195339      4.35277825      1.39359355
O       2.79399978     -3.55104288      3.91682662
H       2.64874219     -2.64277102      3.57249587
H       3.14234079     -3.44829434      4.80318310
O       0.22242196      3.76689636      0.80460252
H      -0.02338871      4.47545572      0.18826201
H      -0.57165778      3.66635194      1.36728627
O      -1.11415323      5.23227775     -1.11287500
H      -0.69267647      5.56621690     -1.90515261
H      -1.61959574      4.42499105     -1.38011253
O      -4.91310665      4.61295913     -1.91423447
H      -4.42053156      5.32093876     -1.38302680
H      -5.47638014      5.08755983     -2.52534678
O      -0.19904041      1.74807275     -0.98700457
H       0.07468036      2.42441982     -0.33842416
H      -0.89475812      2.16215024     -1.50796085
O      -5.75251162      3.13564072      0.17462822
H      -5.50432517      3.65497080     -0.62341817
H      -6.70029876      3.00507929      0.14274581
O       5.09213530      1.66221061      1.05609146
H       4.76227543      1.33822750      0.21084012
H       4.42296616      2.29568499      1.36254616
O       5.19222527     -2.62522311     -0.00256529
H       4.45262430     -2.46961625     -0.61405110
H       5.97953173     -2.73374494     -0.53775457
O       2.62971805     -1.02913759      3.01330318
H       3.57800458     -0.95571596      2.71441566
H       2.48649437     -0.25648785      3.56952028
O      -3.45510446      1.66646930      0.31454524
H      -3.49767002      0.69803069      0.28994550
H      -4.36712656      2.00399823      0.34980427
O      -2.14689509      3.30150663      2.05700268
H      -2.55835421      2.67159834      1.43336949
H      -1.91121403      2.78690904      2.84134960
O      -3.60808509      6.31217659     -0.48340565
H      -2.66488414      6.10180948     -0.58513810
H      -3.85244777      6.00141373      0.41919626
O       2.82716070      3.13273596      1.75801665
H       2.02710208      3.47212560      1.33064712
H       2.54490103      2.81706133      2.62459418
O       4.29531178     -4.63374060      1.77916870
H       4.04949812     -4.19465173      2.60874956
H       4.62969060     -3.93755439      1.19528068
O      -2.59096627      3.12073347     -1.81565301
H      -2.84425639      2.56869111     -1.04835735
H      -3.41111019      3.56735433     -2.07917002
O      -3.59689167     -3.39255470     -2.90916339
H      -3.19296475     -3.14982241     -2.05794383
H      -3.65975694     -4.34842202     -2.90918616
O       1.68158571     -5.21066623      1.86274763
H       1.62296807     -4.81696201      2.74250297
H       2.64400681     -5.15613356      1.66264188
