105
charge=0
O      -0.00012996     -1.48357601      0.68868992
N       1.64813881      1.60417132     -2.52652258
O       3.69979766      1.12437105      1.89393098
S       3.31638730      1.07829507     -0.68002001
C       0.87927792     -0.66165081      0.29114138
C       1.78273968      0.83519014     -1.52214538
C       2.86929434      0.64451173      0.96092019
C       0.86070375     -0.16346012     -1.04978207
C       1.81097598     -0.13790309      1.26835570
C      -0.12495843     -0.55047934     -1.98110834
N      -1.03946683     -1.44944200     -1.69085995
C       2.42506760     -1.61716163      3.20556864
C      -2.51428949     -3.79560363     -4.27851050
C      -0.66719438     -4.16528932     -2.62526527
C       0.84327202      1.91032408     -4.75784933
C      -0.59856926      2.45199874     -2.76230968
C       1.55679527     -0.45777226      2.72032130
C      -0.08947799      0.05781983     -3.34710421
C      -2.00861392     -2.04396837     -2.57268348
C      -1.39961242     -3.13085851     -3.47620733
C       0.45655151      1.49492318     -3.33575321
H       3.98170917      2.05275742      1.62650746
H      -0.98371105     -1.84977388     -0.74649593
H       3.47524742     -1.36400414      3.07801915
H       2.22236069     -1.81239097      4.25564658
H       2.21013707     -2.51727577      2.63282691
H      -3.21286791     -4.28886141     -3.60704068
H      -3.06240109     -3.06707030     -4.86977245
H      -2.10160724     -4.54203601     -4.95263559
H      -0.31472243     -4.98610248     -3.24514272
H       0.19200853     -3.72183067     -2.12782846
H      -1.33711695     -4.56227829     -1.86675215
H       1.68208605      1.30793982     -5.09735758
H       1.15196821      2.95178880     -4.76759238
H       0.00986069      1.77015077     -5.43881294
H      -1.52866659      2.36388637     -3.31650583
H      -0.79234839      2.21582697     -1.71881634
H      -0.24306838      3.47795011     -2.81766892
H       1.76951785      0.42890899      3.31395618
H       0.50900810     -0.71993783      2.84713067
H      -1.08675788      0.06115142     -3.78208856
H       0.54825407     -0.56525431     -3.98127633
H      -2.49137607     -1.27808992     -3.18274833
H      -2.75540667     -2.51053622     -1.92944729
H      -0.68664444     -2.66949617     -4.16683898
O      -2.44482601     -1.13115641     -6.58503731
H      -1.63133719     -1.55427608     -6.27514604
H      -2.83296278     -0.68793407     -5.80447497
O      -2.55200444      2.59587806     -5.92914644
H      -1.95451063      3.22607611     -5.52108953
H      -2.02987006      2.10738943     -6.59902336
O      -1.41651378      1.26566073      3.88096923
H      -1.51352890      0.91979064      2.96540612
H      -0.47687590      1.47714071      4.01905372
O      -1.18344117      0.93818038     -7.60427201
H      -1.36630560      1.06181331     -8.53634114
H      -1.72787812      0.15379244     -7.31616836
O       3.56965307     -0.41775152      6.65190700
H       3.78702559      0.29714840      6.01641592
H       4.03139359     -1.20832512      6.33529215
O       4.02830105      3.57417828      1.04821224
H       3.15695391      3.74887177      0.61723368
H       4.69040160      3.75144327      0.37790593
O      -3.56593267     -1.66671118      2.48339883
H      -2.74234326     -2.19318567      2.64891706
H      -3.93896096     -1.49108830      3.34779375
O       4.94455532     -2.49309801      5.35307157
H       5.74070567     -2.12626512      4.96279717
H       4.41695366     -2.86471262      4.64161561
O       1.73352377      3.84365164     -0.33564733
H       1.80011580      3.37713343     -1.17754597
H       0.94549371      3.47960803      0.10261362
O      -1.20807582     -2.88208495      2.78004302
H      -1.03036231     -2.43541700      3.63082608
H      -0.63091217     -2.45990181      2.12107162
O      -1.94548237      3.75389859      2.89581344
H      -2.87285393      3.84526936      2.67430829
H      -1.86061449      2.91592483      3.39412203
O       1.03653061      1.89354552      5.01795238
H       0.96852738      1.12358201      5.62719206
H       0.78936995      2.67409706      5.51622444
O      -2.68715335     -3.24095703      0.20880118
H      -2.06553216     -3.56638935      0.86714070
H      -3.31870485     -2.70871393      0.70421119
O      -0.52161924      2.64322195      0.77784447
H      -1.01098664      1.81412583      0.84925333
H      -0.90071403      3.21803712      1.46612723
O       0.97631771     -0.26897857      6.63220660
H       1.96593724     -0.41147223      6.64314230
H       0.71276254     -0.20618213      7.55096464
O       3.80578414      1.49774699      4.75584741
H       3.94889107      1.26363235      3.83117081
H       2.89184280      1.82370067      4.79488066
O      -3.35127846      0.42569476     -4.54392830
H      -4.29454636      0.46689509     -4.38096995
H      -3.11324388      1.26902000     -4.99002168
O       0.35064686     -1.26887835     -6.29278433
H       0.19618975     -0.37366761     -6.62296499
H       0.88815148     -1.71823240     -6.94650814
O      -1.94155003      0.23763073      1.45149941
H      -2.70671436     -0.30674010      1.72233580
H      -1.28033741     -0.41481968      1.15481158
O      -1.06024964     -1.25484985      4.95224740
H      -1.34370055     -0.36968393      4.65767097
H      -0.31265600     -1.09518374      5.54408471
