88
charge=0
Br     -4.19908539      1.10012669     -3.83623174
N       3.50431528     -0.29738566      0.14065360
N       2.53926872      0.21135826      2.32752364
O      -0.77718464     -1.08075918      0.99819773
S      -3.04654885      0.76776439     -0.95641337
C       2.95821600     -0.48197096     -1.04048635
C       1.41275887      0.57224194      2.86241610
C       2.45805796     -0.06578407      0.98121925
C      -3.68252427      0.03423459     -2.38168251
C      -3.72935087     -1.32222566     -2.31746462
C      -3.23126646     -1.78894234     -1.08315929
C      -2.82689916     -0.79362783     -0.24331036
C       1.27662160     -0.11008891      0.27616976
N       1.39361411      1.00931158      4.16274876
N       1.61618058     -0.38434685     -1.01570984
N       0.23396755      0.69173784      2.19613717
C      -2.18713552     -0.94585492      1.10006284
C      -0.03771776      0.15025245      0.89498920
H       3.51665758     -0.68224694     -1.93171331
H      -4.08938822     -1.95108295     -3.11135875
H      -3.16842808     -2.83191097     -0.83307702
H       2.21614113      0.73876705      4.68509597
H       0.52917501      0.78273859      4.66649959
H       0.95434387     -0.45409122     -1.78697968
H      -0.55941848      1.07666956      2.70552913
H      -2.53011465     -1.87235070      1.56782564
H      -2.44301168     -0.10018274      1.74734727
H      -0.64907168      0.86107832      0.32092243
O       1.30278562     -1.03475527      6.27139470
H       0.56672067     -0.59037928      6.69850617
H       0.91129446     -1.52623490      5.53338271
O       0.69807417     -3.20374559     -0.08018558
H       0.14930053     -2.47969016      0.25833334
H       0.21785939     -3.54494586     -0.84248819
O      -1.91871844      2.22056098      3.16468663
H      -2.03497845      2.52191684      2.24323959
H      -1.34069674      2.87727418      3.57782957
O       0.50415731      3.62412356      3.96027551
H       0.92117508      4.22704616      4.57717706
H       0.96270150      2.76101154      4.05084758
O      -4.83852330     -0.35990839     -6.92799718
H      -4.00430468      0.06917996     -7.13435104
H      -5.34983541      0.26752265     -6.41033212
O      -0.77562822     -2.84524522     -2.56846421
H      -1.10595970     -2.87525325     -3.48426105
H      -0.81744837     -1.90129813     -2.35129190
O      -0.21188919     -2.20476831      4.13658292
H       0.50219329     -2.39028040      3.48091542
H      -0.50074390     -3.06570725      4.44322890
O      -0.49228975     -0.06628823     -2.85632972
H       0.10735753     -0.16762005     -3.63028882
H      -0.43204326      0.86668559     -2.57534753
O       1.12689193     -0.89088819     -4.79711935
H       1.61807346     -1.55283292     -4.27801254
H       0.48370430     -1.39453813     -5.30737538
O       4.55734323      2.33131735      0.45352973
H       4.50139492      1.38128800      0.25470726
H       4.64610914      2.37029470      1.42624311
O      -0.12913980      2.38470708     -1.69692217
H       0.73297634      2.59164326     -1.30288633
H      -0.78728427      2.63070082     -1.03154554
O       1.78828727     -2.87367623      2.48492879
H       2.40756228     -2.14876026      2.35632059
H       1.51069784     -3.15811103      1.59988915
O       1.91645150     -2.86100609     -3.04780777
H       0.96378578     -3.00187168     -2.86605886
H       2.35825114     -2.97193381     -2.20389721
O      -1.65687000     -1.95556262     -4.98834514
H      -2.57856109     -2.23077615     -5.14637201
H      -1.70939690     -1.10386598     -4.54062508
O       2.23944185      3.24549577     -0.38405043
H       2.51040114      3.97096868     -0.95064440
H       3.09277868      2.86401685     -0.03656242
O      -1.16384061      0.24114970      5.09369988
H      -1.74309379      0.78472917      4.54752509
H      -1.06924401     -0.62053483      4.65866953
O       4.64287504      1.73533815      3.10451899
H       3.90807376      1.11446322      2.88593076
H       5.40625744      1.18488216      3.28621113
O      -4.29091676     -2.54280712     -5.38367456
H      -4.49867924     -3.34012073     -5.87286884
H      -4.56040039     -1.79330327     -5.94984260
O       0.37692668      4.33248672      1.27385619
H       0.51046053      4.12746352      2.21411788
H       1.11142056      3.91973106      0.77918380
O      -1.79204720      3.11218305      0.55261073
H      -2.44690469      3.76932476      0.31163598
H      -0.96956783      3.62652338      0.80688362
