98
charge=0
N      -4.54777164      0.06871024     -1.86670183
N       2.17648637     -0.72489649     -4.59404362
N       3.81381353      1.19580169      2.64329842
N      -2.33348891      0.89105239      1.48754780
N       0.35130235      1.25114557      3.85436630
S      -3.48089638     -0.31122478     -3.04854687
C      -3.92862969      0.39129600     -0.76423370
C       1.46467165     -1.79493408     -4.36268978
C       4.02938990      0.90952515      1.38914916
C      -2.11677680     -0.05414972     -2.06776010
C      -2.51341889      0.33777897     -0.80868062
C       1.65061874      1.31446577      3.92948785
C      -1.67556238      0.61671935      0.34465711
C       3.29142720      0.84909917     -2.98078882
C       3.42302849      1.11058729     -1.63521627
C       2.13518246     -0.86736912     -1.01533664
C       2.54988337     -0.26657238     -3.35479211
C       2.45474904      1.13265486      2.79362101
C       2.00179070     -1.12389717     -2.36888368
C       2.82590640      0.28319426     -0.67616836
C      -1.65843506      1.10671525      2.57856407
C      -0.29505472      0.59425719      0.27312694
C       1.86078309      0.80754414      1.55949527
C      -0.24997588      1.04386241      2.65335223
C       0.45197715      0.79139179      1.43967091
N       1.32725649     -2.09360480     -3.05192375
N       2.89775994      0.65166091      0.68542057
H      -4.48630462      0.67249827      0.11060300
H       1.00573666     -2.38012574     -5.13536617
H       5.00001366      0.87970424      0.93438900
H      -1.13253947     -0.19779174     -2.46125001
H       2.08525946      1.50599706      4.90073995
H       3.72409320      1.49888028     -3.72365731
H       3.96244337      1.98148555     -1.30052125
H       1.68526405     -1.50381696     -0.26980690
H      -2.23668154      1.37652682      3.45189606
H       0.19986564      0.44067845     -0.66812360
H       0.79728812     -2.86404462     -2.61038703
O       4.07257103      4.34848901      0.70707386
H       4.27053993      4.14741744      1.67367511
H       4.16583525      5.29909383      0.62036145
O       6.20047039      2.85430633     -0.12956676
H       5.40113366      3.38017026      0.07953895
H       6.64505916      3.29826946     -0.85331018
O       7.27684334      3.09384526      2.37272506
H       7.00057306      2.95380695      1.44539997
H       7.54890674      2.23802532      2.70740185
O       0.44037786      2.26105707     -2.39752165
H      -0.45389925      2.58148994     -2.26325893
H       0.97484962      2.64474079     -1.68451065
O       4.76233773      3.76346930      3.14120420
H       5.73004497      3.67080436      3.02512594
H       4.43414721      2.85476657      3.25663182
O       0.61455485      1.58273005     -5.10040799
H       1.28775851      0.88758002     -5.18427887
H       0.66915008      1.89335579     -4.18131489
O      -2.94232780     -1.45536485      4.26477394
H      -2.39822702     -0.83268104      4.77379192
H      -3.40376489     -0.94520253      3.58790995
O      -2.85019114     -2.30491190      0.97009876
H      -3.56214712     -1.75263011      1.35348787
H      -2.54613410     -2.88308034      1.68881738
O      -0.13383822     -3.85416866     -1.61199033
H      -1.04158306     -3.74062343     -1.94321476
H      -0.09999050     -3.42332937     -0.73760217
O      -3.78100106      1.68300302      5.32593240
H      -4.43896105      0.99324656      5.22262443
H      -2.97307127      1.25170424      5.64035480
O      -2.50744226     -3.60132619     -3.01700838
H      -2.22437901     -3.08595874     -3.80529515
H      -2.59763857     -4.51020539     -3.31047396
O      -4.41464537     -3.45515751     -0.93403662
H      -3.90521696     -3.42166185     -1.75385623
H      -3.80017263     -3.12773042     -0.24947555
O      -0.12897824     -2.45196623      0.77284423
H      -0.17613319     -2.96049273      1.59028452
H      -1.03679250     -2.13105867      0.64086570
O      -1.36007547      0.31912797      5.75265225
H      -0.72637771      0.74729992      5.12820737
H      -0.90061290      0.20114195      6.58484317
O      -1.56031501     -3.45099449      3.13726918
H      -2.00044094     -2.72160767      3.63173203
H      -1.76692008     -4.25749295      3.61063471
O      -1.71810596      0.35447248     -5.19137892
H      -2.20168991      0.79289786     -5.89273658
H      -0.83440098      0.80713250     -5.15498923
O       1.59122138      3.44369210     -0.11878798
H       1.01283270      3.84043354      0.53456764
H       2.49605392      3.72340819      0.11066333
O      -1.84272716     -2.32398269     -5.28436518
H      -1.70765945     -1.35548865     -5.19250399
H      -2.59937410     -2.42301246     -5.86519066
O      -6.30251286     -1.65196624     -0.20333415
H      -5.75080352     -2.40134501     -0.51278398
H      -6.15135593     -0.94995746     -0.84566881
O      -5.04703518     -1.21698975      2.11343302
H      -5.57798375     -1.28058226      1.28051772
H      -5.44488195     -1.85010101      2.71414397
