89
charge=0
N      -2.95698288      3.70117992     -8.32851595
O       2.57295835     -2.97714999      1.04310626
O      -2.06173303     -1.86932542      2.67865133
C      -3.08122468      3.25017408     -7.28214108
C      -1.43921231      0.07200861     -2.25075913
C      -2.12959576      0.66587168     -3.04869300
S      -4.88984753      2.73830269     -4.99012661
S      -1.47991084     -0.99880976      0.26392576
C       2.33484220     -2.16647433      0.13345896
C      -0.95449624     -2.35226181      2.93355546
C      -4.16640884      1.78444720     -3.72188870
C      -3.27137751      2.57195797     -5.95815133
C      -0.71609055     -0.59413159     -1.27267711
C      -2.36086468      1.83190834     -5.25821644
C       0.58863666     -0.99898541     -1.30874147
C      -2.87679155      1.40974061     -3.96931249
C       0.99716193     -1.65227324     -0.12182937
C      -0.02381667     -1.72232640      0.81030230
N       3.30167903     -1.75188393     -0.70230783
N      -0.67054262     -2.92704879      4.10828229
N       0.07976072     -2.27939472      2.04555477
H      -4.73901115      1.53890013     -2.85258816
H      -1.37703304      1.59763465     -5.61337051
H       1.21729466     -0.86696628     -2.15868563
H       3.14158097     -0.91571554     -1.23817326
H       4.25725801     -1.96231719     -0.45709546
H      -1.46457868     -3.21245875      4.67069144
H       0.19107375     -3.43429041      4.23995549
H       0.99206717     -2.67838021      2.25570955
O      -3.02035346     -4.39833215      4.21839324
H      -2.47045389     -4.86346200      3.56501510
H      -3.46993607     -3.71290087      3.71664679
O       0.50797678      0.81247422      3.73383738
H      -0.41105589      0.91449677      3.46362966
H       1.01460844      1.48242696      3.24283474
O      -1.87743699      3.27854287     -2.81658022
H      -1.16322367      3.92648037     -2.68487252
H      -2.39660723      3.63329227     -3.54205970
O      -3.43274652      2.00000271      1.02809528
H      -3.98328957      2.68675195      1.41432275
H      -3.02698317      1.50240309      1.78824375
O       1.14752533      2.79751823     -0.34631263
H       1.53149720      2.04601229     -0.83234856
H       0.17916020      2.59052912     -0.25034661
O      -5.10348924      0.26800814     -0.43853181
H      -4.50637836      0.88191349      0.01227446
H      -4.63017376     -0.56434395     -0.49002156
O       0.58659594      2.09550740     -3.87630134
H       0.90557910      2.97525391     -3.64294840
H      -0.33915735      2.09571876     -3.58625251
O      -2.48575561      0.69235955      3.17747748
H      -3.02923650      0.65665730      3.96611033
H      -2.38613895     -0.24453277      2.88791032
O       1.96898977      2.57390941      2.17308865
H       1.61877313      2.73690531      1.26291104
H       2.62695007      3.24813935      2.34556285
O       2.48520727     -1.18170975      3.80287430
H       1.72967912     -0.66484814      4.12173767
H       2.59105549     -0.84191837      2.88361465
O      -3.09150887      4.32656518     -5.38815352
H      -2.44462825      4.13752700     -6.17012442
H      -4.04687596      4.17971596     -5.76668915
O       2.09927825     -3.75383925      4.32158398
H       2.87550723     -4.10688434      4.75723222
H       2.28202354     -2.80138389      4.12916220
O      -1.32559444     -5.32035946      2.18712942
H      -1.55565995     -6.17935171      1.82972920
H      -0.34987481     -5.26099136      2.10397767
O       5.41659587     -0.55355420      0.93586543
H       5.29378975     -1.33106985      1.53658094
H       6.19633540     -0.09764809      1.25310660
O       1.38622783     -5.21092381      2.08774870
H       1.89398758     -4.64437421      1.48575776
H       1.62836558     -4.87728591      2.96854629
O       2.20104818      0.90668423     -2.13375532
H       3.07716342      1.17041566     -2.43059741
H       1.58032402      1.20172734     -2.84230608
O       2.72110721      0.02489533      1.44204488
H       3.63042067      0.00939917      1.10580960
H       2.51295815      0.93807935      1.70626354
O       4.73115245     -2.52702236      2.58921141
H       4.02152806     -2.87738515      2.01124966
H       4.26147989     -2.05871098      3.28910865
O      -1.39542722      2.44447019     -0.26918719
H      -1.73413560      2.49844197     -1.16495558
H      -2.14907688      2.04470260      0.34789492
O       0.70802930      4.61235034     -2.27909047
H       0.92560264      4.00045480     -1.53568247
H       0.71888740      5.49533782     -1.90904538
