95
charge=0
N      -2.56687753     -0.13219069     -2.29805630
S       1.41649428      3.13032939     -1.80291711
C      -1.61987991      0.51380841     -2.14488349
N       3.27488517     -3.29827189     -0.95204891
O       1.25190130     -3.42556749     -1.77489874
C      -0.15936024      2.52991436     -1.88529111
C       2.36615903     -4.09370696     -1.38587119
C      -0.37838709      1.10498672     -1.92997086
C       0.67334314      0.21132908     -1.72973987
C       0.55235854     -1.16351723     -1.84118072
C       1.50873205     -2.11858323     -1.56257565
N       2.75871559     -2.04849228     -1.04952356
N      -1.15828520      3.40885453     -1.92418579
C       2.40665899     -5.56012917     -1.48403389
C       3.49848054     -0.91692168     -0.58601787
C      -2.57520190      3.09886102     -1.96304140
C      -0.92887861      4.84036084     -1.85760495
C      -3.26194039      4.45283361     -2.13155986
C      -2.28305704      5.42195154     -1.47797160
H       1.62304951      0.65652067     -1.47850362
H      -0.37549739     -1.57558709     -2.20448423
H       3.41618455     -5.91147780     -1.30424355
H       1.72702603     -5.98977837     -0.74858768
H       2.05537859     -5.86503110     -2.46820205
H       3.75324930     -0.25212438     -1.41159538
H       2.92093125     -0.37154960      0.16063528
H       4.41711084     -1.28442673     -0.13333819
H      -2.87069094      2.61150424     -1.02707511
H      -2.80360910      2.42907032     -2.79483417
H      -0.57978991      5.20048839     -2.83318341
H      -0.16164406      5.06969796     -1.11521065
H      -4.24633023      4.46749326     -1.66999495
H      -3.37192115      4.68571978     -3.19219355
H      -2.40212187      6.44435761     -1.82726461
H      -2.38344117      5.40229360     -0.39295417
O      -3.71897739     -2.35247114     -3.65628641
H      -4.22887906     -2.61669748     -2.88393361
H      -3.39037074     -1.46372810     -3.45195999
O       3.34047069      2.51761943      2.19357558
H       3.36817187      1.60249754      2.52582907
H       3.80723800      2.49804034      1.34267210
O      -0.41237382     -2.03921299      1.02235849
H      -1.28050200     -1.93387172      1.45457999
H      -0.17793110     -1.14036852      0.74112113
O      -3.70506575     -2.11922420     -0.66223902
H      -3.01691495     -2.80110403     -0.78913243
H      -3.40245619     -1.34232650     -1.16584738
O      -0.14058028     -5.98018081     -3.60389063
H      -0.46580331     -5.04921123     -3.65554096
H      -0.57993477     -6.44855363     -4.31489767
O      -0.01482921      0.66176251      1.18305636
H      -0.09724606      0.43025358      2.13107377
H       0.37322691      1.56375267      1.18401856
O      -0.48937992      0.14432510      3.81246928
H      -1.41696158     -0.04941489      3.95555239
H      -0.36750448      1.10454157      4.03347551
O       5.75560474      0.28450309      1.08016527
H       5.07399941      0.10332422      1.74120123
H       5.39810586      0.98001157      0.51973698
O       4.23701071      2.34969420     -0.44487422
H       3.39217814      2.48647694     -0.90332221
H       4.82268794      3.04150712     -0.75884988
O      -0.71345260     -6.31736952     -0.97641477
H      -1.39171484     -6.99323056     -0.94421775
H      -0.43866234     -6.24290497     -1.91710349
O      -1.37066998      4.85909973      1.53087305
H      -1.95774576      4.27605923      2.03297367
H      -0.52455554      4.39759759      1.48611950
O      -1.55224709     -3.74397580     -0.79137640
H      -1.25929286     -4.67381387     -0.72126462
H      -0.99256076     -3.22568953     -0.18526605
O       3.56330650     -0.13100445      2.88891804
H       3.98661752     -0.25274552      3.74013170
H       2.79749717     -0.75313006      2.88406222
O      -0.36722625      2.75575819      4.00584327
H       0.18518476      3.08871437      3.28874259
H      -1.28205608      2.95867078      3.75513341
O      -2.64151391      1.11178714      0.93436206
H      -2.95448579      0.25642937      1.26266279
H      -1.66527161      1.00558053      0.87884492
O       1.43530448     -1.72296039      3.08989131
H       0.92206521     -2.03071548      2.32507111
H       0.83334992     -1.13697649      3.57288006
O      -2.89353042      2.89489367      2.86501367
H      -2.83814206      2.24416350      2.11733759
H      -3.81505330      3.13592089      2.95535400
O      -3.02847770     -1.53015769      1.80158714
H      -3.36284313     -1.76337461      0.89021561
H      -3.56790802     -2.02850663      2.41569961
O      -1.24304407     -3.56122379     -3.50589124
H      -2.11497252     -3.24414133     -3.79943004
H      -1.29491162     -3.57011002     -2.53179547
O       0.95046530      3.15575094      1.36000318
H       1.12541550      3.36164864      0.42854555
H       1.84790297      2.99529278      1.75960530
