97
charge=0
S      -2.29692082      1.71940301     -0.67823873
Br     -0.74775467      3.84144308      2.09833767
N       0.53212751      1.88299886      0.04064251
S      -1.80888921     -1.03926474     -1.66906619
S       1.11801539      0.80804751      2.38076463
C      -1.52529813      0.26392964     -0.55929021
C       0.26868652      0.92435764      0.84877479
C       2.91278542      5.23619066      0.75689307
C       3.31522549      4.26217057     -0.14118436
C       1.71179722      5.09707623      1.42901192
C       2.53438375      3.14216205     -0.35420752
C       0.93563891      3.97650216      1.21598338
C       1.33456794      2.96581758      0.33804918
N      -0.64743302     -0.01949810      0.46601731
C      -2.75515918     -0.20182421     -2.95525744
C      -0.91543061     -2.71898605      3.10408418
C      -1.83467387     -0.39463668      3.07733108
C       0.64979906     -0.80030312      3.08979949
C      -0.64891674     -1.34642605      1.05911659
C      -0.69765306     -1.29355806      2.59371226
H       3.51921806      6.11233762      0.92192838
H       4.24050231      4.37530866     -0.68547200
H       1.37163965      5.86190093      2.10972836
H       2.83390549      2.38713661     -1.06591263
H      -2.94145739     -0.93165803     -3.73537995
H      -2.16305393      0.62498108     -3.33582817
H      -3.69590839      0.16079223     -2.55465160
H      -0.15650876     -3.39058050      2.71100933
H      -1.89204927     -3.07553403      2.78897605
H      -0.86748971     -2.73944274      4.18925841
H      -1.86387748     -0.38848379      4.16374105
H      -2.78257181     -0.77469027      2.70744550
H      -1.71462102      0.63275145      2.73986070
H       1.43883337     -1.50094080      2.81482878
H       0.67163939     -0.64677532      4.16808404
H       0.23924151     -1.89656687      0.73564104
H      -1.53416535     -1.86928990      0.69878102
O      -2.22998551      5.26994480     -0.92543777
H      -2.07623398      4.63840763     -1.64164102
H      -2.36529717      4.74928902     -0.12851587
O      -5.36490606     -2.20583746     -1.74906624
H      -4.64368024     -2.81828009     -1.51684652
H      -5.23372647     -1.41966834     -1.20466120
O      -4.01662920     -2.37841850      1.31141170
H      -4.30640123     -1.55011077      0.89335846
H      -4.81148889     -2.82651592      1.60615565
O       0.57707152      1.03572672     -2.69646036
H       0.37724756      1.88132298     -3.11824461
H       0.69541021      1.25248212     -1.75797519
O       1.42679318     -1.54680204     -3.05062939
H       0.68993464     -2.04132752     -3.44168367
H       1.14841152     -0.61633200     -3.02512973
O       6.64912696      0.42337630      0.59818937
H       6.52916561     -0.48878663      0.95515330
H       7.47095539      0.74892928      0.96707175
O       4.21155753      1.12254011      1.46534283
H       3.89306489      1.95128979      1.10108532
H       5.10982231      0.97017493      1.09544559
O      -0.55190857     -3.30282223     -3.98129928
H      -0.15628297     -3.90942750     -4.60862106
H      -1.52574070     -3.50005240     -3.99727854
O      -3.22633265     -3.78600004     -0.96482070
H      -2.26139766     -3.92828143     -1.03741868
H      -3.36731511     -3.45675257     -0.06365324
O      -0.28982538      3.69568547     -2.43220662
H       0.16327714      4.51863536     -2.18455979
H      -0.40767802      3.21411207     -1.60545700
O      -4.86310686     -0.01833558      0.05373526
H      -5.57400730      0.51890008      0.40890411
H      -4.13386384      0.59125961     -0.15545022
O       1.86128876     -2.64531083     -0.72665275
H       2.44054452     -3.38010004     -0.93977426
H       1.73218037     -2.15546179     -1.58821312
O      -0.53828349     -4.02185569     -1.29904733
H      -0.49626329     -3.82290060     -2.25065632
H       0.20667076     -3.54489254     -0.90660205
O       6.01318182     -1.84970672      1.85736804
H       5.91452024     -1.54315029      2.76691313
H       5.09798001     -1.94434895      1.53266217
O       0.33709160      6.13079810     -1.26040378
H      -0.59987437      6.01217656     -1.00295070
H       0.37454012      6.95021150     -1.75531644
O      -4.94609923     -2.06527095     -4.38023935
H      -5.20046529     -2.04331161     -3.42883885
H      -5.71508671     -2.37763825     -4.85792790
O       3.34280644     -1.53305107      1.30648214
H       2.81536777     -1.86774957      0.56005558
H       3.46494280     -0.57862733      1.16809728
O       2.27992462     -0.23172510      5.70193397
H       2.66058786     -0.00535052      6.55107878
H       3.02754123     -0.29225048      5.07931129
O       4.26294053     -0.47708477      3.77086376
H       3.79803735     -1.14439288      3.25033371
H       4.26063687      0.30623868      3.19928164
O      -3.08467901     -3.97902400     -3.85882469
H      -3.23923961     -4.10210104     -2.91321704
H      -3.72338051     -3.29947711     -4.15196130
