85
charge=0
F       3.84027897     -1.53991409     -2.57407340
F       1.86652517     -2.00430598     -3.29163947
F       2.35602751      0.00708143     -2.72751317
F       3.82164889     -3.00601142     -0.23169923
F       2.31397384     -3.87080383     -1.50335342
F       1.85815271     -3.39245557      0.53394301
F       1.26984088      1.85608193     -0.87203094
F       0.50937962      2.20758697      1.09851322
F       2.62319063      2.19376760      0.75950275
F       1.29304040     -1.56358540      2.36606951
F       2.68128126      0.02229896      2.75367696
F       0.57255627      0.38298613      2.85345861
N       0.64489517     -1.46132883     -0.90478602
C       0.27686214     -0.59697709     -0.02208943
N      -0.94415514     -0.29089789      0.31794603
N       2.57931261     -0.52053757     -0.07041746
C       2.54384603     -1.27431526     -2.40858580
C       2.52571165     -2.96690021     -0.54614600
C       1.48281955      1.59436883      0.41530141
C       1.52620027     -0.26244844      2.16040532
C       2.06517445     -1.53956363     -0.95458698
C       1.50997453      0.07073163      0.65627567
H      -1.76390094     -0.68779171     -0.20687281
H      -1.16191885      0.44450848      0.99300766
H       3.54297358     -0.52186456      0.29937490
O       5.00734219     -0.22797098      1.08558736
H       4.99268683      0.55895449      1.66933620
H       5.44865159     -0.92841544      1.56812539
O      -1.30799823     -3.41751269      1.20583177
H      -0.37902690     -3.37880409      1.43708424
H      -1.79428685     -2.89787042      1.86460263
O      -2.20239506      3.33724939     -0.12911169
H      -2.86810231      4.01922913     -0.23131541
H      -1.32785477      3.77377538     -0.24545858
O       2.22882712      2.81325310      3.62704242
H       2.51432767      3.02919449      4.51699612
H       1.26194106      2.73099323      3.66374583
O      -4.04648847     -0.16760107      1.52861342
H      -3.71440189     -0.92009309      2.04460496
H      -3.94940295     -0.43435725      0.59864874
O      -0.35370914      1.17489863     -3.57923385
H       0.42032844      1.46795744     -3.09517227
H      -0.00794873      0.75752283     -4.40714162
O      -2.73930508     -2.01015031      3.16649593
H      -2.41907409     -1.25864389      3.71310458
H      -3.27906603     -2.55799798      3.73782011
O      -3.18599943     -0.93032194     -0.94863069
H      -2.89673571     -1.65493125     -1.52938637
H      -3.16163849     -0.11839175     -1.50582005
O      -2.06178759     -3.54320911     -1.41682099
H      -1.72898434     -3.48263105     -0.50222656
H      -2.75109547     -4.20874837     -1.40748407
O      -2.78808632      1.44558920     -2.13577863
H      -2.55255784      2.07979165     -1.44294585
H      -2.03997290      1.42258913     -2.74921033
O       4.83568883      2.05536384      2.58329141
H       4.96211806      2.72050569      1.90320444
H       3.93615042      2.17985754      2.91456907
O       0.85682334      4.97432720      2.25360800
H       1.67923304      4.49209023      2.39729422
H       0.18939775      4.47319211      2.74693930
O      -0.31342081     -4.38741265     -3.48144053
H      -0.93104773     -4.04853714     -2.81166879
H       0.56754241     -4.28189164     -3.11997581
O      -1.90396493      0.22618751      4.40493091
H      -2.06066604      0.77469365      3.62109065
H      -0.95713760      0.23895134      4.55549391
O       0.08791860      4.68481875     -0.30488403
H       0.24229516      5.49744367     -0.78692561
H       0.39979605      4.83438185      0.61550983
O      -1.42670647     -1.28690721     -2.98194254
H      -1.07548115     -0.39859933     -3.16424873
H      -0.78262935     -1.72448208     -2.41484542
O      -2.16683442      1.59823765      1.94522106
H      -2.22042886      2.26461268      1.23241910
H      -2.97007157      1.01945582      1.80664817
O      -0.86249017     -2.41068185     -5.37161365
H      -1.32061921     -2.02286013     -4.60095202
H      -0.51427013     -3.24371553     -5.01811328
O      -0.60087178      3.04563480      3.70352957
H      -1.08183114      2.55650430      3.01108038
H      -1.20950932      3.14352533      4.43852726
O       0.53871955     -0.17483862     -5.69224128
H       0.26403301      0.13072152     -6.55761644
H       0.12419580     -1.06887434     -5.58687140
