76
charge=0
Cl     -0.11378122     -1.97037988      3.19755968
N      -1.92345637     -0.50884678     -1.36824471
N       2.29155516     -1.28198469      2.54658882
N      -0.46107735     -1.07511471      0.31220777
S       3.37881173     -0.65164189      1.54604352
S       2.11762243     -0.35567942     -0.04287502
S       0.30507228     -1.51868554     -2.29550208
C      -0.80596636     -0.93880020     -0.97398635
C       1.07167735     -1.38661216      2.14002273
C       0.72670938     -1.00001918      0.79479088
C      -2.14011208     -0.51122698     -2.78042264
C      -1.02576081     -1.29000787     -3.50686548
H      -2.15311663      0.52562623     -3.12855098
H      -3.12359285     -0.94154401     -2.98379848
H      -1.35436085     -2.27663031     -3.83344993
H      -0.63015174     -0.73491586     -4.35393866
O       2.24303223      0.36930047      4.99675702
H       2.41245980     -0.44488630      4.50725857
H       1.40395542      0.24847607      5.44870130
O      -2.54638642     -3.72387989      1.14678147
H      -2.80025052     -2.78105894      1.23157576
H      -3.01118079     -4.18747047      1.84497009
O      -5.35506851      0.30614965     -3.16205690
H      -4.95733788      0.77747411     -2.41496727
H      -6.12479072      0.81596818     -3.41734746
O      -1.31615627      1.63099970      3.72815790
H      -0.41625943      1.51789684      3.36506921
H      -1.86772681      1.85279236      2.95376440
O       1.61992518      1.54501979     -2.19702297
H       0.96539474      1.72436402     -2.91056102
H       2.19022416      0.82879806     -2.50218647
O       0.13846311     -4.16017818      1.02583559
H       0.18517245     -5.00512580      1.47619235
H      -0.81554082     -3.93728096      0.96868278
O      -2.88137583     -1.06633549      1.68033594
H      -2.77296502     -1.00938126      2.65619341
H      -1.98676192     -1.05935238      1.29401107
O       4.79905374      0.71181350     -0.25994167
H       4.49834857      0.39360410     -1.13407556
H       5.70063033      0.40933842     -0.14415633
O       1.19705181      1.42264163      2.67450709
H       1.39945347      2.28868589      2.29016078
H       1.71269402      1.33830775      3.49331365
O       4.00385953     -2.66456726     -1.21122278
H       3.16344445     -3.17580786     -1.11415635
H       4.66076681     -3.31143310     -1.47279108
O       3.30850855      3.07118862     -0.68583861
H       2.70678562      2.62080887     -1.30842662
H       3.91706333      2.38287848     -0.38356913
O      -2.60174919      1.65624935      1.32536709
H      -2.81426332      0.70504015      1.40391847
H      -1.78350530      1.70929171      0.80614776
O      -0.21533717      2.10689157     -0.14942984
H       0.41538338      1.76248633     -0.80167035
H       0.30140883      2.71958668      0.40308945
O       1.78308269     -4.11318177     -1.12007954
H       1.22564125     -3.69916463     -1.78702663
H       1.23542541     -4.13589927     -0.30873664
O       1.58866595      3.71633490      1.19239375
H       1.50269147      4.66862904      1.23576435
H       2.30218373      3.52188344      0.52829613
O      -1.89731910      3.10172153     -2.06112963
H      -1.31763567      2.88789293     -1.30529952
H      -2.73156110      2.63526210     -1.86722744
O       3.81346014     -0.37109631     -2.59287508
H       3.78789298     -1.24514727     -2.14169541
H       4.23061336     -0.50774145     -3.44484541
O      -2.56082942     -0.62135532      4.32242513
H      -3.37184469     -0.34845141      4.75318102
H      -2.03449382      0.21049305      4.18997169
O      -0.31038816      2.16403632     -3.95159949
H      -0.95949589      2.52282841     -3.28943277
H      -0.11495335      2.89215144     -4.54218289
O      -3.89843132      1.50229953     -1.06346948
H      -3.35249281      0.69676111     -1.08435911
H      -3.81270224      1.81423759     -0.14765606
