64
charge=0
O      -2.29123975      1.33543272     -0.90735588
Br      1.44191837      0.22582718      0.21252252
C      -0.02419993      0.96038915     -0.43153016
N      -1.17344064      1.04852065     -0.56364421
O       1.08685197     -3.14529267      0.01115247
H       1.42199217     -2.79227545     -0.82549749
H       0.24568778     -2.67654471      0.16194988
O      -3.77530747     -2.48406409     -0.00402810
H      -4.16113977     -2.28812416     -0.90504146
H      -4.14935219     -3.31892108      0.27669516
O      -4.09100593      0.07471324      0.90361586
H      -3.52582390      0.59390558      0.30943742
H      -3.96533339     -0.86137218      0.65124361
O       2.48228964     -2.34498142      2.15468988
H       1.77959300     -1.92138148      2.66790086
H       2.04061723     -2.71394760      1.35685804
O       0.02325951     -0.07119894     -3.10194733
H      -0.89946419     -0.33377124     -3.21107345
H       0.52542093     -0.86790806     -2.86643696
O       4.25333528     -0.45446188      1.89364601
H       5.03979182     -0.77615153      2.33582313
H       3.59792895     -1.20800186      1.91817782
O      -4.85139224     -1.73352582     -2.25742971
H      -4.13368864     -1.27208071     -2.72320200
H      -5.43202984     -1.03006748     -1.90997266
O       2.06244572      1.76948397     -2.85885983
H       2.75860031      1.09143082     -2.88507159
H       1.23691068      1.27771164     -2.99163242
O       2.78929123      2.98343978     -0.61272117
H       3.12313582      3.84731013     -0.85753336
H       2.43605539      2.57962739     -1.44458698
O      -2.84725369     -0.06914395     -3.21481580
H      -3.09903312      0.51418144     -3.93263684
H      -2.77756653      0.48866949     -2.41782451
O      -1.05867442      2.53783593      1.89039242
H      -0.09171253      2.77299832      1.87797650
H      -1.47571924      3.20965557      2.43065924
O       1.48640667      3.15695912      1.89708904
H       1.94700902      3.09814995      1.04721928
H       1.91468243      2.49657886      2.48547530
O      -1.77533404      0.03942894      2.48220346
H      -1.47575587      0.95875007      2.29544927
H      -2.71764693      0.03568450      2.24859945
O      -1.17188747     -1.64125620      0.35920374
H      -2.01313464     -2.08207843      0.16782938
H      -1.30706937     -1.15295389      1.18961830
O       2.51698745      1.13982982      3.35061454
H       1.82081478      0.47728065      3.47568255
H       3.21236268      0.68708738      2.84416021
O       3.95546074     -0.24941249     -2.51801285
H       4.25505360      0.17856518     -1.66199963
H       4.75169258     -0.38955109     -3.03093964
O       0.54214184     -0.87208008      3.62140923
H      -0.29734235     -0.58964856      3.21896137
H       0.34467476     -1.11465001      4.52682416
O       1.90702835     -2.02486035     -2.44733912
H       2.15696991     -2.69764649     -3.08202014
H       2.65540290     -1.39478387     -2.39569269
O      -6.15233816      0.25463882     -0.88770702
H      -7.02357803      0.19682693     -0.49546777
H      -5.51288931      0.30073221     -0.14753346
O       4.72029335      0.99853473     -0.37258602
H       4.56905160      0.47557933      0.43590016
H       4.09774615      1.74560791     -0.32596903
