82
charge=0
F      -2.89749226     -2.83481677      0.49286058
F      -0.54188766     -3.25276134      1.77171409
F      -3.48309761     -0.36533626     -0.51660785
F       2.23958009      3.27845025      3.77389660
F       3.32234244      4.56672087      1.62150937
F       1.22072718     -1.21308997      2.07688175
F      -1.69199524      1.64554022     -0.27922829
F       0.57250200      1.19367443      3.38661419
Br      2.94471156      4.01813315     -1.29640359
Br      1.00047819      1.48111861     -1.78403574
C      -2.02653869     -1.83144432      0.61710751
C      -0.82145412     -2.04139564      1.27547764
C      -2.31962348     -0.57885339      0.09692196
C       1.96739983      2.86561961      2.52873680
C       2.50653887      3.52794504      1.43533120
C       0.07983519     -0.99730695      1.42010165
C      -1.39653497      0.45153187      0.22386129
C       1.11172502      1.79320847      2.32057697
C       2.20036133      3.10651873      0.15074812
C       1.34226501      2.03078627     -0.04653042
C      -0.18320516      0.25779158      0.87891070
C       0.77813151      1.36495016      1.03922209
O      -1.66354794      0.69190393      5.37882625
H      -1.98896819      1.60978166      5.34285473
H      -0.70914396      0.74374770      5.29601101
O      -2.59570686     -0.31814716      3.08465006
H      -2.21836170     -0.04057909      3.95422190
H      -3.44670573     -0.70829277      3.29447395
O      -1.26916622     -5.37859578     -0.37245168
H      -1.45616787     -5.06222212      0.51290411
H      -0.29239210     -5.50654013     -0.42305049
O       1.47365996     -1.61219394     -2.89265332
H       1.63458215     -1.39672718     -1.95324990
H       1.38516620     -2.57835731     -2.95684860
O       2.48050577     -0.81436254     -0.45453358
H       3.26538869     -0.67912020     -1.01143251
H       2.60731222     -1.68428610     -0.03592014
O      -1.40806849      3.38959862     -3.06554782
H      -0.78907398      3.30982323     -3.79286346
H      -1.89082971      2.53543980     -3.04286785
O       2.98356723     -3.40211542      0.28595431
H       3.38181190     -3.55187401      1.14437640
H       3.71036455     -3.44568446     -0.38072231
O      -0.61627299      4.93609734      4.13566021
H       0.28055907      4.75045703      4.42102370
H      -0.66473424      4.66662239      3.18994950
O      -0.23647891      4.49240756     -0.90672267
H      -0.72103912      4.02542889     -1.62496256
H      -0.38122453      5.42583561     -1.07070021
O      -1.18190196     -1.20290778     -2.33080026
H      -1.47959050     -2.11788003     -2.45111540
H      -0.27661756     -1.17389704     -2.68970705
O       0.88597050     -4.28105560     -3.24824194
H      -0.06710707     -4.16471407     -3.03701320
H       0.92965235     -4.61814592     -4.14366702
O      -0.73426379      3.83109718      1.71567796
H      -0.70358410      4.11706111      0.78610688
H      -1.56505870      3.31996703      1.81803408
O      -2.49522509      3.29615517      5.03015839
H      -3.15972377      3.81427597      5.48511188
H      -1.78428453      3.93061486      4.75889286
O       4.83650429     -3.30813102     -1.62630029
H       4.72796388     -2.42006164     -2.01876482
H       4.75452541     -3.93247569     -2.34883196
O       1.37837635     -5.41495134     -0.73833311
H       1.36199838     -5.13218986     -1.66443683
H       1.85655073     -4.71480954     -0.26260969
O       4.12812116     -0.92626633     -2.70926051
H       3.24139897     -1.10042865     -3.07688382
H       4.39294299     -0.06817210     -3.06807600
O      -2.63458111      0.97663353     -3.15239803
H      -2.07933613      0.21031411     -2.91172134
H      -3.37449265      0.96826874     -2.54155171
O      -1.69102900     -3.95090035     -2.52415826
H      -2.48643672     -4.28434034     -2.94119757
H      -1.60664896     -4.44756721     -1.66520041
O       4.30829777      1.67651556     -3.61285270
H       4.80807551      2.41058834     -3.97299992
H       3.44501138      2.01906675     -3.36578457
O      -2.89127645      2.35733898      2.42109457
H      -2.90452033      2.70973110      3.32558599
H      -2.79214185      1.39601463      2.52528981
