96
charge=0
O       1.09271661      1.68333157     -1.83569726
O      -0.66993737      4.82300019      0.58802871
S      -0.07756322      3.99116574     -2.23819141
S      -0.65812310      3.28389321      2.66120079
C       1.87957472      5.98992944     -0.53970420
C       3.83861993      4.91113986      0.53847412
C       1.10695681      1.85860777     -3.22732142
C      -2.02028115      4.44188867      0.67846657
C      -0.07263255      2.75701493     -3.57910279
C      -2.27728410      3.88502044      2.08639377
C       0.26927399      2.59269592      0.16705412
C       2.35125756      3.52152262     -0.88092984
C       1.55564620      4.37083394      1.36212155
C       0.97692420      2.90439404     -1.14834698
C       0.16899662      3.82541642      1.05576986
C       2.38197108      4.69817980      0.10562315
H       2.42823342      6.19566004     -1.45585398
H       2.02275098      6.82642374      0.14068310
H       0.82342784      5.92062926     -0.77664909
H       4.45162458      5.17183129     -0.32062576
H       3.90303300      5.71824023      1.26425559
H       4.24550285      4.00967116      0.99093503
H       2.04862294      2.31759376     -3.55789768
H       1.01888079      0.86283795     -3.66483843
H      -2.27366228      3.68914443     -0.07554898
H      -2.60631184      5.34178661      0.48835968
H       0.04922598      3.26743680     -4.53027652
H      -1.01992723      2.22028474     -3.55108192
H      -2.98737691      3.06157528      2.06852578
H      -2.60763992      4.65448721      2.78190756
H      -0.71613516      2.18018380     -0.04478301
H       0.87020967      1.84272706      0.68228578
H       2.79549188      3.83639819     -1.82684285
H       2.95633373      2.70181303     -0.48235055
H       2.08231900      3.61814024      1.95211055
H       1.44957421      5.27011030      1.97062892
O       4.05457983     -3.22127322      0.80682108
H       4.93133539     -3.34971957      1.16854241
H       3.46638733     -2.98933263      1.58252353
O       3.27272754      0.46464212      0.39658080
H       4.01858932      0.38353084      0.99263360
H       3.46879358     -0.12650822     -0.37529746
O      -3.23861068     -0.91590865     -3.47861332
H      -3.02524374     -0.10408841     -2.93533829
H      -4.11744547     -0.77602494     -3.83031686
O      -0.87257669     -2.12795088     -4.27515207
H      -1.70293840     -1.72638622     -3.96566750
H      -0.78260877     -1.88925687     -5.19777025
O       1.17911978     -1.94542117     -2.45488177
H       0.95838639     -2.53954695     -1.71023607
H       0.53858227     -2.13294033     -3.16143904
O      -3.47928600     -3.16940284      2.74172747
H      -3.87232786     -3.80358006      3.34179639
H      -2.84749519     -2.63375582      3.26268685
O       1.09858491     -0.82126609      1.20886349
H       1.87432096     -0.32001572      0.86818277
H       1.03948257     -1.67080035      0.71337852
O      -2.53584350      1.10213509     -1.95948508
H      -1.67253056      0.71234441     -1.72590779
H      -3.00506168      1.13579659     -1.09930028
O      -1.72513777     -3.97806008      0.74781688
H      -2.09591239     -3.56183951     -0.04912732
H      -2.36211790     -3.75862109      1.44862417
O      -1.14675654      0.17145499      2.27283863
H      -0.93557478      1.06798112      2.57799914
H      -0.31892719     -0.18910477      1.89327415
O       2.50543123     -2.55683890      2.80749465
H       2.04580773     -1.77701359      2.45168058
H       1.78572907     -3.19692840      2.97114387
O      -3.32487131      0.95846705      0.63390581
H      -3.91934624      0.18071026      0.64891493
H      -2.55239376      0.67019509      1.14429721
O      -1.58884140     -1.74564708      4.04526089
H      -1.45685806     -1.01758733      3.38856384
H      -1.62272001     -1.33662609      4.91011669
O       0.10771270     -3.81523448      3.06070732
H      -0.36784113     -4.10444437      2.27311775
H      -0.43859755     -3.12851685      3.46890714
O      -4.48714389     -1.48415619      0.63691155
H      -3.86860251     -1.81379129     -0.04456576
H      -4.30427253     -2.01956451      1.41870218
O       3.70053821     -1.44268694     -1.36410997
H       3.77309626     -2.15653183     -0.71008670
H       2.88495797     -1.59405759     -1.86712650
O      -0.55802003     -0.45547983     -1.03768114
H      -0.09661065     -0.30347083     -0.20333860
H       0.13579875     -0.74317945     -1.66295050
O      -2.57255425     -2.24505842     -1.15386744
H      -1.82615729     -1.61854884     -1.03989813
H      -2.91974237     -2.05230012     -2.03682220
O       0.73465461     -3.14937218     -0.07683623
H       1.31499115     -3.93590729     -0.04094717
H      -0.14455082     -3.44890272      0.21853225
O       2.51608624     -5.16286779     -0.25123266
H       2.78922209     -5.32835434     -1.15450329
H       3.19358078     -4.58285352      0.14997864
