103
charge=0
O       1.37260080      1.54165052      1.93406399
F       2.56281584     -6.43227828     -0.17531903
N       0.47548229     -2.24663643     -0.53839255
S      -4.05410541     -2.54086154      0.64368555
C      -0.50136074     -1.47303159     -0.80451098
C      -3.02528018     -1.33875103     -1.38028810
C      -1.91887842     -1.78609481     -0.60102483
C      -2.31259393     -2.47743503      0.52283047
C      -4.23113931     -1.65355173     -0.85153820
C       0.74143097     -5.99203896      1.27608201
C       1.45261749     -4.36910627     -0.36160999
C      -0.27189380     -5.12960110      1.66306464
C       1.57416041     -5.59942613      0.24830661
C       0.43307771     -3.50228065      0.02217404
C      -0.45344660     -3.90389004      1.03972840
N      -1.51962238     -3.08318147      1.45291701
N      -0.19317652     -0.23633199     -1.36697783
C      -5.58563617     -1.34040206     -1.37857162
C       1.22905427      0.06734234     -1.42641220
C      -0.91722862      0.92128288     -0.87351987
C       1.37186527      2.81296720      0.01323316
C       1.76177520      0.40729389     -0.03888309
C      -0.43435541      1.27287441      0.52861705
N       1.02629651      1.51642134      0.61514108
H      -2.91393492     -0.82072480     -2.31700393
H       0.87749128     -6.94631408      1.75756896
H       2.14163503     -4.05292963     -1.12588816
H      -0.94195050     -5.40589625      2.46316704
H      -2.02124615     -3.43601801      2.27380538
H      -6.16748171     -0.78556477     -0.64292295
H      -6.13001453     -2.25529707     -1.61301167
H      -5.50158646     -0.74248593     -2.28303181
H       1.75412702     -0.82110759     -1.78023554
H       1.37873432      0.88151714     -2.13758018
H      -0.77685458      1.75168228     -1.56908547
H      -1.98395320      0.70853668     -0.81167730
H       2.45198991      2.93907632      0.03098064
H       1.00258530      2.88801413     -1.00342677
H       0.91658003      3.59302675      0.61908008
H       2.81758196      0.67606946     -0.06925234
H       1.64197759     -0.47216136      0.59843291
H      -0.94840391      2.15995425      0.89677892
H      -0.65395488      0.43453341      1.19438067
O       0.83283984     -4.49619434     -3.75969323
H       0.20871764     -4.09735701     -4.38160296
H       0.27278139     -4.76277627     -3.01263372
O       0.20854757      6.47003506     -0.77237948
H       1.14134540      6.26651322     -0.59491461
H      -0.13890198      6.76948275      0.07439196
O       0.82794352     -0.81817664      3.03078503
H       1.13452800      0.06104663      2.69914510
H       1.34186540     -1.01038322      3.81479320
O      -0.42046030      2.63307882      3.56646635
H      -0.94898078      3.17858846      2.95861948
H       0.25646161      2.19070126      2.99171871
O      -1.33559240      4.25065494      1.52528238
H      -0.74105268      4.99136393      1.74940820
H      -1.42255130      4.25645923      0.55731374
O      -1.50601236     -4.55121535     -2.27173863
H      -1.67688348     -4.04146110     -3.08138774
H      -1.59242847     -3.93537512     -1.53984171
O      -1.22664636      4.26119475     -1.26602578
H      -0.66478446      5.06655974     -1.19507076
H      -2.00048718      4.52845398     -1.76323460
O       2.74363014      6.11039948      0.30443421
H       3.32652004      6.84727600      0.11808404
H       3.32229079      5.32489096      0.45462894
O      -3.75524459     -1.32918766      4.29257191
H      -4.49411712     -1.00574804      3.77419720
H      -2.97969323     -0.80371039      3.99494452
O      -3.20167870     -3.87413847      3.57440847
H      -3.36187886     -2.98469832      3.95782742
H      -4.06248859     -4.22304086      3.33826640
O       3.27906885      3.07864127      2.99672563
H       2.64860541      2.42667718      2.61728759
H       2.72369918      3.68417998      3.51336840
O       2.05465755     -0.29665701     -4.56120893
H       2.34510145     -1.08141964     -4.04558221
H       2.48608834     -0.34508750     -5.41465288
O       1.28118068      4.51136034      4.32323189
H       0.61855235      3.79421315      4.13112310
H       1.23869063      4.67450542      5.26525701
O      -1.43717807     -3.05865094     -4.63690231
H      -2.17711094     -3.01789732     -5.24289501
H      -1.12226587     -2.12571000     -4.52249070
O      -1.72196227      0.10361193      3.27976688
H      -1.45396007      0.97130743      3.61920336
H      -0.89751696     -0.41861914      3.23084608
O      -0.61555204     -0.56635549     -4.25834180
H      -0.66680181     -0.45147077     -3.29897891
H       0.33706706     -0.45019846     -4.45845662
O       4.32297920      4.04104435      0.81353777
H       5.26211195      4.16115197      0.95640287
H       3.96230737      3.67853574      1.67341575
O       3.55804653     -5.16911189     -3.10434036
H       2.69654611     -5.22941660     -3.53724032
H       3.49692497     -5.70060027     -2.30659874
O       2.59007331     -2.50582409     -3.15648610
H       3.37315211     -3.06865654     -3.18054731
H       1.85959353     -3.12226326     -3.36539226
O       0.61633626      6.07283640      2.14312868
H       1.42573893      6.09744245      1.60863962
H       0.87430387      5.66388993      2.98651870
