94
charge=0
N      -3.28996016     -3.41727022      1.09980316
O       1.26599020      0.23978656     -6.91479247
O       2.99731555     -0.15204863     -5.69327154
C      -2.31452982     -2.97875530      0.66348816
N      -0.37868975     -0.43821250     -4.83908257
N      -0.77279513     -0.82139005     -3.68273420
N       1.41035719     -0.85598256     -3.61439268
N      -3.34235063      1.43988686     -1.41876077
O       1.23399955     -2.23149465      0.34446133
C       0.95899597     -0.45371203     -4.79846243
C       1.31907191     -1.76278540     -0.92055653
C       0.21365559     -1.49780660     -1.64795116
C       0.03454703     -2.62448230      0.84926605
C      -3.00670159      2.10526538     -0.32454372
C      -2.76422252      0.27584370     -1.66827768
C      -2.06895510      1.63497956      0.57740206
C      -1.47052902      0.41378419      0.32258710
C      -1.81504768     -0.28947361     -0.82532517
C      -1.13349833     -2.46632512      0.15364211
N       0.30243809     -1.06364887     -2.95584953
N       1.80183828     -0.09261766     -5.88212577
N       0.16231827     -3.21723750      2.04277423
C       2.72627956     -1.60891882     -1.36725607
C      -1.19272760     -1.64416445     -1.11779511
H      -3.50701660      3.05016462     -0.17129052
H      -3.06620756     -0.20936614     -2.58547494
H      -1.81313862      2.21122723      1.45078254
H      -0.74742315      0.00732220      1.01067772
H      -0.64610993     -3.35287176      2.64009541
H       1.09566541     -3.28911569      2.43673326
H       2.93897168     -0.56431541     -1.57967831
H       2.90377874     -2.16085508     -2.28662990
H       3.38270551     -1.97393565     -0.58242859
H      -1.81074943     -2.14264553     -1.87451999
O      -1.52719179      2.42908742     -3.80441071
H      -2.14010335      1.69280200     -3.99886727
H      -0.79560673      2.04960663     -3.29882036
O      -3.27583170      0.53790198     -4.80097037
H      -2.61282393      0.12487489     -5.36013943
H      -3.62406905      1.31181402     -5.28848518
O       4.39553677     -3.18189165      0.99964220
H       3.73994835     -3.35233777      1.70047090
H       5.03440647     -3.89459009      1.03195998
O       0.72341598      1.63960981     -2.36255795
H       0.92129309      1.36970615     -1.44239700
H       1.06000948      2.53609009     -2.43523491
O       1.00905358      0.17940402      2.55094605
H       0.98431567      0.99085310      3.09680774
H       1.23174808      0.48599105      1.63880759
O      -2.50326953      4.58225360     -2.52914497
H      -3.44627576      4.38969252     -2.58272403
H      -2.07617448      3.83896096     -3.00733689
O      -1.45813466      4.92481560     -0.11871139
H      -1.36813344      5.87840497     -0.08024922
H      -1.83597409      4.73855477     -1.01451649
O       1.55627640      1.21325304      0.18002540
H       2.53552867      1.19238576      0.11246018
H       1.32962936      2.15213143      0.35521491
O      -2.02810418     -3.06212490      3.87112027
H      -2.66189935     -2.52936953      3.38070427
H      -2.46572754     -3.92247799      3.97086738
O      -0.39365893     -0.93827549      4.68093069
H      -0.04928088     -0.70311950      3.80469551
H      -0.90431458     -1.75082829      4.56831161
O      -4.87228471      3.06776517     -2.99033125
H      -5.75372599      2.69865812     -3.05526749
H      -4.32098589      2.38800610     -2.53386986
O       1.70909927     -0.10105101      6.07525216
H       1.63118375     -0.23683964      7.01956052
H       0.90349801     -0.49113984      5.66188283
O       0.88098901      3.77671678      0.52870630
H       0.00482546      4.11785569      0.24163707
H       1.07850870      4.19677342      1.36674889
O       2.76440161     -3.42732510      3.21194602
H       2.91201391     -2.47633217      3.46316209
H       2.95052083     -3.95091303      3.99169965
O      -3.71506668     -5.10087759      3.25716804
H      -3.75324969     -4.63566152      2.40172027
H      -4.38867772     -5.78100598      3.23166858
O       5.09157508     -0.63998889      1.85674224
H       4.50902868     -0.60631629      2.63003622
H       4.93044189     -1.51015082      1.45312059
O       3.08345467     -0.88725849      3.78922406
H       2.87356431     -0.61574111      4.69413588
H       2.35368472     -0.50597114      3.23811343
O       4.22333009      1.15020154      0.08357246
H       4.83867388      1.12982347     -0.64936992
H       4.58145698      0.53315723      0.76534963
O      -3.86171987      3.07096870     -5.56907391
H      -2.95301025      3.36822783     -5.46421775
H      -4.27803535      3.20889309     -4.69840200
O       0.93865093      2.07844836      4.48999889
H       0.03245951      2.16154466      4.79318949
H       1.38184884      1.49012696      5.12395893
