99
charge=0
O       3.46218079      0.11688368      2.40963144
F      -0.13972930     -7.62329213     -2.34071101
F      -1.46215226     -6.27099985     -3.36524603
F      -2.17271242     -7.41874121     -1.69456955
F      -2.57936787     -5.56281012      0.25114110
F      -1.68693776     -3.66663132     -0.20295692
F      -2.83708188     -4.67869274     -1.69351642
F       3.09384915     -2.59179122      0.59710331
F       4.25054071     -2.86373751     -1.20313598
F       2.21199679     -2.80511805     -2.76935519
F       0.93603876     -1.77158533     -1.37720956
F       0.79578426     -3.79071886      0.28019333
F       2.31560738     -4.93702931     -0.74493362
F      -0.42011214     -3.65989444     -2.49771621
F       0.95878377     -5.26851348     -2.87680769
F      -0.10822397     -6.20494291     -0.13197304
S       4.39054038      1.52815443      0.42544153
C       3.57217024      1.24522159      1.97402806
C       3.11665513      3.64859627      2.10472680
C       3.06379274      2.44200929      2.66372211
C       2.46402106      2.17879425      4.01006201
C      -1.12683780     -6.75804766     -2.17507125
C      -1.97965128     -4.86223115     -0.69331377
C       4.61635564     -0.19337584     -0.10779666
C       3.34571691     -0.68276476     -0.79823505
C       3.19594978     -2.18670013     -0.69738226
C       1.92502589     -2.68382026     -1.46162644
C       1.35096759     -4.02850629     -0.92081862
C       0.28929288     -4.63870564     -1.89995074
C      -0.70469369     -5.61376315     -1.19969535
H       2.72920567      4.51305503      2.61563023
H       3.54424998      3.80616256      1.12957414
H       2.08423464      3.09628833      4.44762443
H       1.65124362      1.45879727      3.92610592
H       3.20864020      1.74499788      4.67489415
H       5.46702495     -0.20639949     -0.78464636
H       4.83207880     -0.77754296      0.78784954
H       3.37394342     -0.40143037     -1.85244948
H       2.46618425     -0.23929866     -0.32009308
O      -5.70714316      1.60669226      2.57748809
H      -6.47722149      1.05884189      2.72665208
H      -5.54941189      1.63468476      1.60897648
O      -1.52130463      0.11526721     -0.21537323
H      -0.57655968      0.09365404      0.04928575
H      -1.82576346      1.01285653      0.05026960
O      -0.99835838      2.36920905     -1.62268292
H      -1.93566045      2.27184186     -1.87031266
H      -0.50769968      1.84945196     -2.27343422
O      -3.40293698      1.44862901     -2.45564833
H      -4.06473883      1.28339323     -1.76522472
H      -3.02572931      0.58584532     -2.66512627
O      -3.18444590      0.94668726      3.31427200
H      -2.87891063      1.65121354      3.91476550
H      -4.14263032      1.12991612      3.18937475
O       2.24470439      2.22541138     -2.54337886
H       1.48688933      1.90447242     -3.04814353
H       2.00071817      2.10524096     -1.62101879
O      -0.14316238      1.23651824     -3.80938471
H      -0.52654592      1.75463544     -4.51990155
H      -0.82878951      0.60543431     -3.48347326
O      -3.73283442     -0.86982293      0.99409084
H      -3.63096629     -0.67232184      1.93027251
H      -2.86059216     -0.69524357      0.59085626
O      -1.98412640     -0.32761942     -2.74813008
H      -2.04154637     -1.27590634     -2.86545047
H      -1.82148391     -0.18832832     -1.77906264
O      -0.39059981      3.33935291      2.46190573
H       0.18182116      3.42125526      1.67504976
H      -0.19065897      2.46423084      2.84288164
O       3.94066998      0.37717147     -3.85409543
H       3.32118340      0.14125776     -4.55812928
H       3.58821379      1.19426045     -3.47039443
O       0.81974035      3.34134100     -0.00885814
H       1.13512125      4.18511699     -0.33763158
H       0.06841527      3.06420082     -0.58669186
O      -2.47180185      2.23364231      1.08894049
H      -2.73965106      1.71045680      1.87388384
H      -1.81139972      2.85429910      1.43082173
O       1.63203554     -0.31249705     -5.30285547
H       1.04615324      0.20497080     -4.72574751
H       1.43449864     -1.23436860     -5.12199085
O       0.53606650     -1.83386897      3.59804204
H       1.31916907     -1.69465463      4.16445433
H       0.85402589     -2.24826325      2.79492636
O       0.97912325      0.67134863      0.70363743
H       1.03335261      1.61584462      0.50769999
H       0.58272347      0.61452985      1.59737077
O      -2.46248292      3.33429315      4.37569589
H      -1.70521189      3.54476388      3.81143313
H      -3.14944295      3.97145870      4.17173762
O      -0.33640662      0.60851910      3.08515244
H      -0.03447319     -0.28735567      3.35964028
H      -1.29616744      0.58359805      3.18670040
O       2.91818886     -1.30457423      4.71537698
H       3.52972830     -2.04271863      4.72833587
H       3.16404308     -0.75243478      3.95157108
O      -4.84169651      1.39022336      0.03956385
H      -4.61112956      0.45472499      0.23802265
H      -4.04352388      1.89441334      0.27518716
