101
charge=0
O       1.64191902     -1.26209803      1.81904535
O      -2.40734164     -6.24704595     -2.70206807
F       4.03579481     -2.22017906     -1.68268108
C      -3.77035400     -3.51040791      0.31794852
C      -2.86680211     -4.22745625     -0.00855583
N       3.86323021      1.23287216     -0.55766689
N       3.23557846      0.19989306     -0.99917247
N       3.74942278      2.58298175      2.67560658
O       0.84143370     -5.07315498     -3.50541752
C       2.29567754     -0.41273923      1.18969710
C      -1.42455139     -5.51746906     -2.66944312
C       3.03222893      1.49378798      2.85627931
C       4.07278505      6.03179333     -2.01614374
C       2.91774220      0.76757474      1.65835778
C       3.68810825      1.54384228      0.72305119
C       3.87798526      5.83181198     -0.71975054
C       2.30980023     -3.47954080     -2.53378029
C       0.60366092     -1.91654077     -0.44879316
C       2.69926972     -2.48931266     -1.71514598
C       0.89649031     -3.89145928     -2.74592936
C       1.91482911     -1.69811613     -0.80377232
C       0.12033352     -4.06473910     -1.43109407
N       2.51297505     -0.58172109     -0.19120684
N      -1.08189275     -4.80430960     -1.57829961
N       4.17967043      2.61023806      1.38498453
C      -0.48762158     -5.36602697     -3.86561789
C      -1.75644993     -5.10432307     -0.31552469
C       5.48258046      4.49345530      0.43993996
H      -4.59867811     -2.93451781      0.60892636
H       2.62873844      1.25628814      3.82058140
H       4.87773669      5.55457785     -2.55335930
H       3.42116632      6.65954257     -2.58340222
H       2.95783971      6.35007993     -0.21083748
H       3.05701832     -4.04820581     -3.05950421
H       0.13019380     -1.24838322      0.25259261
H      -0.89411555     -4.58291485     -4.52684218
H      -0.47088356     -6.31296679     -4.40812070
H      -0.99974880     -5.01579827      0.47205275
H      -2.14390210     -6.12698677     -0.38099069
H       6.22900137      4.17368809     -0.26833831
H       6.02306053      5.05496098      1.32048853
O      -4.72686617     -1.21566210     -3.40591946
H      -5.07652943     -1.96579895     -2.91613196
H      -4.65987219     -0.17257180     -2.06613252
O       0.90313883     -3.97248030      1.73013471
H       1.59125355     -3.40656709      1.37252427
H       0.28689923     -3.38718503      2.17613727
O      -2.60923470      0.97305603      3.44556248
H      -2.73808021      0.72586762      4.37956928
H      -1.67368271      0.78377206      3.26936568
O      -2.53397240     -0.25998692     -0.04049740
H      -2.86623629     -0.59786693      0.81732333
H      -1.91001712      0.53275286      0.17625565
O      -0.23914177     -2.82235783     -0.89860823
H      -1.65898055     -1.52806633     -2.51034281
H       0.36054345     -3.09146472     -3.30348492
O      -1.17325590      1.74065780      0.67556635
H      -0.41854538      2.09406771      0.18719071
H      -0.74952999      1.30781778      1.46925344
O      -1.42050532     -1.97774468      2.46203415
H      -1.31304350     -2.32748479      1.57159972
H      -2.37167289     -1.87229644      2.61350439
O       4.25900636      5.37626005      0.50904979
H       5.40087696      6.18808963      0.51423181
H       4.68317694      3.74736841      0.88597194
O       1.39415186      2.02840672      0.28932752
H       1.95033000      2.30282225     -0.44545975
H       1.47579441      2.70050852      0.97268068
O      -4.14539952     -0.70748774      2.05911704
H      -3.67886998      0.02901374      2.52404948
H      -4.94901738     -0.89645555      2.54063385
O       0.04272444      0.32364461      2.61524754
H      -0.44818761     -0.52416820      2.67529657
H       0.94290308      0.08253993      2.19961822
O       1.17103459      5.37326526     -1.43939797
H       2.03406892      5.48445972     -0.95804489
H       1.22605211      5.88736422     -2.24259577
O      -2.26772376     -0.84129395     -2.83279476
H      -1.80866775     -0.33911384     -3.50980459
H      -3.74479192     -1.21278917     -3.23126729
O      -4.62220329      0.31975345     -1.18805089
H      -4.79531005      1.24112797     -1.41605707
H      -3.47369349      0.11699803     -0.60802909
O      -2.61414965      0.33109138      6.04968982
H      -1.72397180      0.58876125      6.35852537
H      -2.99807543     -0.27781714      6.67926464
O       5.42615231      2.42444624     -2.61192218
H       5.07449635      2.08986611     -3.43788360
H       4.97266098      1.91344966     -1.91938793
O      -1.53587147      3.18849211      4.91635268
H      -2.43747226      3.19077608      5.24516902
H      -1.58473050      2.76155851      4.05238386
O      -2.49877505     -1.34240321     -5.68686583
H      -3.37259734     -1.14184487     -5.33898326
H      -2.56702180     -1.34355405     -6.64321470
O      -5.79129448      1.44461297     -3.36147975
H      -6.33987894      1.83614944     -4.04073737
H      -5.61928061      0.53004267     -3.62556483
O      -0.11301828      1.33518487      6.44356862
H       0.53947373      0.99628322      5.82798777
H      -0.46136227      2.15904174      6.05991557
