110
charge=0
O      -2.12495804      4.11615272      2.54187374
O       1.58502995      3.35837466      2.97823405
O      -2.45796060      2.43412060      1.26392938
O      -0.16131289      3.98834143      4.04742547
N       1.48063740     -1.93557714     -0.17606462
C       1.21046427     -0.83578677      0.45282476
C       1.72308089     -0.34132930      1.68197809
C       1.18706730      0.78908190      2.19111188
C      -0.36302944      1.07535962      0.31975002
C       0.13647350      1.52816737      1.53159745
C       0.15089386     -0.09448044     -0.21304724
C      -0.41558679      2.67251283      2.20454357
C      -1.47235106     -0.89708349     -1.85872780
C      -2.11719624     -2.06551859     -1.71012267
N      -0.19863716     -0.82031359     -1.27562196
N      -1.70960561      3.09198422      2.00840366
N       0.36262218      3.38367659      3.12657816
C      -2.05106045      0.30175378     -2.53368195
C      -3.50573851     -2.27503709     -2.22130401
C      -1.38644413     -3.22544441     -1.08304273
C      -3.15978753     -0.14178463     -3.48135565
C      -4.16255052     -0.98018225     -2.69767919
C       2.75072844     -2.90728330     -2.50137812
C       2.06226186     -4.27400495     -2.56440595
C       1.77205561     -1.73277885     -2.51813851
C       0.93093256     -4.40596748     -1.54257228
C       0.73148217     -1.94349002     -1.38220752
C      -0.01607313     -3.23572053     -1.75372533
H       2.48336668     -0.88639147      2.21238562
H       1.54085300      1.13662917      3.14724257
H      -1.11687121      1.61946450     -0.21487846
H      -2.47165846      0.98605732     -1.79437595
H      -1.25866460      0.82948955     -3.06372737
H      -4.10429336     -2.74354178     -1.43629010
H      -3.45136869     -2.98946925     -3.05084071
H      -1.91185862     -4.16023261     -1.27465159
H      -1.29915897     -3.10210671     -0.00111265
H      -3.63563599      0.73101573     -3.92457445
H      -2.73806755     -0.73676786     -4.29326195
H      -4.50124176     -0.40877169     -1.83323888
H      -5.03300694     -1.21572923     -3.31067536
H       3.42212165     -2.80538896     -3.35562445
H       3.35370890     -2.85215914     -1.59660130
H       2.80449509     -5.05282179     -2.39069620
H       1.64953529     -4.42311778     -3.56554314
H       2.30125821     -0.79277671     -2.35989648
H       1.23929896     -1.67531497     -3.46755668
H       0.40060708     -5.34503445     -1.70208955
H       1.31845742     -4.40315018     -0.52814762
H      -0.21772461     -3.18251724     -2.83101864
O       0.54845312     -3.28371440      3.29174280
H      -0.05926655     -2.60570000      2.95341660
H       0.47137426     -4.04060580      2.68265336
O      -1.91779623      0.80241883      3.91448858
H      -2.86031984      0.63299681      3.96515196
H      -1.71863714      1.34092263      4.71782826
O       0.30383334      3.90734662     -0.33336960
H       1.24508656      3.97314322     -0.08555503
H       0.07858859      4.71591329     -0.82483183
O      -1.63188863      2.53975891      5.91924540
H      -2.45567377      3.02562425      5.71579574
H      -0.93400149      3.12618535      5.59999252
O      -3.20086911      2.58235965     -5.32506102
H      -3.64959826      3.32747178     -5.72606787
H      -2.53407697      2.96553965     -4.72690969
O       3.07755100     -5.92146877      0.90474273
H       3.73226206     -6.36244340      1.44722501
H       3.35778720     -4.98045204      0.84211094
O       5.07280255     -1.03623815      1.40279543
H       4.93667436     -1.04626115      2.35351841
H       4.67766868     -1.86921511      1.07471794
O       0.51522344      2.17862071     -2.39760062
H       1.42031602      1.83736441     -2.38897170
H       0.43749727      2.75129326     -1.60290633
O      -1.18528304     -1.36374184      2.33167763
H      -1.90568921     -1.16900946      1.71074212
H      -1.28162272     -0.68572862      3.01999059
O      -2.92226540      3.75774563     -1.16147450
H      -2.92217337      3.26464018     -0.32760026
H      -2.56120188      4.62516425     -0.95651529
O      -0.57656667      5.85033170     -2.08609505
H      -0.91279867      5.16373322     -2.70504798
H      -0.04997684      6.45553407     -2.60808451
O       2.87969927      3.69156922      0.54718864
H       3.28630867      2.82273178      0.43240523
H       2.61309376      3.71890680      1.47787511
O       3.60167665     -3.28917126      0.99832511
H       2.82462164     -2.89356960      0.55435189
H       3.42934041     -3.16712986      1.95822936
O      -1.46591214      3.69577092     -3.46814251
H      -0.70742699      3.11631105     -3.26889779
H      -2.08751584      3.55969826     -2.72710138
O      -3.55994614      4.18815719      4.90918116
H      -3.13789104      4.22702061      4.03435955
H      -3.45609157      5.06584278      5.28053948
O       0.49132217     -5.47949239      1.63627711
H       0.10960281     -6.27497234      2.00826246
H       1.39718753     -5.71130353      1.34811076
O       4.37410581      1.27374880      0.25392113
H       4.55320814      0.39787131      0.66647302
H       5.21789543      1.73127537      0.25749946
O       3.14184488      1.20539773     -2.17589597
H       3.67309259      1.80482018     -2.70291940
H       3.53461420      1.20616051     -1.28152603
O       3.07156816     -2.66070100      3.53894214
H       2.09006834     -2.83424780      3.48670318
H       3.36306002     -3.08525797      4.34606209
O      -3.22594819     -0.22584638      0.84153869
H      -4.15310925     -0.25784919      1.08264153
H      -2.93840447      0.68838553      1.00159992
