76
charge=0
S      -1.48170357     -0.32653245     -0.94325434
S      -3.89334709     -1.75232510     -1.99185024
C      -1.60691715     -2.69877860     -3.79653347
C      -2.70639266      0.17443208      0.19937357
C      -3.91071441     -0.34681348      0.40908495
C      -1.25768227     -2.49239903     -2.54078862
C      -4.53372641     -1.49905600     -0.30236980
C      -2.14969538     -1.94704555     -1.48577409
H      -0.90964851     -3.08831252     -4.51636528
H      -2.60108296     -2.48611320     -4.15136135
H      -2.38216604      1.02976555      0.76827719
H      -4.52897428      0.09518206      1.17780692
H      -0.25315603     -2.69182802     -2.19039242
H      -5.60452666     -1.33346050     -0.42421287
H      -4.38931811     -2.43292219      0.24839794
H      -2.13652111     -2.57311591     -0.59188896
O      -0.10679588      1.69750284      3.32568809
H      -0.15077029      2.04235087      4.21880506
H       0.83353330      1.90704718      3.01160892
O       1.84393071     -1.83176209     -1.48276330
H       2.39891367     -1.03810700     -1.51502970
H       2.21328223     -2.37853014     -0.78085240
O      -1.38394209      3.09003670      1.38885824
H      -1.86871541      3.81370242      1.78732748
H      -0.99914329      2.56449943      2.12450578
O      -0.43031197     -2.88286514      4.30121274
H      -0.30139143     -3.35458328      5.12361787
H       0.46763022     -2.68775575      3.94704702
O      -1.46899656     -2.31371504      1.62010508
H      -1.92017236     -1.68218467      2.21175357
H      -1.11894578     -2.98623614      2.21333070
O       1.12192119      3.47462485      0.23177484
H       0.21120328      3.44376922      0.56759163
H       1.16573768      2.79936495     -0.46209215
O       3.30623850      0.62107499     -1.60826912
H       3.76607065      0.60906398     -2.44825211
H       2.48958153      1.15192738     -1.74429132
O       2.22172042      2.31225042      2.40755479
H       2.69722367      1.54474794      2.04156165
H       1.98015168      2.86366119      1.63381864
O       3.39307243     -2.68070487      0.90369544
H       4.22982248     -3.01610656      1.23197795
H       3.46781397     -1.70798680      0.96289653
O       0.51784924      4.50361671     -2.52077900
H      -0.41354824      4.28549851     -2.37235743
H       0.87896384      4.73077117     -1.65659983
O      -1.90705635     -0.59148274      3.69288970
H      -1.43747606     -1.32691883      4.12157286
H      -1.28921383      0.14796385      3.65738423
O       0.52751054     -0.48411048      1.53057012
H      -0.15848058     -1.14348759      1.29336192
H       0.07353806      0.24202798      1.96924312
O      -3.21991243      1.37462545     -3.22275630
H      -2.72037843      1.95049655     -2.61621046
H      -3.52960892      0.62186494     -2.70658168
O       0.97790195      1.87782361     -2.05005306
H       1.01546274      2.71073617     -2.55677918
H       0.85600144      1.13576527     -2.71036057
O       1.87127235     -2.16858037      3.15336616
H       1.43173485     -1.44555078      2.65870965
H       2.29407674     -2.69394221      2.45269690
O       0.89082232     -0.10933166     -3.69575081
H       0.02163377     -0.11644644     -4.14965621
H       0.93552564     -0.90309844     -3.15023474
O      -1.49334228      0.17599899     -4.89352256
H      -2.14857099      0.61144961     -4.30116209
H      -1.50483923      0.67474968     -5.71104765
O      -1.57598348      2.84206843     -1.51106295
H      -1.72613375      2.87131898     -0.55968733
H      -0.78663994      2.28404000     -1.64082901
O       3.11852843      0.09170423      1.03562618
H       3.34421777      0.36003577      0.13107627
H       2.16629478     -0.12501733      1.01999062
O       4.57916119     -1.22665847      3.20047890
H       3.71428444     -1.52760810      3.51075849
H       4.39872105     -0.47496623      2.62773402
