97
charge=0
N      -0.47836203      2.09561212      0.66712931
C       1.37626556      5.01533047      1.93730923
C       2.40096576      5.03592089      0.98421256
C       0.37022530      4.07402310      1.89983810
C       2.43465754      4.12030143     -0.04245369
C       1.71226045      1.52347824     -2.12687881
C       0.39600502      3.12703525      0.87555034
C       1.42814308      3.15972698     -0.10926718
C       1.12873268      2.08261945     -0.98826287
C      -2.41854108     -1.26477661     -1.33692002
C      -1.76203923     -1.74644595     -2.49258395
C      -1.85174036     -0.20200669     -0.67858330
C      -0.05896560      1.48921671     -0.46182007
C       1.11906763      0.44027305     -2.70261894
C      -0.59957533     -1.14979177     -2.88729450
C      -0.66129086      0.39076371     -1.11561223
N      -0.04070289     -0.10276466     -2.23166835
C      -3.65098566     -1.92316694     -0.80283547
C      -2.32362979     -2.88090536     -3.29790857
C      -4.34294023     -2.79457859     -1.84446550
C      -3.31458548     -3.71416684     -2.49225782
H       1.37743889      5.76098891      2.71997730
H       3.16983525      5.79054768      1.05735127
H      -0.42741050      4.07758030      2.62658387
H       3.21954823      4.14510907     -0.78469463
H       2.61930496      1.92542038     -2.54898377
H      -2.31233095      0.20207803      0.20755882
H       1.53357039     -0.03115056     -3.57334229
H      -0.06733980     -1.50106147     -3.75730811
H      -3.34571272     -2.55367756      0.03728806
H      -4.33397200     -1.16881855     -0.40863815
H      -1.50836135     -3.50443817     -3.66772134
H      -2.83157999     -2.45706895     -4.16990602
H      -4.80484495     -2.16717211     -2.61006885
H      -5.13060637     -3.37842015     -1.36662015
H      -3.80350120     -4.43696868     -3.14698706
H      -2.78328217     -4.26487723     -1.71430247
O       2.31396492     -3.05246124     -2.21825071
H       1.94308624     -2.91001190     -3.09933674
H       1.57459267     -2.95336661     -1.59033704
O       3.74215660     -0.46885463     -4.55890739
H       3.87749672     -0.58447871     -3.57994862
H       4.61866686     -0.52126887     -4.94228563
O      -3.60506413      4.26554960      2.82122871
H      -3.30438113      3.34062842      2.73719686
H      -3.73268443      4.59043902      1.92919358
O      -1.02135587      2.34662202      4.84685276
H      -1.55518246      2.10321527      4.06525092
H      -1.25335879      3.26936898      5.02830048
O       1.32177559      0.10406053     -6.19031702
H       2.16356154      0.33823270     -5.78249268
H       1.22904627     -0.84820397     -6.05179107
O       0.33265073     -2.52534815     -0.44677130
H      -0.37118572     -2.99937969      0.01010741
H       0.92623848     -2.19197881      0.25752871
O       1.93728243     -1.51899932      1.46900233
H       1.37588641     -0.84391677      1.90800326
H       2.61740782     -1.00953496      0.99723942
O      -2.06991340     -0.93643949      2.56237293
H      -1.88026389     -1.67856832      1.95830487
H      -1.19415957     -0.57729771      2.78787397
O       1.49204274      2.25436938      4.11981217
H       1.54082466      3.06932233      3.60724089
H       0.59443782      2.28694959      4.55244593
O       0.36123531      0.30054678      2.61344482
H       0.81039009      0.88727025      3.25238716
H       0.04342152      0.89609822      1.90501721
O       1.90305019     -2.40422765     -4.97653883
H       2.29753351     -3.18408735     -5.36913546
H       2.63747596     -1.76890216     -4.81715848
O      -1.53184827     -3.42346776      1.50914979
H      -2.27714551     -3.71485081      2.05426418
H      -0.74440857     -3.52732648      2.08290467
O       0.63782767     -3.25797087      3.14739235
H       0.46479815     -2.57869708      3.80285808
H       1.27722205     -2.87139601      2.52751540
O      -3.50828658     -3.16255854      3.48813639
H      -3.46962892     -3.31196479      4.43339240
H      -3.21927912     -2.24761873      3.33880763
O      -0.90845443      1.03575412     -4.81969806
H      -0.13450540      0.76639177     -5.34760873
H      -1.42451138      1.60712794     -5.38933627
O       3.79295323      1.13861744      3.00873267
H       3.01614574      1.50844571      3.45815925
H       4.25837180      0.61139864      3.65904190
O       3.51707791      0.43968032      0.38549303
H       3.01021554      1.18667939      0.05099112
H       3.78409750      0.69033573      1.28983397
O       4.09500797     -1.04294832     -2.02687120
H       3.96566792     -0.55004053     -1.20740881
H       3.51620901     -1.83588175     -1.97255741
O      -2.43851544      1.83433821      2.50749832
H      -1.77824281      1.98516892      1.78313328
H      -2.59129675      0.87884036      2.53925213
O      -1.77483545      5.01116579      4.70230033
H      -2.52203503      4.82535726      4.10146389
H      -1.55696320      5.93654858      4.58994858
