108
charge=0
O       2.40182253     -0.23841012      1.89475850
O       2.44150455      0.60290737      4.18545582
O       0.59550736      1.09099718      2.73286371
C       0.19584320      2.16468544     -1.64980221
C      -3.09546553      0.74702592     -0.70818404
C      -4.00166542     -0.27811245     -0.89012991
C      -1.00052176      1.93819936     -0.97756617
C      -1.98503016      1.10467361     -1.46715936
N      -4.12109738     -1.18767943     -1.85700347
N       1.30046782      2.63117295     -1.09970680
C      -2.01276290     -2.02259495     -2.79981295
C       0.44222100      1.89635247     -3.10694031
C      -5.05794193     -0.54160269      0.14770112
C      -3.34176729     -1.31929999     -3.06270047
C      -5.11147080     -2.20542936     -1.55790079
C       2.38562931      2.80665947     -2.04527091
C       1.50374435      2.84212331      0.30887783
C      -5.39940677     -2.01440269     -0.07030668
C       1.68484689      2.74248580     -3.40242764
C       2.90102934      2.41744829      0.76668137
C       2.93772566      2.32123895      2.27352590
S       2.05831204      0.85173355      2.80311276
H      -3.21814242      1.27660696      0.22578490
H      -1.12475256      2.33737308      0.01620578
H      -1.81741383      0.66508227     -2.43534926
H      -1.40927919     -2.02438028     -3.70092731
H      -1.46563902     -1.52128907     -2.00746060
H      -2.19203457     -3.04754643     -2.49507603
H      -0.40806387      2.16010847     -3.73197868
H       0.65377372      0.83306954     -3.24012581
H      -5.92032109      0.09832256     -0.05871925
H      -4.70590331     -0.31411535      1.15117338
H      -3.93236839     -1.90308351     -3.77345771
H      -3.18809363     -0.32949738     -3.49866433
H      -4.70519863     -3.19413295     -1.77689344
H      -6.00469552     -2.04421517     -2.17494003
H       3.10606407      1.99023875     -1.93419043
H       2.89231790      3.75402003     -1.85583325
H       0.77074434      2.24628927      0.85005560
H       1.35554112      3.90039972      0.54626796
H      -4.72205027     -2.64015314      0.50921536
H      -6.42419985     -2.26125269      0.19419569
H       1.38858682      3.74190610     -3.72245693
H       2.31565150      2.30679182     -4.17272699
H       3.63993659      3.13826521      0.41440502
H       3.14377974      1.43506919      0.35975139
H       2.47246534      3.16774575      2.76517597
H       3.93897212      2.16676977      2.65877521
O       1.83875553     -3.27506135     -0.61496280
H       1.82055602     -2.58122792     -1.30884441
H       1.03907161     -3.12607709     -0.07981761
O       1.77912817      5.94875902      1.53435225
H       1.33470216      5.45147545      2.25646292
H       1.40120511      6.82836190      1.56355873
O      -1.47883060      2.77455701      2.51875166
H      -2.25214815      2.19958187      2.37045846
H      -0.72002137      2.16790043      2.57059068
O       0.41454020      4.62488846      3.41553467
H      -0.34964806      4.14808186      3.06192843
H       0.77734088      4.06355102      4.12333542
O       3.64844653      5.36082993     -0.44482650
H       2.98104011      5.54131884      0.23899832
H       4.34901963      5.99756158     -0.29937126
O       1.33945145      2.79227781      5.25676196
H       0.63156628      2.45831139      5.81386695
H       1.83371603      2.00759903      4.94509836
O       1.36847396     -5.56548740     -1.88733997
H       2.06311916     -6.18264615     -1.65875720
H       1.56725106     -4.72994666     -1.40166988
O      -2.66570383     -4.20322772     -0.14886676
H      -2.24846431     -4.71076394     -0.88792641
H      -2.83937022     -4.85012440      0.53643522
O       4.21999530     -0.08825707     -1.51994440
H       5.07675471     -0.22271111     -1.92531033
H       4.19194631     -0.71057426     -0.74203343
O      -0.56213403     -2.67661043      0.62939308
H      -1.35299767     -3.15473870      0.30575685
H      -0.81767612     -2.25903552      1.46855829
O      -1.13439016     -0.99596307      2.71644258
H      -0.49518058     -0.28826471      2.49969050
H      -1.05493288     -1.10270004      3.67255502
O      -2.45155170      1.74559643      5.04409176
H      -1.72908899      1.13835309      5.25721402
H      -2.07268990      2.42050262      4.46353245
O      -3.32707742      0.71480811      2.63668331
H      -2.65139179      0.01855800      2.56147609
H      -3.33172944      0.96889590      3.57683291
O      -1.43422741     -5.60501813     -2.03390974
H      -1.29404375     -5.25236240     -2.93121958
H      -0.53007565     -5.78392142     -1.73464010
O       3.99121591     -1.82833846      0.44459388
H       3.51889836     -1.29929895      1.11093500
H       3.34117938     -2.48859368      0.14669623
O      -0.08013578     -4.63116852     -4.20046413
H       0.61366225     -4.96210047     -3.61439897
H       0.12189365     -3.69422936     -4.35473948
O       0.59850743     -0.31964656     -0.08422423
H       1.26302227     -0.27434428      0.63213108
H       0.06208748     -1.10684332      0.11989568
O       0.75013047     -1.97331190     -4.56922497
H       1.48194535     -1.99828292     -5.18707435
H       1.11777097     -1.66554753     -3.71652768
O       1.82860695     -1.10577847     -2.25061185
H       1.30566505     -0.71117221     -1.50542135
H       2.71918847     -0.71835613     -2.14762656
O      -0.16887677      0.12190507      5.15345831
H       0.16939730      0.53899883      4.33675818
H       0.61952134     -0.18699067      5.60596009
