70
charge=0
Cl      0.58429160      4.37410565      1.78414641
Cl     -1.25714380     -0.18626181     -0.41174365
C      -1.09303961      1.08092352      3.20302790
C      -0.54853519      2.22146481      3.11099065
C      -1.39774705      0.18047033      2.23369007
C      -0.12907651      2.82014064      1.96064734
C      -0.37000525      1.97692504      0.86310842
C      -0.97948605      0.72956383      1.00485290
H      -1.87091126     -0.77745894      2.33404031
H      -0.06578179      2.30351499     -0.11827086
O      -1.39549868      4.47091124     -1.03766255
H      -1.24442330      4.62896227     -0.10238444
H      -2.04694178      3.75106700     -1.10453278
O       3.03186226      3.87302272     -0.67388664
H       2.99677314      3.30014288      0.12168725
H       3.85627636      3.64848033     -1.10938016
O       1.64855659     -0.58120373      0.67268753
H       1.67826810     -0.09908304     -0.18148939
H       1.14643600     -1.40142563      0.47096093
O      -0.48513276     -2.81421293     -2.54098875
H      -0.02782606     -3.46678790     -3.07359702
H      -0.24122290     -1.93252331     -2.89987979
O      -4.02877009      0.83095156      0.65105375
H      -4.84455486      1.01744613      1.11573739
H      -3.98522367     -0.15452427      0.56436645
O       2.49137325     -3.66646994      1.72588250
H       3.24259105     -3.17759998      1.35391344
H       1.78429757     -3.60004494      1.06565924
O       3.18382801      1.92209885      1.20013672
H       3.78786650      1.48966210      0.55805256
H       2.45046627      1.31229804      1.32085086
O      -1.87064125     -3.28781908      1.59228810
H      -2.13299112     -4.20813178      1.63704277
H      -1.55001639     -3.04169489      2.49713643
O       0.37540134     -2.89295328      0.08661224
H       0.07779912     -2.85334867     -0.83779548
H      -0.43941422     -2.98805452      0.61617427
O       1.48632381     -1.71189637      3.29621752
H       1.88926735     -2.49791821      2.86143549
H       1.43079196     -1.04007801      2.60742465
O       0.80012540      3.17856941     -1.97750673
H       1.61853338      3.56217770     -1.59353442
H       0.08584447      3.79120314     -1.70900251
O       1.84330255      0.63533574     -1.72160288
H       1.49154149      1.54216335     -1.77634917
H       1.35751036      0.12707938     -2.39170232
O       4.12031796     -1.53857471      0.89404747
H       3.20922648     -1.15300012      0.85481697
H       4.50948065     -1.21685396      1.70922721
O      -3.10915183      2.30804992     -1.38317559
H      -3.37975608      1.74739622     -0.62173556
H      -3.91269359      2.52036480     -1.86052401
O       4.47625382      0.65419173     -0.81977841
H       4.58783355     -0.22691263     -0.43048504
H       3.65061176      0.61812376     -1.32929527
O       0.22712416     -0.48712865     -3.64565080
H      -0.39843552      0.27686937     -3.47750823
H       0.47279917     -0.42095737     -4.56934627
O      -3.23084159     -2.47846837     -2.15812176
H      -3.59246870     -2.73442531     -3.00651105
H      -2.26843763     -2.59325739     -2.21087334
O      -1.15491730      1.67196768     -3.27729060
H      -1.84620675      1.75347049     -2.59890741
H      -0.45453507      2.28385880     -3.00200533
O      -0.89834552     -2.62912696      3.94766140
H      -0.73129918     -3.25521715      4.65266703
H      -0.02236053     -2.20591909      3.75045548
O      -3.97246753     -1.81869393      0.42977247
H      -3.24484185     -2.27123030      0.88596738
H      -3.83196646     -2.01331496     -0.50983690
