74
charge=0
O      -2.00852470      0.81426110     -2.76993045
Cl      2.08114759      0.96555260     -3.44568751
Cl      2.07112748     -1.76676786     -4.41439013
Cl     -0.97515451     -2.10178428     -4.03523857
Cl     -0.38944158      0.47254162     -5.27619136
S       1.09268708     -1.15260277     -1.61376071
C      -0.96614324      0.16681700     -2.62670622
N      -0.36045191     -0.14611446     -1.49671519
C      -0.83389713      0.23129169     -0.18693435
C       1.23097485     -0.64609576     -3.36868439
C      -0.21210860     -0.44372948     -3.78904341
H      -0.17115883      0.97533632      0.25684348
H      -0.88806613     -0.65286481      0.44662339
H      -1.82968679      0.64921500     -0.29481750
O       1.95744993     -0.32352152      1.48375515
H       1.27395668     -0.75218623      2.01271515
H       1.71918824     -0.39202350      0.55838287
O      -4.12618221     -0.12191262      0.77837977
H      -3.56136284     -0.68999027      0.20856956
H      -3.87080214     -0.31452838      1.68778486
O      -2.73787323     -1.91708403     -0.65101735
H      -3.26076528     -2.14442842     -1.42194606
H      -2.37585398     -2.77447081     -0.31850104
O       2.94717335     -2.26732182     -1.55660482
H       3.37813653     -2.05792831     -0.68427906
H       3.58874908     -1.96923257     -2.22529349
O      -1.62083260     -4.21287549      0.07275337
H      -0.65379746     -4.10485814      0.18329075
H      -1.91787919     -4.73691714      0.81735593
O      -1.42077026      1.76118251      4.19206415
H      -2.99661786      2.72611565      1.01109748
H      -0.60376352      1.86149648      4.67252642
O       2.16352334      4.49626087      2.37999667
H       2.49496135      3.68604915      1.96449244
H       2.19326733      5.18056980      1.71039321
O      -3.75963815      2.40369401      0.51657088
H      -3.95679528      1.40999118      0.58355561
H      -3.19823498      2.61579159     -0.74342834
O       4.53401808      1.01270380     -0.66672597
H       4.27465903      0.85598469     -1.58162204
H       3.91774060      1.64308258     -0.28283995
O      -5.14975777      3.34805675     -2.49052138
H      -5.48665533      2.82831823     -3.22185752
H      -5.67115655      3.10168993     -1.69443995
O       1.01913970     -3.69514467      0.38353875
H       1.29297714     -3.29326991     -0.44568345
H       1.01823191     -3.02536362      1.07450740
O      -6.46277094      2.40350242     -0.31005350
H      -6.33658121      1.44975847     -0.30972050
H      -5.94610424      2.74089896      0.43064935
O       4.18589701     -1.33829087      0.62663539
H       3.47594504     -1.19083853      1.26520622
H       4.33538049     -0.47068418      0.20946957
O      -2.76388957      2.95660104     -1.68031267
H      -3.62143355      3.31284179     -2.09760956
H      -2.53644601      2.08735816     -2.15567955
O       4.94580704     -1.22558063     -2.93059768
H       5.66881088     -1.28540020     -2.27571631
H       5.32071575     -1.44307968     -3.78504293
O      -0.25199707     -2.90842438      2.49363464
H      -1.00807850     -2.52223763      3.00897906
H       0.15532031     -3.52415696      3.10452262
O       6.74762405     -1.34104662     -0.93488291
H       6.24435075     -1.84911301     -0.28863091
H       6.68258685     -0.42076337     -0.65940350
O      -2.29501170     -2.29776404      4.02753699
H      -2.41516550     -1.34165363      4.37918410
H      -2.33698043     -2.83967300      4.81372654
O       3.29209681      2.09838487      1.38384761
H       2.73337012      1.32289105      1.56912818
H       4.01168629      2.06443679      2.01717473
O      -2.76084182     -0.03912225      4.93071084
H      -2.05147562      0.80202539      4.51769162
H      -3.66304010      0.23169839      4.76204934
