73
charge=0
N      -4.65737547     -3.44978962      0.51051898
N       1.24842773     -1.28299848      1.45427758
F      -2.24544754     -3.51296239     -1.75629758
F      -2.67286890     -1.43028991     -1.35681587
F       0.51158591     -3.55496785     -0.86821004
F      -0.18988665     -1.66857634     -1.66020071
F      -1.26207763     -3.73776686      0.90649560
F      -1.56722603     -1.61656711      1.13509259
C      -3.76374874     -3.04873089     -0.07163282
C       0.99483472     -1.63601503      0.37465200
C      -2.54241564     -2.63322305     -0.77102330
C       0.02597504     -2.34209194     -0.51129893
C      -1.33657003     -2.57737156      0.22192302
O       2.25784980     -1.32210766     -0.93102558
H       3.13481283     -1.22118570     -0.48401756
H       2.01080229     -0.40896860     -1.32816614
O      -2.00076665      1.07118030      0.33343085
H      -2.77790720      0.49973251      0.46185315
H      -2.33567970      1.99532894      0.33385643
O      -4.29069103     -0.37965188      0.51122606
H      -4.97883364     -0.29549352      1.17225760
H      -4.69061208     -0.15586129     -0.35459514
O      -0.31801916      3.99851145     -1.45323096
H       0.40528243      3.65305202     -0.89198298
H       0.07674137      4.62384640     -2.06129251
O      -3.36150949      0.80854140     -3.53053595
H      -3.21328373     -0.04624362     -3.98295972
H      -2.51887468      1.00790636     -3.07979776
O      -2.95900851     -1.75571951     -4.35970582
H      -2.09147440     -2.01069337     -4.03898552
H      -3.60410649     -2.15216254     -3.74769738
O      -4.88377401     -2.48865017     -2.48132046
H      -5.69751203     -2.91930802     -2.74612148
H      -5.10758502     -1.56011871     -2.27215306
O      -5.29179309      0.16699220     -1.94570875
H      -6.00592213      0.76666118     -2.16480337
H      -4.51232114      0.45013897     -2.52493251
O       2.79622197     -2.78078393      3.35620589
H       2.08049817     -2.35137160      2.86928067
H       3.26149306     -2.06272876      3.82069618
O       1.59168156      0.98369778     -1.79709242
H       1.61505222      1.62119381     -1.05602309
H       0.65845711      0.97437014     -2.09593427
O       5.23941959      0.48284702      2.22749304
H       4.91910593      0.06206978      3.04142508
H       5.06575111     -0.15356489      1.51062482
O       1.81507243      0.78549661      3.18100397
H       2.38185989      1.42714188      2.70729269
H       1.63230809      0.06430956      2.54935667
O      -2.29361607      3.73531223      0.51878392
H      -1.71867524      3.98976247     -0.21927332
H      -1.73101812      3.72141971      1.30051886
O       1.44670815      2.80581258      0.21825176
H       2.29387003      2.82811573      0.68800359
H       0.77182451      2.60898026      0.91551070
O      -0.30818493      2.21091351      2.12007069
H      -0.88757063      1.58599301      1.64412363
H       0.23395638      1.68539067      2.72974884
O       3.79692268     -0.45402357      4.43325307
H       3.84018699     -0.30988399      5.37838729
H       3.00683501      0.04042068      4.09756034
O       4.67134333     -1.31430767      0.22820960
H       4.58273798     -2.20184310      0.67633718
H       5.37781511     -1.40445005     -0.41344302
O       4.30535470     -3.63960187      1.35653195
H       3.73719942     -4.22624784      0.85391605
H       3.80340084     -3.40972612      2.17774820
O       3.57513873      2.46912472      1.93956444
H       4.27243290      1.75491646      1.96307354
H       3.94478861      3.21641374      2.41057244
O      -1.05914683      1.38686217     -2.14797540
H      -0.94792410      2.34970450     -2.09137645
H      -1.38662505      1.11672855     -1.26190981
