106
charge=0
O      -2.46639949      0.78437746     -0.11295465
O      -0.15532573      1.09971625     -0.99871261
C       1.21395594     -0.71124441     -1.67785400
C       0.45179679     -1.81996483     -1.00978731
C       1.60232483     -1.46685507     -2.72403857
C      -1.01598842     -1.50638476     -0.71714487
C       4.00437876     -0.92831481     -6.16525271
C      -3.59339503     -1.71400368     -4.14418560
C       0.62729070      1.06714769      4.12285109
C       3.18640811     -2.04069060     -6.04851552
C       4.04354112      0.00668530     -5.14269750
C      -3.82364839     -2.51403220     -3.03668487
C      -2.52725155     -0.82839569     -4.13592314
C       0.63534799      2.05477336      3.14635831
C       0.10477206     -0.18357933      3.85568748
C       2.40849789     -2.21598135     -4.92094525
C       3.26810012     -0.16287027     -4.01267775
C      -2.99376930     -2.42920836     -1.93322097
C      -1.69791287     -0.74584461     -3.03092453
C       0.14746458      1.77025522      1.88109008
C      -0.42611670     -0.45998302      2.59646995
C       2.43268566     -1.27616154     -3.88796727
C      -1.91652479     -1.54928254     -1.91647175
C      -0.37550251      0.51578158      1.60694257
C       1.21698211      0.67921636     -1.18124169
C       0.84597684     -2.68823750     -2.23916890
P      -1.09263658      0.21913345     -0.03370135
H       4.61355605     -0.79315229     -7.04664887
H      -4.23688699     -1.78186309     -5.00896952
H       1.03857820      1.27141391      5.09940873
H       3.15776168     -2.77443308     -6.84104559
H       4.68772276      0.86993365     -5.22714796
H      -4.65216430     -3.20534199     -3.03184993
H      -2.33818311     -0.20168008     -4.99552548
H       1.03447885      3.03371832      3.36732574
H       0.12172886     -0.95253371      4.61086774
H       1.76935401     -3.08183061     -4.83139320
H       3.31760977      0.55425977     -3.20792229
H      -3.18321875     -3.05589666     -1.07552056
H      -0.86277361     -0.06548216     -3.04980258
H       0.17692738      2.51323323      1.09938989
H      -0.52120449     -2.40910119      2.74602837
H       1.66409527      1.40357149     -1.86348304
H       1.73987891      0.71428506     -0.21741683
H       1.45601069     -3.55829853     -2.00448292
H       0.00867284     -2.98370934     -2.86776132
O      -5.00426172      0.55366746     -2.21930276
H      -4.63157093      0.12722870     -2.99440924
H      -4.57971461      1.42329072     -2.14506475
O       4.33982637     -2.53616597      4.14746802
H       4.15490122     -0.43573668      1.98438095
H       4.35564692     -3.26694952      3.52194929
O       3.41242492      2.34963375      1.09634134
H       3.01905947      2.83259970      1.82360989
H       3.19645612      1.34962639      1.29623819
O       0.50433417     -3.42018570      3.19794308
H       0.92007355     -3.12337771      4.03169785
H       1.17693533     -3.20378685      2.50443531
O       2.21552691     -2.51137395      1.40649722
H       0.93753368     -2.16475009     -0.09351374
H       3.08706886     -2.93206901      1.33515983
O      -5.06895460     -1.06315191     -0.00928999
H      -5.98227312     -0.88960656      0.22576866
H      -4.89617128     -0.49503783     -0.78497734
O      -0.79680471      3.17991393     -2.98370311
H      -0.41378980      3.11579738     -2.09479870
H      -0.32877665      2.54782492     -3.53027151
O      -2.54078563      2.72921781      2.96107314
H      -1.62049147      2.50754736      3.12766194
H      -2.56714641      3.17737836      2.08248764
O       1.92331852     -2.44109856      5.30109853
H       2.80140573     -2.38747985      4.85594863
H       2.07544194     -2.93146586      6.10951276
O      -4.88903197      1.84048582      0.61112991
H      -4.09867870      1.39043786      0.25552966
H      -4.72987361      2.78241687      0.50406634
O      -1.03334748     -1.62418962      2.29521600
H      -1.40553163     -2.19504873      0.03253888
H      -2.79862672     -1.39615030      2.24223445
O      -3.75657628     -1.23078832      2.30515657
H      -4.12227870      0.05510405      2.76324844
H      -4.13613454     -1.27278544      1.39662559
O       0.12818898      4.27516185     -0.49657965
H      -0.07238232      4.93654146     -1.16254290
H       1.05134603      3.98535967     -0.67678029
O       2.84965609     -0.01811802      1.70690252
H       2.41753970     -1.53209154      1.49732468
H       2.49618047      0.10699091      2.58702817
O      -4.45391611      1.05810052      2.95868214
H      -4.80351045      1.38351280      2.04095129
H      -3.65027390      1.66771428      3.10547505
O      -3.22329509      2.69688884     -1.82479517
H      -2.50516191      2.98473888     -2.41444015
H      -2.86536224      1.92416791     -1.34402106
O      -2.50203158      3.89554442      0.54961963
H      -2.83717101      3.56985494     -0.30903521
H      -1.56923491      4.08957404      0.38388470
O       5.14560937     -0.77384248      2.24101869
H       4.69927112     -1.78507153      3.63952738
H       5.72682117     -0.05678176      1.99328725
O       4.90990897     -3.23063215      1.25073949
H       5.23319370     -3.26934760      0.35073743
H       5.09722655     -2.31429973      1.57014877
O       2.61096177      3.47842431     -1.11492416
H       3.29892921      4.12428587     -1.27966668
H       2.91773723      2.97532245     -0.30861054
