66
charge=0
F      -0.56871217      1.87705958     -0.25605826
F      -0.33514729      0.65517703     -2.50565354
F       1.84670580     -1.10965231     -0.37345074
F       0.01087222     -1.66613734     -1.86015347
S      -0.52789713      0.11265759      0.18387632
S       0.81010918     -0.21615864     -1.43676533
O      -3.69816794     -0.08871945      1.55270858
H      -3.67678615     -0.72033664      0.80939034
H      -3.62115071      0.79089288      1.11719215
O       0.89842715     -0.45484967      3.09273439
H       1.31965999     -1.31101896      2.97158557
H      -0.05386705     -0.60714224      2.96107882
O       2.96859137     -0.44447010     -2.60606065
H       3.47141857     -0.20083700     -1.82541081
H       3.02385191     -1.42498831     -2.68237175
O       0.25028682     -0.53097649     -4.99450714
H      -0.34743204     -0.35595836     -4.26378642
H       0.90204878      0.19563052     -4.97255363
O       1.34572279     -4.09951220     -0.77716260
H       0.53970454     -3.64672397     -1.04216204
H       2.01380256     -3.78712778     -1.40712074
O       2.97357611     -3.10264599     -2.84517458
H       3.72480313     -3.59241389     -3.18443089
H       2.28620780     -3.11288921     -3.56149695
O       1.93970152      1.34054180     -0.80652882
H       2.03822899      1.49732257      0.21640503
H       1.63204625      2.17488445     -1.23762778
O       1.71110778     -2.91248730      1.58527619
H       2.36957941     -2.28481640      1.27148776
H       1.64562108     -3.56823424      0.85270066
O      -3.13362953      1.52928068      3.88423175
H      -3.55782491      0.95316049      3.23841469
H      -3.13476956      2.41382721      3.48455554
O      -0.16218064      3.10165209      2.26744021
H      -0.23567679      2.60506233      3.12820585
H      -0.44441084      2.49377782      1.57370192
O      -2.67972700      3.95745716      2.53457638
H      -2.79792276      4.79928842      2.97379961
H      -1.70747946      3.80684482      2.45666561
O      -3.13941704     -1.59614581     -0.67908073
H      -2.23410707     -1.88656481     -0.51941534
H      -3.09001511     -0.97314336     -1.40738306
O       2.09333211      1.64675664      1.71540797
H       1.74196761      0.85838413      2.17371149
H       1.48522817      2.37194055      1.95583688
O       2.05459467      1.44829676     -4.41770684
H       2.54124713      0.86182411     -3.82279555
H       1.74148606      2.18659617     -3.88663998
O      -3.35305733      2.29909235      0.39033021
H      -3.24709750      2.97564992      1.07550962
H      -2.48908693      2.18284121     -0.01661421
O      -0.47277157      1.68971082      4.44722369
H       0.02387120      0.87621332      4.30933076
H      -1.42537438      1.47869644      4.37697226
O      -0.57811760     -1.90100548      0.73653880
H      -1.11639793     -1.80912660      1.55949778
H       0.32119015     -2.23356432      1.02972669
O      -1.77741204     -1.15145499      2.95924892
H      -2.48339181     -0.65823395      2.45319228
H      -2.22015846     -1.56136326      3.70310235
O       0.77865200      3.19603261     -2.32778155
H       0.07836118      2.54922082     -2.49150558
H       0.37253017      3.89819907     -1.81412580
O       1.28405817     -2.96988728     -4.84301363
H       0.85210438     -2.08180500     -4.85548806
H       1.50547371     -3.16309751     -5.75482795
