96
charge=0
F       1.21991262     -2.46091013      2.07387354
F      -0.05857150     -2.42553967      3.79045522
F      -0.40510327     -3.83666875      2.20521987
F       3.97374074     -0.63898466     -3.39292249
F       3.26172647      1.02793194     -4.53194602
F       3.99853415     -0.72581728     -5.53287546
F      -3.54286327      2.19035785      1.92919322
F      -5.00338361      0.61760089      1.91727659
F      -3.70720238      0.88078477      3.61217339
N      -1.20469182     -0.73034511     -1.60900495
N      -0.74781434     -1.54478251      0.45066894
O      -1.56152169      0.05952336     -3.70599264
C      -1.91552135      0.00476664     -2.42326434
C      -0.96007520     -1.58488379      1.74078373
C       0.47218475     -2.82635863     -4.72680083
C      -0.62519693     -2.06528939     -4.36579870
C       1.73256492     -2.25799743     -4.77561647
C       0.79846650     -0.13650642     -4.10204540
C      -3.05039436      0.75082206     -2.00348387
C      -1.91750848     -0.80937064      2.40817547
C      -0.45230669     -0.72574309     -4.05881363
C       1.88509591     -0.91437896     -4.46937422
C      -3.37816064      0.75522410     -0.68359753
C      -2.73107690     -0.00900615      1.63445867
C      -1.52381147     -0.76352114     -0.30631312
C      -2.59510722      0.00558991      0.23325079
C      -0.06250795     -2.56594990      2.46495391
C       3.25806104     -0.30882219     -4.50142994
C      -3.74253111      0.90162636      2.28527203
H       0.34372061     -3.86917489     -4.96832378
H      -1.61203392     -2.49941288     -4.32332307
H       2.59089807     -2.84798373     -5.05494627
H       0.91666471      0.91028957     -3.87602765
H      -3.60402495      1.31364975     -2.73636645
H      -1.99262044     -0.81200379      3.48547746
H      -4.22055016      1.33173321     -0.33606829
O       1.16475663      0.53648661     -6.89299675
H       1.41026423      0.83394350     -7.77039236
H       0.48435671      1.16457220     -6.58164767
O       1.58748870     -0.58172516     -1.23071076
H       1.68357876     -0.45062547     -0.25996015
H       0.64505099     -0.76231052     -1.37297304
O      -2.76577756     -3.47284304      3.50768153
H      -3.54501031     -2.87552821      3.49665270
H      -3.07428720     -4.34565107      3.26131921
O      -4.78510996     -1.74128440      3.64890145
H      -4.55064442     -1.38940711      4.54658935
H      -5.73969464     -1.81699092      3.63444320
O       2.65425284      2.58941354      0.91323885
H       3.62192021      2.50422658      0.92516027
H       2.39436675      2.61712583     -0.03270746
O       1.23212472      3.23345915     -4.01419572
H       1.40405810      2.95433792     -3.09394793
H       2.07864498      3.19242642     -4.46334129
O       0.91210903      0.47743083      3.72906634
H       1.66177153      0.61093161      4.31201128
H       1.28237471      0.18761814      2.86247588
O      -1.33707845     -0.19824394      5.42434456
H      -0.54240634      0.04787621      4.93737920
H      -1.23053376     -1.12026750      5.70037665
O      -0.72661467      2.16312250     -0.25186405
H      -0.36755561      2.15890084      0.65887211
H      -1.16709643      3.02786828     -0.29314896
O       5.23344449      1.66585316      0.94553314
H       5.02458290      0.74272155      1.17112567
H       6.02483881      1.63586516      0.40740516
O       2.03159231      0.05520383      1.35149924
H       2.24129016      1.01188740      1.20041447
H       2.90112243     -0.38334075      1.43953978
O      -1.66887472      4.44840078      0.93228475
H      -2.52596799      4.31423163      1.34040036
H      -1.01632006      4.12791337      1.57031566
O       2.38740728     -3.15047114     -1.26128294
H       2.09558421     -2.22016391     -1.37369659
H       1.89508342     -3.48523974     -0.50894266
O       1.60438025      2.14689463     -1.53342768
H       0.69886287      2.21240156     -1.14868607
H       1.77858055      1.18803597     -1.58480696
O       4.87044036     -2.24849021     -0.83750356
H       4.02448217     -2.72805183     -0.98923380
H       4.97101581     -1.68311093     -1.60670376
O       4.52768139     -0.97364855      1.41717657
H       4.76160500     -1.60813257      2.09524624
H       4.67084888     -1.43985180      0.54669318
O      -3.97510492     -0.97537353      6.05856530
H      -3.34323145     -0.26970706      5.86798385
H      -3.42180185     -1.72949589      6.30580182
O       0.21348643      2.72111204      2.24634385
H       0.29499360      2.00921231      2.90202508
H       1.11388030      2.90853055      1.93861987
O      -0.65520332      2.28667126     -5.78251512
H      -0.05253905      2.76152270     -5.18135149
H      -1.23783298      1.76343585     -5.22763235
O      -1.91658980     -2.91859385      6.02770636
H      -1.32891775     -3.60008944      6.35442735
H      -2.15045669     -3.16559457      5.10900670
