76
charge=0
I       5.15631713      0.16675443     -4.15922809
C       3.04921347     -0.98765666     -0.00688408
C       4.33748464     -0.14828614     -0.15026371
C       3.58739551     -1.99774118     -1.04337318
C       2.39000302     -0.17216024     -1.14182758
C       4.87701588     -1.16201113     -1.18092245
C       3.67584584      0.67008614     -1.27907754
C       2.92205976     -1.18746991     -2.17628685
C       4.20661504     -0.35050138     -2.29889618
H       2.58408374     -1.25050760      0.93313065
H       4.91522369      0.27101041      0.66420804
H       3.55647630     -3.07634964     -0.95207799
H       1.39122206      0.23913980     -1.13103578
H       5.88486115     -1.55856588     -1.20537953
H       3.70929795      1.74674802     -1.38184292
H       2.34888543     -1.59925564     -2.99809626
O       2.02671583      3.35848340     -2.64313748
H       1.74707760      4.16969083     -3.06981254
H       1.83131049      2.63676772     -3.26182860
O       0.60632943     -1.16314891     -4.39849670
H      -0.18123693     -1.23043464     -3.84334684
H       0.80844089     -0.22088694     -4.44622366
O       0.17935714      0.71363822      4.71479310
H      -0.53762984      0.48153353      5.30586256
H      -0.18318254      1.38435118      4.09916804
O      -1.22067575      3.39138612      0.22810237
H      -1.20729905      3.14545695      1.17437352
H      -1.03078406      2.55681819     -0.24172545
O      -4.05880033     -1.58929353     -1.29066816
H      -3.32044282     -2.06358192     -0.83588553
H      -4.81986839     -2.16790965     -1.25243793
O      -2.23166811     -4.23685057      2.11892655
H      -2.60608222     -3.53688370      2.72073868
H      -2.72872729     -5.03564775      2.29631568
O      -0.41569070     -1.02167687      1.11030198
H       0.32042765     -1.07469322      1.76474951
H      -0.24482229     -0.23350443      0.56297477
O       1.18645783      1.28432575      1.33657076
H       1.91544157      1.03256896      1.90416249
H       1.44989458      2.11101312      0.86491953
O      -0.94665430      2.13368971      2.67122796
H      -1.60504403      1.41302160      2.64069498
H      -0.16123529      1.79677746      2.17637779
O      -1.91842719     -2.78917338     -0.21507214
H      -1.32743085     -2.14129270      0.22349005
H      -2.07571902     -3.45346477      0.47343234
O      -2.45756801     -0.13714702      2.51333413
H      -1.69026145     -0.52920786      2.02007447
H      -3.08283322      0.11768662      1.81432101
O      -0.05478937     -3.57343963      3.76559926
H      -0.66751568     -3.81980277      3.04997174
H       0.54415687     -4.31165419      3.88148992
O      -1.07482970      0.85012327     -0.74492995
H      -1.08921340      0.28379007     -1.53394969
H      -1.96987276      0.75508440     -0.35530938
O       1.30152256     -1.22101239      3.11194215
H       1.00301248     -0.52108960      3.72418526
H       0.91720974     -2.04550295      3.45129494
O      -3.61270869      0.64972932      0.21313960
H      -3.88607671      1.54944578     -0.05794308
H      -3.97664281      0.00382609     -0.41363835
O       1.56694919      3.58167789      0.08349015
H       0.62354421      3.81401115      0.09562218
H       1.79984315      3.47102671     -0.85203342
O      -1.53405234     -1.18412791     -2.54320804
H      -2.49698475     -1.14196193     -2.58706230
H      -1.34218413     -1.91916437     -1.94572262
O       1.78502837      1.45555813     -4.67421630
H       1.71914672      1.66705095     -5.60785727
H       2.63559207      1.01339423     -4.55266263
O      -3.85887468      3.26590978     -0.33580025
H      -2.89691623      3.43336279     -0.20458572
H      -4.31540219      3.85635461      0.26412100
O      -2.87886366     -2.39202682      3.86849778
H      -2.83542782     -1.51438317      3.42250730
H      -2.06901309     -2.46176006      4.38266063
