104
charge=0
O       2.86591805     -1.79157848      2.04803333
O      -1.47705268     -2.84062586     -1.06949871
O       5.70566209      0.72467340      0.11544864
O      -7.62178212      0.16262059      2.52056642
O      -8.05492763     -1.13583743      0.52051351
N      -0.63925426     -1.49714614      1.96210676
N       0.95382711     -0.79964394     -1.12918094
N       1.43164658     -1.83436285     -0.61460855
O       1.45846807     -0.78462197      3.46707907
O       6.06361306      2.76067219     -1.37825712
O       6.59815059      0.42209693     -2.20660770
O      -6.99667563      1.05765656      0.33887697
C       1.74588825     -1.48735058      2.40314815
C      -0.92859952     -2.50144959     -0.05609599
C       0.54342562     -1.85760558      1.62701954
C       2.20943544      1.67659967     -3.50850360
C       1.35845432      0.78185442     -2.88954574
C      -3.23372786     -0.36242589      1.79409998
C      -3.84621078     -2.40336119      0.62238388
C       3.50906552      1.85508377     -3.05388285
C       3.12907880      0.20182966     -1.35491570
C      -4.56669628     -0.00110866      1.83574119
C      -5.17834130     -2.02976454      0.66719597
C       1.82181354      0.02087940     -1.81322623
C      -2.88446042     -1.55168583      1.15579095
C       3.95481926      1.12104085     -1.96563625
C      -5.51002431     -0.82736294      1.25472733
N      -1.52619104     -1.88520204      1.03497702
C       0.56264215     -2.55068449      0.28292272
P       5.61042971      1.24156504     -1.26337181
S      -7.15719878     -0.22562025      1.19816455
H       2.30227439     -0.48475821      3.99416781
H       6.72614607      2.98329229     -0.63321013
H       6.62006724      0.70954031     -3.16012649
H      -7.80983032      1.74995517      0.43063125
H       1.85998255      2.24913613     -4.35394881
H       0.34912228      0.63431105     -3.24016719
H      -2.47073244      0.26093245      2.23527029
H      -3.56666560     -3.34976497      0.17956158
H       4.16315845      2.55880718     -3.54233466
H       3.47292035     -0.36114565     -0.50029567
H      -4.88134049      0.92074194      2.29665673
H      -5.94303403     -2.66934903      0.25797950
H       0.94039784     -3.57633046      0.34065530
O      -0.84524452      1.10589343      3.44948721
H      -0.29871495      0.31295198      3.38496732
H      -0.54770837      1.57410273      4.23129521
O       5.54772294      3.56002676     -5.20451101
H       5.92100263      4.12615178     -4.49550639
H       5.69837861      4.01590641     -6.03358253
O      -7.75877256     -1.17608276     -2.14002602
H      -8.56507377     -0.82068070     -2.51672133
H      -7.90417826     -1.25380015     -1.17527283
O     -10.23076164      0.40664432      1.68047588
H      -9.44351993      0.21922436      2.21649167
H     -10.30295165     -0.34094022      1.08138478
O      -3.69838248     -5.15672550     -0.77122117
H      -3.55600082     -4.88161749     -1.68005044
H      -4.66278124     -5.11414421     -0.62893827
O       7.82761887      3.30964078      0.38215412
H       8.70887700      3.19599615      0.02096580
H       7.79772780      2.73029447      1.20160676
O      -8.01024690      2.75642955      3.23278523
H      -7.76367514      1.82051142      3.11803569
H      -8.58319933      2.79356276      4.00080317
O       6.75863334      1.21209101     -4.68614750
H       7.66822109      1.41576018     -4.91307410
H       6.23099438      2.01375145     -4.89970564
O      -5.26838643      0.01054581     -1.76083004
H      -6.08603977     -0.39638291     -2.09007887
H      -5.55562105      0.67495541     -1.12886569
O       7.45646849     -0.84921751      1.44197417
H       6.78930717     -0.34049143      0.94300191
H       8.02759795     -1.22389917      0.75447769
O      -8.94291783      2.56202985      0.73049377
H      -8.64842039      2.93589635      1.58973855
H      -9.62195556      1.89072856      0.96906033
O       3.55576273      0.00580934      4.71524510
H       4.21902066     -0.69375294      4.61953708
H       3.91360771      0.75027787      4.20125611
O      -6.30738020     -3.46585102     -2.90169505
H      -6.86521935     -2.68728724     -2.76412865
H      -5.39235191     -3.12494028     -2.91914405
O       8.41164253     -1.48693366     -1.07590867
H       8.16292487     -2.32039945     -1.47890925
H       7.82341397     -0.81531655     -1.44921393
O       7.82510883      1.72051295      2.45190436
H       7.94419421      0.79601074      2.16998541
H       6.90978272      1.75324503      2.78652704
O       6.57672562      4.85029776     -3.08784126
H       6.24584345      5.63910154     -2.65496088
H       6.42853965      4.11646647     -2.46673633
O      -3.86229235     -2.28555533     -2.66285557
H      -3.06509843     -2.51311577     -2.16998300
H      -4.15226734     -1.41934021     -2.34559794
O      -6.43041647     -4.79135740     -0.61995040
H      -6.43075356     -4.32228255     -1.49343562
H      -6.96049000     -5.57932841     -0.74171043
O       5.15164811      1.22192219      2.80592726
H       5.37292785      0.28164011      2.98299304
H       5.09632399      1.26845784      1.84170546
O       5.43735017     -1.44953702      3.21510082
H       6.23752479     -1.51382190      2.66685514
H       4.69346952     -1.74332890      2.66711251
