102
charge=0
N       0.02542643      1.16926291     -2.51355163
N      -1.86382318     -1.05388038     -2.64405606
N      -0.70158226      1.88088186     -4.49326442
N      -2.82151797     -1.78218071     -4.50790477
N       0.79931990     -1.89440685      4.12419477
N       2.45176389     -1.68350235      2.44083904
N      -0.25376345     -3.50436338     -0.25305198
O      -2.11800591     -0.65853720     -4.78189599
C      -0.74481352      0.90735818     -3.55317365
C      -1.56184686     -0.26893513     -3.64108103
C       0.12297460      2.77045070     -3.98702193
C      -2.65449779     -1.99498902     -3.23252974
C       1.98122857     -1.43468613      3.67098486
C      -0.00953014     -2.45377888      3.24545656
C       1.63482983     -2.23688467      1.58159180
C      -1.11533600     -3.65298991     -1.24530940
C      -0.67202489     -2.93211233      0.87998965
C      -2.00219293     -2.53478590      1.04892557
C      -2.87943108     -2.64816583     -0.01234249
C       0.31464417     -2.58920657      1.89671012
C      -2.42950815     -3.20555190     -1.20408526
N       0.57218589      2.34761843     -2.79801413
N       2.76047093     -0.73476627      4.50306567
C      -4.84375788     -4.08937048     -3.54110122
C      -4.76620252     -3.08055374     -2.38871296
C      -3.35653523     -4.40907067     -3.34262739
C      -3.22332862     -3.13922853     -2.47145635
H       0.36891563      3.70213645     -4.45125130
H      -0.95105632     -2.81603688      3.63641696
H       2.02898413     -2.37827901      0.58708924
H      -0.72497815     -4.11062044     -2.14522414
H      -2.30977525     -2.05809388      1.96625894
H      -3.87931844     -2.24968597      0.06111562
H       1.18669624      2.78615833     -2.09301829
H       3.50021281     -0.19786140      4.06547827
H       2.31575784     -0.30997083      5.30727674
H      -5.53660485     -4.91717966     -3.40804664
H      -5.02800184     -3.60864198     -4.49775124
H      -5.13029936     -3.49361393     -1.45075962
H      -5.20831300     -2.10123496     -2.54739662
H      -2.74483180     -4.42588062     -4.24051860
H      -3.18878864     -5.31441357     -2.76175625
O      -1.63461144      5.03699396     -5.27075733
H      -2.15224929      4.25580653     -5.51478797
H      -2.24151671      5.77832887     -5.29380477
O       2.13462737      3.43610144      3.57500461
H       2.05078221      3.75166221      4.48044532
H       2.76772649      2.68149391      3.62975543
O       2.23842354      3.38222949      6.43987037
H       1.77811616      2.54188960      6.21733212
H       2.05729521      3.54125263      7.36675013
O       1.88039465      3.18381690     -0.55735523
H       1.62411792      2.31651831     -0.13791584
H       1.34923340      3.85070837     -0.11710427
O       1.03003778      0.90362355      0.43107876
H       1.50529737      0.25244039     -0.11834885
H       0.08805560      0.83022223      0.16004609
O      -1.84001666     -0.17153586      3.30973971
H      -1.91656106     -0.29494946      4.26014170
H      -1.09333065      0.43669365      3.19653085
O       1.96211250     -0.71439279     -1.51599774
H       1.12712070     -0.56742717     -1.98718819
H       2.11898998     -1.67617196     -1.56028305
O      -0.74823302     -0.92821494      6.14184496
H      -0.74200251     -1.53659462      6.88103473
H      -0.18895760     -1.33495749      5.43683090
O      -2.90897515      2.53002028     -5.89781480
H      -2.96012198      2.10154967     -6.75464416
H      -2.06537520      2.21903101     -5.49242626
O       0.96377014      1.13206541      5.75487883
H       0.79729740      1.18987424      4.79643266
H       0.23363459      0.59254646      6.10188933
O      -4.28824199      1.14145221     -3.91147555
H      -3.86335325      1.72974783     -4.56074349
H      -5.15916266      0.94088789     -4.25883924
O       2.05224568     -3.44075859     -1.70625639
H       1.27006208     -3.58868053     -1.12603925
H       2.74716835     -4.02480640     -1.39917562
O      -1.56475610      0.41718167     -0.13419967
H      -1.60909265     -0.19229147     -0.89008195
H      -1.86907582     -0.05397682      0.64914257
O       3.04347561      0.02822158     -3.92659433
H       3.39981960      0.91605294     -3.95885224
H       2.88444113     -0.17531808     -2.98586015
O       3.99339865      3.43377396      1.39271860
H       3.27232867      3.68656935      1.98441040
H       3.57992856      3.31993085      0.52818570
O       0.47534306      1.36433916      3.05073873
H       0.76981619      1.03019081      2.18491562
H       0.87343916      2.25301659      3.11053759
O       0.79827687     -1.76708541     -3.93278579
H       1.52802463     -1.22500834     -4.26120612
H       1.21323706     -2.52008023     -3.49758785
O       4.84995735      3.21180083      5.58073857
H       3.95149539      3.26390161      5.95957290
H       5.06388055      4.09130028      5.26470970
O      -4.36135066      0.24069884     -1.19938702
H      -3.58631203      0.61733400     -0.77049232
H      -4.34579954      0.58225083     -2.10268433
O       4.12754316      1.60756011      3.51594226
H       4.59321880      2.04099765      4.25734554
H       4.44433132      2.02657290      2.70127729
