71
charge=0
N       2.73626944     -2.53742109     -1.37499935
N       3.64455458      0.18225343      1.79211931
N       0.09406355      2.00621301      1.20049559
N      -0.65652573     -0.28511526     -1.93391071
C       2.29001156     -1.94039602     -0.51125897
C       2.83038654     -0.41757399      1.26065394
C       0.27422111      0.92751526      0.86988238
C      -0.19805314     -0.49233765     -0.90691405
O       0.63009797     -1.45960232      1.23808665
C       1.79077252     -1.11437056      0.55777656
C       0.47177304     -0.40249104      0.36404097
O      -0.38442087     -2.95041033     -0.86346127
H      -0.26850497     -3.01613007     -1.82263982
H      -1.34359027     -2.82361968     -0.72578402
O      -2.32286639      0.13387591      0.52244046
H      -2.99229131      0.84223588      0.41140011
H      -2.17805231      0.02450342      1.48977238
O      -0.73922122     -2.69528788      3.55651835
H       0.12261572     -2.43621594      3.90370113
H      -0.54044186     -3.30015306      2.81203867
O      -0.72398453      1.90561475     -3.85026895
H      -0.21932678      1.08603262     -3.94912695
H      -1.61247161      1.63184340     -3.54132059
O       0.25160886     -4.25037000      1.54314424
H       1.15888257     -3.94728140      1.69250356
H       0.01294678     -3.90792901      0.66761852
O       1.79642069     -1.52186387      4.35757056
H       2.21265822     -1.49990473      5.22045172
H       1.46655002     -0.61665498      4.18432947
O      -3.87734711      2.19768368     -0.24870529
H      -3.20276688      2.89184778     -0.21460692
H      -3.94403557      1.93996830     -1.17949918
O      -1.64810799      3.90009919      0.13988365
H      -1.85820588      4.70516759      0.61628352
H      -1.13481668      3.33723888      0.74213952
O       2.76325745     -3.10925497      2.29103452
H       2.42071477     -2.56752640      3.02417968
H       3.26996287     -3.81951159      2.68796701
O       1.31090336     -0.17513919     -3.91069957
H       1.63273029      0.17805882     -3.06076183
H       1.99501786     -0.00572939     -4.56057761
O      -2.99389085     -2.23747614     -0.47324389
H      -2.78900575     -1.34404548     -0.10251981
H      -3.51205643     -2.69341357      0.19155124
O      -0.29864965     -2.48629195     -3.66269887
H       0.22254051     -1.66641744     -3.70611547
H      -0.10747610     -2.98168310     -4.46064736
O      -1.63617589     -0.21196778      3.07311674
H      -1.44399507     -1.16490262      3.23112523
H      -0.83228262      0.25150682      3.33738181
O       2.06035613      1.08063049     -1.53226973
H       1.40221218      1.80595373     -1.61050191
H       2.90321289      1.52484245     -1.41028981
O      -3.01643535     -1.65864536     -3.24585460
H      -3.15880867     -1.94153773     -2.33092117
H      -2.09155970     -1.87965821     -3.43410733
O       0.31100021      3.13324143     -1.77513627
H      -0.45884925      3.44467533     -1.27916884
H      -0.06555940      2.75010414     -2.61527231
O       2.35594381      3.68642888      0.05393415
H       2.60441771      4.61167921      0.01682258
H       1.60850399      3.57981798     -0.55786524
O       2.56837999      2.68925342      2.67012695
H       2.38059836      3.05801007      1.78969346
H       3.37462787      2.17229346      2.57272670
O       0.87971708      1.02029926      3.93544860
H       0.57489965      1.52004051      4.69564034
H       1.46242272      1.63515554      3.43130119
O      -2.99799258      0.96396501     -2.63791865
H      -3.16709169      0.08845976     -3.05112642
H      -2.46098079      0.73633292     -1.86920549
