78
charge=0
C      -3.42834716     -2.10043556      2.54701485
C      -3.43383514     -2.33875469      1.36235313
C      -3.34213578     -1.26223328      3.67892063
C      -2.99540423      0.00206095      3.40220985
C      -3.53147553     -2.12448107     -0.05733004
C      -2.58559046      0.48790076      2.03718603
C      -3.13551306     -0.63862097     -0.25036650
C      -3.60074027      0.31036717      0.87282411
H      -3.60152285     -1.61132624      4.66602599
H      -2.96030462      0.72669183      4.20445842
H      -4.56075386     -2.29622630     -0.38430152
H      -2.87521193     -2.76622365     -0.64648832
H      -1.66500207     -0.02674234      1.74957620
H      -2.34617786      1.54723503      2.12076394
H      -3.55515871     -0.29947872     -1.19772045
H      -2.05064367     -0.57632300     -0.31925389
H      -4.56526750     -0.01413858      1.26319581
H      -3.74890837      1.29229412      0.42230003
O       2.13888075     -1.80501943     -3.14091272
H       2.78787887     -1.24900971     -2.69893201
H       1.72752471     -1.25314728     -3.82445445
O       0.46712223      5.44846212     -2.62306477
H      -0.33118393      4.95232746     -2.91084017
H       0.14006114      6.25437236     -2.22165020
O       3.16873576     -2.38511252      2.51621625
H       2.75622607     -3.25949577      2.66810488
H       2.64732556     -1.74869157      3.02925631
O       1.20296397      1.19623319     -2.21061502
H       1.11593698      0.91184007     -3.13705117
H       2.06113827      0.81899559     -1.88998968
O      -1.72386821      4.01415371     -3.23882721
H      -1.90996633      3.65584676     -4.10694156
H      -1.71095298      3.24718091     -2.61853503
O       0.23413019     -0.34707094     -0.01930162
H       0.89108213     -1.06703736      0.03312848
H       0.39661454      0.08826496     -0.86900980
O       3.26105192      2.32482626      0.59477676
H       2.69338319      2.89632982      0.03282360
H       3.96534319      2.88109706      0.92744398
O      -0.01271819     -3.71879327      0.41914463
H      -0.78026553     -4.29226390      0.39333865
H      -0.15317462     -3.11569819      1.18133843
O      -1.41438852      1.89867999     -1.63857850
H      -0.48739459      1.71195680     -1.85409880
H      -1.38129523      2.26531203     -0.72886098
O      -1.59298062     -0.39747449     -3.33919049
H      -1.29725661     -1.17233844     -2.82098114
H      -1.74799502      0.31214821     -2.69901209
O      -0.34188341     -2.41653280     -2.04333164
H      -0.21508530     -2.80842170     -1.16597944
H       0.54826056     -2.32220380     -2.42265988
O       1.53343269      3.61528945     -0.99530612
H       1.41021731      2.82917689     -1.55883275
H       1.27740610      4.37303009     -1.56240224
O       0.64918160      0.06050955     -4.60338046
H       0.49558979      0.26978539     -5.52396876
H      -0.24489264     -0.15846575     -4.20935512
O      -0.65251959      3.11217061      0.63818592
H      -0.24397252      2.50368373      1.27333605
H       0.09604465      3.48027909      0.13589825
O       1.35280890     -0.60471875      3.68774486
H       1.24904492      0.14671472      3.04388925
H       1.33102532     -0.22357158      4.56526317
O       1.03590987      1.26104575      1.88139637
H       0.69409995      0.66011381      1.16628775
H       1.88060628      1.60512657      1.54735408
O       3.40197439      0.16427216     -1.18448206
H       3.57309024      0.84944333     -0.52009906
H       3.12471183     -0.62996102     -0.68077073
O      -0.38528234     -2.50656115      2.79554236
H      -1.28828005     -2.16997292      2.82765910
H       0.20184812     -1.79175770      3.10747971
O       2.37221769     -1.97869313      0.06831627
H       2.37566111     -2.81866866     -0.39257289
H       2.73748076     -2.13605220      0.98324794
O       1.54844972     -4.55786275      2.63996837
H       0.83712444     -4.10699219      3.11150903
H       1.26177448     -4.56165021      1.71565146
