82
charge=0
Cl      1.85223400      4.52350840      2.50107060
Cl     -0.62923366      4.55888936      1.03429860
Cl     -0.47302447      3.20746616      3.60261167
N      -2.06507665      0.26790265      0.64207392
N      -1.05754919     -0.49951593      0.34485695
N       1.99423197      1.93522294      1.34561823
C       0.76150158      2.29923318      1.43348566
C      -1.68391682      1.47286836      1.06199265
C      -0.30033956      1.45720276      1.00976440
C       3.97744982     -0.89330062      0.21960429
C       2.98492999     -1.79028411     -0.17930877
C       3.64688843      0.34348718      0.71715943
C       1.65470612     -1.45297417     -0.08823536
C       2.30077128      0.71629391      0.82536593
C       1.30840056     -0.20192707      0.41031701
N       0.01011934      0.21035656      0.54373550
C       0.41420441      3.59182981      2.10067210
H      -2.36651841      2.22374642      1.39766426
H       5.01573001     -1.17099027      0.12818246
H       3.26497388     -2.75395934     -0.57417040
H       4.40197045      1.04748843      1.02559542
H       0.87790483     -2.12120727     -0.41282534
O      -1.97522545     -2.78469392      4.21812901
H      -1.34992855     -0.97791429      4.24702195
H      -3.03481680     -0.11877342      0.81353657
O      -4.39992533     -1.08804783     -0.96837891
H      -4.95306256     -0.56117986     -0.38509305
H      -4.04280094     -1.80640183     -0.40741599
O      -4.36388807     -0.31365072      1.73543947
H      -4.40992016     -1.20485243      2.12100449
H      -4.03737979      0.25066969      2.47703482
O      -1.23348528     -2.61989666     -2.12171265
H      -1.01334877     -2.89203048     -1.21695279
H      -2.10270839     -3.00432172     -2.32247607
O      -3.88939472     -3.29798847     -2.57726173
H      -4.13539669     -3.37498760     -3.49997027
H      -4.23229438     -2.44531289     -2.26341645
O       0.21268838     -2.49540275      2.49647067
H      -0.01248574     -1.54669571      2.59608550
H      -0.24701001     -2.90738387      3.24294214
O      -4.35850562     -2.88724806      2.75108900
H      -4.08186558     -3.21859125      1.87459268
H      -5.10188120     -3.41697933      3.04139272
O      -1.91460404     -1.51853811      4.84864289
H      -0.70559381     -0.12968537      2.92128877
H      -2.85741587     -2.79303653      3.79272417
O       5.37623262      2.19206486     -1.82336574
H       4.82297263      2.51800782     -1.08656721
H       5.78256110      3.00234030     -2.16370099
O       1.73633178      0.01087305     -2.59068358
H       2.39499162      0.57514345     -3.02644594
H       1.24643846     -0.44782699     -3.30029781
O       5.20759653      4.93481806     -2.22741130
H       4.47217397      5.22502772     -2.77062654
H       4.82713097      4.76829131     -1.35340345
O      -3.50826434     -3.36850422      0.25358915
H      -3.71191416     -3.87217229     -0.54119554
H      -2.52700508     -3.40207106      0.36262601
O      -0.09224815     -1.17104704     -4.23384041
H      -0.32083345     -1.86437273     -3.59775787
H      -0.78475552     -0.50802978     -4.14442246
O      -2.18918362     -0.04554035     -2.37793006
H      -1.72746079     -0.88667421     -2.20020481
H      -3.06399011     -0.16270754     -1.98555751
O      -0.11698844      1.71457916     -1.72911494
H      -0.94058000      1.34453787     -2.07874623
H       0.58251591      1.08330730     -2.02178577
O      -0.88111986     -3.60100304      0.44806123
H      -0.46946084     -3.07929584      1.20888145
H      -0.56565437     -4.49928190      0.55918227
O       3.74211735      3.63267806     -0.21809973
H       3.36424466      3.37516238      0.62838353
H       2.99131116      3.67473608     -0.85683875
O       3.48169242      1.87297804     -3.62551676
H       4.21921589      1.90339833     -2.95693551
H       3.88761968      1.98931600     -4.48490840
O      -3.06215524      0.94963011      3.67174696
H      -2.15445654      0.68649271      3.41903607
H      -3.18818045      0.56821975      4.54447728
O       1.87690638      3.59317876     -2.13181709
H       2.36796109      3.04314901     -2.76519217
H       1.06378623      3.09694302     -1.94477545
