88
charge=0
O       0.10113760      1.33209944      3.15422647
O      -0.35290974     -2.04928493      2.21096859
O      -0.70941451     -1.73112729     -3.18545094
O       1.43217285      0.88533511     -0.68969959
O      -1.27539324      2.78654744      1.69992474
O       1.69893178     -3.21884406      1.20856016
O       1.93545785     -1.99234400      3.35856795
O       1.31878415     -0.19819820     -3.33148051
O      -0.80162973      0.69932017     -2.43922095
C      -0.40344576      0.47820951      0.62635368
C       1.73995377     -0.53421615      1.09055372
C       0.48328372     -1.18963513     -0.84086427
N       0.82536479     -0.07005931      0.03872921
P      -0.00547704      1.86871291      1.76865119
P       1.11570054     -2.00052700      2.01805092
P       0.02851157     -0.61787995     -2.52659115
H      -1.35849978      3.61343358      1.11969006
H       1.00869378     -3.89346826      0.92645897
H       1.39241685     -1.57152349      4.07575097
H       1.93524280     -0.94080604     -3.54620754
H      -1.73948381      0.58076928     -2.81286001
H      -0.92681741     -0.29056058      1.19132045
H      -1.02543410      0.83200217     -0.19370316
H       2.67807246     -0.81192395      0.60732398
H       1.96655614      0.29436372      1.76527837
H      -0.34354082     -1.76776029     -0.43613933
H       1.34800307     -1.84155506     -0.97208876
H       1.08776267      2.46922278      1.22896429
O       0.20185043     -0.77161423      4.89669727
H       0.12066995     -0.00668339      4.29777905
H      -0.57507666     -1.31150680      4.72773301
O       0.03800638     -4.92720521      0.22905724
H      -0.60719882     -4.48771552     -0.36716409
H       0.48453291     -5.57939470     -0.31861282
O       0.65759829     -5.12823980     -2.67151201
H      -0.24150803     -4.90501027     -2.39527394
H       0.72338382     -4.73684662     -3.57068388
O       2.99457358      1.98206855      2.73368257
H       2.99046489      1.71687240      3.66526604
H       2.62963041      2.87314911      2.74181085
O      -1.61908647      4.88768545      0.29345256
H      -0.73098807      5.24197586      0.13558654
H      -1.91500860      4.48484781     -0.54162057
O      -3.22170707      0.37645762     -3.16661565
H      -3.35128267     -0.57326772     -3.21791345
H      -3.64335712      0.69187691     -2.32615846
O      -2.64655258      1.12247703      3.70640107
H      -2.96871254      2.02588627      3.73729357
H      -1.68825762      1.20268462      3.56359661
O       0.69175607     -3.50168823     -4.79776258
H       0.09693230     -2.86193139     -4.36958399
H       1.55834157     -3.08264674     -4.81392043
O      -3.71448062      0.01204127      1.52877487
H      -4.61195166     -0.20059057      1.79127620
H      -3.27940692      0.39345021      2.32952012
O       1.07735102      4.22427309      2.59730131
H       0.69975954      4.81464056      3.25101103
H       1.09653581      4.70269338      1.74713809
O      -2.43934454     -2.19319919      0.42255312
H      -1.82822236     -2.38733181      1.15027032
H      -2.98703009     -1.45703417      0.73677316
O       0.61017310      3.16744933     -1.57227528
H       0.78891674      2.27749924     -1.15883547
H       1.26866003      3.16578500     -2.28948282
O      -3.94313608      1.39983928     -0.85089485
H      -3.78939188      0.94978538     -0.00354317
H      -3.31767488      2.13810566     -0.90864952
O      -2.06038454      3.23490773     -1.81197289
H      -2.38215767      3.07848324     -2.70149832
H      -1.09151461      3.07488768     -1.83543881
O       3.03648250     -2.13852089     -3.78935663
H       2.92860304     -2.69062782     -2.98442329
H       3.94767549     -1.84031373     -3.80512511
O       1.95185868      1.63407552      5.30379279
H       1.74307866      0.78762330      5.70657082
H       1.25056921      1.79662265      4.65793908
O      -1.58777228     -3.76920107     -1.61554479
H      -1.31835984     -3.07443007     -2.24813244
H      -2.15009526     -3.31526852     -0.96760262
O       2.44921002     -3.51056980     -1.59252305
H       1.79792242     -4.17272563     -1.94475974
H       2.69368153     -3.79423631     -0.70837093
O       1.11472689      5.19538824      0.02313904
H       0.99063386      4.40735699     -0.57142581
H       1.89047003      5.65683881     -0.29783328
O       2.78261458      2.17298720     -2.82129051
H       2.79090358      1.76369456     -1.94635177
H       2.31571356      1.52637246     -3.36287809
