109
charge=0
O      -0.65794374      0.97222518      2.43857622
O      -0.68306499     -1.13761703      3.56403429
O       1.68381178      2.28489231      2.38304731
O       3.90786756      1.33199566      2.61753526
O      -2.69258804      1.33410474     -0.61592350
O      -3.10624714     -0.87228006     -1.58711435
O       1.70684411     -0.80927036     -3.82963961
O      -0.51590029     -0.32573875     -3.89719955
O       1.78901505     -1.08469308     -1.54571139
O       1.45458537     -0.38441810      2.58450674
O       2.72198497      1.00019046      0.50006819
O      -1.03291149     -0.41969808     -0.39248154
C       0.45517376     -1.48210057     -5.78450865
C       0.98873358      0.94705789     -5.29509511
C       1.15939807     -1.47625051     -2.72198214
C       0.66022609     -0.41778349     -4.70295691
C       1.37573247     -0.82585532      1.23480211
C      -0.29620068     -0.96586697     -2.67098785
C       1.20626976      0.14436031     -1.13769014
C       0.67135643      0.79310823      4.75818884
C       3.62512855      3.38164995      0.97443748
C      -2.97574106     -0.75377539      1.17357007
C       1.44291602      0.40605152      0.33902768
C      -0.28822886      0.02938205     -1.49002151
S       0.07358116      0.04351341      3.27560571
S       2.93062847      1.94506476      1.75814252
S      -2.67296042     -0.10862061     -0.44762818
H       0.20501736     -2.43204283     -5.31931433
H       1.36936775     -1.59298417     -6.35933390
H      -0.35798267     -1.18270542     -6.43769261
H       1.01129376      1.69258499     -4.50483975
H       1.95886406      0.89946002     -5.77876524
H       0.22800866      1.21937916     -6.01899303
H       1.27420381     -2.56017276     -2.81415706
H       0.45552442     -1.39096998      1.06457577
H       2.24764797     -1.46008525      1.06795401
H      -1.03220303     -1.75346751     -2.51201801
H       1.65192884      0.96956089     -1.70861441
H      -0.16513762      1.32424228      5.22591596
H       1.45474289      1.47468523      4.46301427
H       1.03885762     -0.00196600      5.38904665
H       2.87859990      3.70243179      0.25388484
H       4.54221923      3.08305896      0.48865348
H       3.80425948      4.14215370      1.72174367
H      -3.38984258      0.03646734      1.77790191
H      -3.66532906     -1.59962682      1.11223184
H      -2.01479612     -1.06473473      1.55810729
H       0.69754505      1.12305807      0.68514484
H      -0.67862474      0.99885145     -1.80927019
O       0.36407039      4.67726246      2.50883301
H      -0.29162111      4.53030548      1.81599590
H       0.86553714      3.84896264      2.54859466
O      -1.92866353     -3.65150657      3.01421323
H      -1.70875536     -2.85377782      3.50561528
H      -1.37186268     -3.59016621      2.21714495
O      -2.62388903     -3.50967979     -1.09126344
H      -2.01688856     -3.81043018     -1.78808545
H      -2.93189358     -2.62291148     -1.34476799
O      -0.61212519     -3.14891931      0.68492369
H      -1.38479468     -3.25310899      0.09221944
H       0.10153962     -3.66824337      0.28321729
O      -3.03622648      2.16536446      3.00669471
H      -2.24561354      1.62418047      2.83469763
H      -2.82626303      3.03503215      2.64837583
O      -1.10250188      4.88616344      4.75376694
H      -0.56213031      4.83670270      3.93477618
H      -0.67207214      5.52568879      5.32127407
O      -4.94330000      0.18598989     -0.17685476
H      -5.23264501      0.78144164      0.55721397
H      -5.32066776      0.52380131     -0.99152126
O      -5.52290016      1.62053029      1.99990664
H      -4.66822035      1.87119822      2.39946322
H      -5.96991735      1.06091411      2.63809046
O       1.37855479     -4.64256519     -0.56302476
H       1.46974772     -5.49743304     -0.13688224
H       2.22296682     -4.16823133     -0.38757557
O      -1.74188904      2.34908456      5.54939334
H      -2.44092586      2.15629916      4.91383267
H      -1.51579677      3.28334965      5.38413096
O       1.07440225      3.31865240     -0.65101434
H       0.76470559      3.33302396     -1.57315324
H       0.26103333      3.37507028     -0.12096351
O       4.62573353     -1.17392021      1.81916496
H       4.29711745     -0.32206147      2.15738198
H       5.46245697     -1.32834352      2.26302570
O      -2.42741420      1.92972412     -3.31398025
H      -2.70131130      1.76446712     -2.39746309
H      -2.18450464      1.07320270     -3.68305582
O       4.62237148     -1.47471349     -3.91767617
H       4.86573325     -1.40785474     -2.98818700
H       3.69487841     -1.22346669     -3.96871534
O      -0.09034486      3.27127548     -3.16088351
H      -0.21895219      4.14343245     -3.53720566
H      -0.95810196      2.81505565     -3.24289270
O       4.56620640     -1.16364675     -0.98702308
H       4.69076715     -0.96292041     -0.04596983
H       3.66305619     -0.89468238     -1.19852651
O      -1.24447299      3.10349279      0.84337986
H      -0.89410680      2.42868343      1.44503405
H      -1.83616801      2.61346721      0.24456860
O      -0.44857741     -4.33150577     -2.63056155
H      -0.51582742     -5.18623872     -3.06052674
H       0.20346186     -4.43460526     -1.91488861
O      -4.17254249     -3.46824214      1.39599112
H      -3.80470211     -3.77779032      0.56196332
H      -3.48962902     -3.64155982      2.07108523
O       3.70329573     -3.50876301      0.11451630
H       4.07358649     -2.86664473     -0.52037458
H       3.84750010     -3.10916249      0.97782021
