99
charge=0
O      -4.31743878     -3.41844057     -0.28191630
O       8.01764543     -1.09446794      2.57958205
O       8.10106530      1.04699566      2.47221880
N      -1.08303651     -0.93714080     -1.52283368
N      -5.64731407     -1.66607716     -0.94796248
O       2.42180790     -0.92135769     -1.16286894
C      -4.50745177     -2.30784012     -0.76726451
C       2.67869693      1.10858457     -2.06618306
C       1.35516690      0.71598310     -2.26304250
C       3.29120301      0.08708677     -1.35474069
C       1.23225861     -0.53424789     -1.67042540
C      -5.79692530      1.69647330     -2.43621693
C      -4.42607371      1.89469652     -2.67559488
C      -6.28065391      0.53566365     -1.86305871
C       5.31352282      1.17932483     -0.46453836
C       4.95885719     -1.19086362     -0.08974475
C      -3.50379409      0.93710793     -2.34009497
C       6.38202505      1.15128066      0.39795719
C       6.03679109     -1.22430722      0.75818794
C      -5.37430617     -0.45759638     -1.51537332
C       4.55381929      0.01986744     -0.67095987
C      -3.96571590     -0.25059449     -1.74455192
C       6.71495779     -0.03885040      1.04903951
C       0.12324108     -1.38098457     -1.42762353
C      -3.33951437     -1.40313825     -1.27452186
N       7.68796661     -0.03165369      2.06888846
N      -2.08297389     -1.76347978     -1.17581279
H       3.12547880      2.02867844     -2.37932275
H       0.58073106      1.27921852     -2.74723132
H      -6.49616182      2.46961418     -2.71980399
H      -4.09620177      2.81431144     -3.13202392
H      -7.33460459      0.40090802     -1.68524533
H       5.01179986      2.10472328     -0.92884063
H       4.39238198     -2.08603934     -0.28927998
H      -2.45282245      1.07967667     -2.53668429
H       6.95399161      2.04379601      0.59549445
H       6.34081590     -2.14315045      1.23218893
H       0.34923470     -2.38983482     -1.08885184
H      -1.84212566     -2.68635001     -0.74912481
O     -10.06462368      2.07995032     -1.45349514
H      -9.86804789      1.13271554     -1.34418596
H      -9.94160597      2.47143539     -0.58701537
O       5.80550685      2.40109807      3.23717684
H       6.70126483      2.12532375      2.98306135
H       5.88309698      2.83593426      4.08873638
O      -0.86411773      1.59471223     -0.00658536
H      -0.95624803      0.84173129     -0.60983748
H      -1.72044708      1.73673754      0.40188314
O      -3.00693664     -5.15006199      1.34591637
H      -3.58703410     -4.52552061      0.87408355
H      -3.28518869     -6.02516265      1.07065360
O       3.54542655      3.81681912     -1.01787240
H       2.90186731      3.35505260     -0.44374979
H       4.04976783      4.36286773     -0.40196739
O       1.73384161      2.72080392      0.70303040
H       0.89594850      2.29709088      0.48136035
H       2.23978194      2.09529109      1.24729255
O       5.92968592     -2.33186894      3.93543693
H       6.16278628     -3.15056129      4.37594390
H       6.75191674     -1.98167971      3.55709243
O      -8.45708654      3.34089717     -3.30344651
H      -9.03688413      3.64901508     -4.00080058
H      -9.03359346      2.87516601     -2.66857769
O      -9.36469595     -0.49323102     -0.81172154
H      -9.01025855     -1.28631637     -1.22020052
H      -9.22343666     -0.61393965      0.14759538
O       1.37368651     -2.84297851      1.44369097
H       2.09330782     -2.33270164      1.83412485
H       1.77220757     -3.38260588      0.74567091
O       3.48034169     -1.53878590      2.94234031
H       2.93698587     -1.52454225      3.73409524
H       4.35914986     -1.84834723      3.22687665
O      -0.91631220     -3.91069605      0.20527659
H      -1.59651366     -4.43379763      0.68171362
H      -0.37822339     -3.47822053      0.88568217
O       1.13537768      4.99950121     -1.70126802
H       2.05127975      4.67236253     -1.73928655
H       0.89854663      4.97345374     -0.77125299
O       1.58291894     -4.72119553     -0.67850771
H       0.62602703     -4.60512153     -0.53805248
H       1.75837319     -5.65877189     -0.59156363
O      -7.65947804     -3.10856991      0.10806736
H      -6.98877795     -2.52903639     -0.33591134
H      -7.14946445     -3.84474847      0.44999108
O       4.37707261      4.32247537      1.63677458
H       4.94498558      3.69704412      2.10528799
H       3.47662690      4.01993347      1.78491718
O      -8.90283349     -1.37092547      1.73520224
H      -8.39503650     -2.05551974      1.24480659
H      -9.68687856     -1.80955477      2.06920822
O      -0.66937597      3.03741584     -2.52188923
H      -0.81161040      2.78036471     -1.60341335
H      -0.08009212      3.80838879     -2.48038643
O       9.37730479     -0.42099074      0.05175474
H       9.92789105      0.08600516     -0.54814426
H       9.95218449     -1.04115189      0.50697156
O       3.40339044      1.14814366      2.22112019
H       4.22463041      1.51259162      2.57274767
H       3.42884653      0.19050477      2.36971086
