110
charge=0
O      -2.62859490      3.24587602      1.73492802
O      -3.55230537     -0.71745360     -0.10275208
O       0.46663659      1.61679657     -1.09358880
Cl      2.78440324     -1.72956688     -3.59631016
N       3.52284148     -0.65930224      3.25064916
N       5.10229335     -1.45563761      0.11773329
N       1.65126236     -0.93265677      0.76805273
O       4.52936168     -1.62191962     -1.11161727
O      -2.45057337     -1.31172281     -4.03795675
S       6.06071878     -0.94107379      3.02648606
C      -2.26457739      2.37512299      0.96229569
C      -2.77479465      0.21238630     -0.06451471
C      -0.58844464      1.45454118     -0.51994583
C       4.43839582     -0.93548829      2.37720297
C       4.16551606     -1.19008122      0.99687600
C       4.03962109     -0.42817201      4.46828012
C       5.39702347     -0.53354654      4.54937595
C       2.89105437     -1.16933405      0.35171876
C       0.72260512     -1.02232099     -0.13957901
C       2.22082514     -1.49117344     -1.96993920
C       3.20426241     -1.45415575     -0.98753819
C       0.90644799     -1.28801912     -1.53577772
N      -3.07955937      1.31399154      0.67900511
N      -1.06319150      2.40685479      0.33100223
N      -0.24367171     -1.37015413     -2.27791221
C      -0.68843752     -0.84094036      0.28649731
C      -1.56635750     -3.06098608     -5.39464683
C      -0.18997851     -1.95703029     -3.60279300
C      -3.50893858      0.48108820     -2.97783410
C      -1.38475473      0.16860010     -0.66939971
C      -1.58125094     -2.43307476     -4.00965194
C      -2.60950979     -0.73461179     -2.75826474
C      -1.25373933     -0.31167324     -2.14251861
H       3.37653860     -0.18254695      5.27674297
H       6.02591121     -0.39137321      5.40413452
H      -4.02021685      1.34518514      1.13263574
H      -0.39452525      3.19259259      0.57954003
H      -0.71821854     -0.48361758      1.31547714
H      -1.21550321     -1.79496684      0.22185857
H      -1.13525797     -2.37209361     -6.11651303
H      -0.97756303     -3.97210912     -5.37525050
H      -2.58093529     -3.29945744     -5.69992290
H       0.16453445     -1.23414148     -4.34931926
H       0.47189737     -2.81858691     -3.56809901
H      -3.80227882      0.95954745     -2.05033131
H      -4.40447307      0.16215431     -3.50433137
H      -2.98851113      1.20720093     -3.59786605
H      -1.94831606     -3.15775415     -3.26959185
H      -3.08469824     -1.47916167     -2.10498406
H      -0.90183778      0.54812242     -2.74043053
O      -0.98740282     -5.09933891     -2.28965796
H      -0.08073819     -5.07443544     -2.63734076
H      -1.15541558     -6.01552707     -2.06266843
O       0.72906735     -3.97597406     -0.26975911
H      -0.09500845     -4.19591790     -0.72720541
H       0.46779571     -3.77229055      0.64855387
O      -5.98033302     -1.09089641      1.33703685
H      -6.02399391     -0.20060097      1.70645102
H      -5.05809399     -1.22203369      1.07604120
O       4.18783019      3.57934276      2.76344802
H       4.02875725      4.16668402      2.01270324
H       4.83437365      2.93035658      2.43447212
O      -0.44249115      1.05958273      2.90240005
H       0.46399975      1.38681066      2.75988035
H      -0.81114532      1.61102292      3.60787669
O      -6.45330249     -0.70963345     -1.28035269
H      -6.48121417     -0.95676038     -0.32811614
H      -5.64044048     -1.09706041     -1.61328233
O      -1.31297964      0.72014748     -5.62547153
H      -1.76016850      0.80213393     -6.46868903
H      -1.74720336     -0.01104597     -5.15448466
O       1.76867969     -4.85647347     -2.64669079
H       2.46090830     -4.30262197     -3.01379768
H       1.66935435     -4.58963604     -1.71677257
O      -0.24641099     -3.40335521      2.20710898
H      -0.20748029     -4.12704586      2.83376753
H       0.12261799     -2.62087483      2.68460940
O       3.11620664      1.86316571     -0.15797725
H       3.25005348      2.82883895     -0.12366453
H       2.30300703      1.73471050     -0.66281201
O       0.74560796      4.13746481      1.22816557
H       1.19907375      3.40505200      1.72777706
H       0.26277832      4.66684131      1.89915914
O      -1.97964800      2.85456970      4.42865862
H      -2.62549843      2.46965545      5.02258037
H      -2.41704504      2.98657324      3.57325124
O      -5.59906010      1.72497938      1.62695540
H      -5.57665666      2.60098250      2.01663208
H      -5.91396504      1.83938324      0.69327701
O      -0.94309716      5.17595490      3.01729167
H      -0.92332193      4.66567792      3.83439026
H      -1.69044274      4.82455120      2.51352431
O       7.45804704      0.14345297      0.10773995
H       8.13121842     -0.27915735      0.64327288
H       6.78519245     -0.53274895     -0.07248777
O       3.20513844      4.62178907      0.24023050
H       2.27127833      4.61222589      0.53852271
H       3.27553572      5.28852093     -0.44304131
O       2.01600736      2.13212185      2.35872418
H       2.79680113      2.61336044      2.73142772
H       2.36930566      1.68164557      1.57145405
O       0.74301107     -1.35912200      3.60474808
H       0.22197810     -0.56214761      3.41117205
H       1.63041041     -1.16098231      3.26530516
O       5.52040088      1.67796239      1.35648285
H       6.31149489      1.32538415      0.91660205
H       4.80500822      1.60901668      0.71184828
O      -6.22321923      1.89365051     -0.93033824
H      -7.03506794      2.29953474     -1.23709294
H      -6.30622335      0.92769306     -1.14787409
