96
charge=0
F      -0.13313829     -0.49383623      3.30821637
F      -0.32634934      1.42423853      4.33500375
F      -1.65355244     -0.23699545      4.83210935
F       3.31893839      1.20781224     -1.53941189
F       2.65716895      2.61111853     -3.06844441
F       3.74413031      0.81244222     -3.63437193
F      -5.36182441      3.90332742      2.06260796
F      -6.35950644      1.97822135      1.85674932
F      -5.57759099      2.60147817      3.79052704
N      -1.87506647      0.97838567     -0.70051566
N      -1.56045488      0.77160236      1.53614567
O      -2.10002015      1.15528160     -2.96998913
C      -2.57171953      1.39790155     -1.72073111
C      -1.98260851      0.88478792      2.76838024
C       0.35871575     -1.57535869     -2.99667288
C      -0.86390095     -0.90705980     -3.04283725
C       1.54762264     -0.85944406     -2.92282106
C       0.29846728      1.22173161     -2.94352425
C      -3.80632247      2.08829484     -1.61393220
C      -3.20191474      1.47866433      3.14127613
C      -0.86846847      0.47820361     -2.99939769
C       1.50731186      0.53509085     -2.91087765
C      -4.31916518      2.30030179     -0.36439814
C      -4.00290944      1.96593218      2.13337914
C      -2.35438133      1.21032403      0.53771055
C      -3.60262328      1.84836285      0.77815402
C      -1.01352680      0.37330776      3.81872557
C       2.79688406      1.29267211     -2.79646178
C      -5.31569123      2.61917863      2.47544820
H       0.37923520     -2.66018100     -2.98662635
H      -1.80258375     -1.45146473     -3.05634403
H       2.49734329     -1.38067812     -2.85195873
H       0.25479166      2.30119237     -2.85506482
H      -4.32810017      2.42913997     -2.50087600
H      -3.48807040      1.53960191      4.18597233
H      -5.26703826      2.81801596     -0.27034464
O       3.34410892     -0.64799566     -6.46597381
H       3.55629146     -1.00013949     -7.33649826
H       2.36846411     -0.74392172     -6.38227999
O      -1.75436113     -2.08707164      0.00682641
H      -0.91512902     -2.59138416      0.07934688
H      -1.46265682     -1.19450408     -0.22544588
O      -4.44579521     -1.17651931      4.98346871
H      -3.78279494     -1.49736552      4.34946236
H      -5.20099649     -0.98582397      4.40999259
O      -3.29194837     -1.82003395      2.38488619
H      -4.18081466     -1.71597622      2.02521186
H      -2.71378338     -1.97333517      1.60812076
O       2.60732529     -1.41073625      0.55547557
H       3.26269471     -1.49915152     -0.16268887
H       2.17179446     -0.54426091      0.42672523
O       2.21273884      2.06220790     -6.22785169
H       2.47020475      2.64079829     -5.50293298
H       2.92332413      1.40259830     -6.28383619
O       1.66675433      0.05785948      5.88894252
H       2.16379738     -0.42562577      6.55397207
H       0.85265182      0.34133813      6.34654730
O      -0.62973799      0.97163998      7.44445340
H      -0.54992118      1.93049839      7.46026891
H      -1.54264393      0.82198739      7.13517091
O       0.35301853      3.37601299     -0.59098896
H       0.73677267      2.62742778     -0.09496203
H       0.84665729      4.14077998     -0.28143047
O       6.22730685      2.13880786     -1.58762757
H       5.32463264      2.12190208     -1.24805450
H       6.77724722      2.27638811     -0.80940309
O       0.72255401     -3.39272750      0.17988602
H       1.39802046     -2.68723528      0.32105520
H       0.77348048     -3.93383786      0.97395647
O      -6.37783084      4.09882046     -2.11414266
H      -7.26755468      4.13609727     -2.47871214
H      -6.08208039      5.01474325     -2.11470049
O       5.18223435     -1.87718888     -4.58685181
H       4.67724707     -2.24310775     -3.84875785
H       4.51797966     -1.44806265     -5.15463757
O       1.25049868      1.05200383      0.84778686
H       1.69889301      1.08268563      1.72130825
H       0.33890888      0.76479907      1.05434298
O       6.53633048     -0.62671006     -2.41214476
H       6.26808128     -0.78416109     -3.33635116
H       6.46700474      0.33276919     -2.26679128
O       4.45352757     -2.10409043     -1.54010684
H       4.83284475     -2.91857928     -1.19362543
H       5.23604738     -1.51918266     -1.72428930
O      -6.22604483     -1.01131860      2.56143646
H      -6.96867835     -1.62042893      2.49526763
H      -6.54731101     -0.17999075      2.19397084
O       2.77342077      0.53265797      3.16057447
H       2.35907445      0.39832252      4.03124137
H       2.91691835     -0.35664739      2.81117775
O       0.60197273     -0.29802818     -6.24255761
H       0.82194256      0.64400904     -6.12058279
H       0.20774968     -0.56874870     -5.40424826
O      -3.46854669      0.87684761      6.63474592
H      -4.06688201      0.93825554      7.38510970
H      -3.80696381      0.12052529      6.10709499
