109
charge=0
O      -0.63569680      0.82116786      2.69677025
O      -0.76496433     -1.64783055      3.14649185
O       1.14176320      3.26623526      1.22996203
O       2.72086955      2.07499992      2.78179268
O      -2.95504584      1.20343448     -0.88412470
O      -3.43442005     -1.05040328     -1.86062275
O       1.87565806     -0.56447950     -4.07432653
O      -0.29491705      0.09485145     -4.16913439
O       1.78229894     -0.83533273     -1.76565599
O       1.42764569     -0.63280629      2.37143777
O       2.42996705      1.22612936      0.40808664
O      -1.18704915     -0.61269562     -0.75324197
C       0.57647116     -1.22211564     -6.01221123
C       1.28166325      1.18634822     -5.60407210
C       1.24876263     -1.25802273     -2.99727638
C       0.86129409     -0.12987958     -4.99383562
C       1.31224425     -0.85517596      0.94002444
C      -0.22612056     -0.78131637     -3.04502993
C       1.02418754      0.30074102     -1.30081105
C       0.73610696     -0.15214905      4.79845808
C       3.78393645      3.39898601      0.70964095
C      -3.25873086     -0.85035460      0.82780207
C       1.19802056      0.46813430      0.19592179
C      -0.40959186      0.05995579     -1.77627493
S       0.01506741     -0.40450791      3.18298959
S       2.39753258      2.52709666      1.41274924
S      -2.81037426     -0.26421585     -0.78774969
H       0.25817661     -2.14297557     -5.51314707
H       1.47782924     -1.43503415     -6.59327459
H      -0.21905725     -0.90210430     -6.69071370
H       1.46763883      1.92432393     -4.81852561
H       2.19362813      1.05146849     -6.19152469
H       0.49308194      1.55722301     -6.26440234
H       1.41839063     -2.33521804     -3.07355755
H       0.47227941     -1.51395298      0.69954908
H       2.23532623     -1.37480917      0.67586329
H      -0.94357902     -1.60527868     -3.11623731
H       1.38246540      1.21653813     -1.79076557
H      -0.09025205      0.14865048      5.44982342
H       1.47010692      0.65243275      4.71376011
H       1.19258907     -1.09234909      5.11407077
H       3.51217891      3.67321782     -0.32224234
H       4.64511365      2.72648906      0.75389116
H       3.94044694      4.27520317      1.34498129
H      -2.63245625     -0.32917543      1.55640251
H      -4.31425423     -0.56079672      0.93741638
H      -3.11634080     -1.93656881      0.86096246
H       0.34911825      1.04716065      0.56970473
H      -0.86919498      1.02416222     -2.00519490
O      -1.09275831      5.27730682      3.28617711
H      -1.91535163      4.77888599      3.44643925
H      -1.01045330      5.26424499      2.32564177
O      -0.42479650     -4.36749083      1.84210715
H      -0.43188463     -3.55237825      2.36146294
H      -0.05648801     -4.10358550      0.97590825
O      -2.17876884     -3.66692909     -2.34682259
H      -2.75869682     -4.45616135     -2.34842536
H      -2.77733895     -2.90526908     -2.30794729
O       0.25273750     -3.48825901     -0.78088582
H      -0.49366677     -3.63482094     -1.38734116
H       1.04210161     -3.84750637     -1.23072948
O      -3.11199683      3.17473078      3.49210468
H      -2.60975742      2.64557536      4.14518386
H      -2.70083898      2.98435297      2.62665291
O       0.64818066      3.55146568      4.64667442
H       0.16011930      4.20996531      4.10495704
H       1.24250359      3.11177560      4.02496406
O      -6.05119809      0.67820649      0.94277551
H      -5.97667415      1.32912954      1.66993620
H      -6.26849468      1.20913384      0.17118794
O      -5.81046995      2.53729026      3.04699911
H      -4.88402556      2.76467601      3.27230082
H      -6.20502509      2.24531846      3.87363468
O       2.51906234     -4.37076572     -2.22166093
H       2.61474200     -5.32801581     -2.22012008
H       3.40783913     -4.02669778     -1.98124138
O      -1.47195053      2.07308412      5.55714161
H      -1.73102279      2.49319888      6.38380245
H      -0.67294527      2.57768554      5.26292434
O       2.72464492      3.84716473     -2.21483553
H       1.76236641      3.73249182     -2.15450913
H       3.06447242      3.03135535     -2.62135559
O       4.79605700      0.00187764      1.81703809
H       4.06579169      0.37634641      2.33066899
H       5.28218434     -0.55874418      2.42908109
O      -2.12191263      2.50136083     -3.64309674
H      -2.79090600      2.11134976     -3.06473321
H      -1.68486854      1.74130963     -4.05383632
O       3.91999950      1.37322562     -3.17678564
H       4.42632534      0.92549026     -2.48374261
H       3.31799660      0.68885707     -3.50710327
O      -0.12136702      3.31574708     -1.74805798
H      -0.52177950      3.72723701     -0.97121284
H      -0.83212255      3.26134539     -2.41427908
O       4.57965289     -0.67515349     -0.99563994
H       4.63013122     -0.41507533     -0.05692692
H       3.62946692     -0.71396272     -1.19858765
O      -1.77805313      3.17106084      0.95668802
H      -0.91509094      2.83736864      1.24348832
H      -2.14834695      2.47967463      0.38309685
O      -3.76821556     -5.88111052     -1.60838466
H      -4.72199991     -5.91010653     -1.73010450
H      -3.64028014     -5.57216081     -0.69020648
O      -2.90979366     -4.24168229      0.52612355
H      -2.45159342     -3.91770331     -0.26459266
H      -2.16834864     -4.43461642      1.13888857
O       5.03988211     -3.35967025     -1.59777668
H       4.98317550     -2.41375190     -1.34278560
H       5.64259667     -3.37273646     -2.34774772
