87
charge=0
O       3.16842217      5.80226544     -1.06989118
Cl     -0.43606900      2.73924694     -6.16645396
Cl     -2.33544112      4.34095160     -4.66477008
Cl      0.44806138      5.18473662     -4.85105432
N       1.93700639      5.84008738     -1.15659030
C       1.30138690      4.68338583     -1.65210467
C      -0.13345450      4.54162634     -1.38324332
C       1.92026173      3.84503001     -2.51881794
C      -0.86047768      3.74023586     -2.17358226
C      -0.72766658      5.29061630     -0.22860641
C       2.02731148      2.02248643     -4.22122074
C      -1.05220353      1.59925291     -3.38760909
C      -0.62115254      3.74234516     -4.66947680
C       1.20895390      2.67832239     -3.10736541
C      -0.31417743      2.94671254     -3.35142630
H       2.95627150      4.02535534     -2.79892587
H      -1.91713759      3.60782884     -1.95943734
H      -0.16093001      5.10155206      0.69130314
H      -0.68573241      6.37056275     -0.40752979
H      -1.76254071      4.98517957     -0.06516648
H       2.99745721      1.72816410     -3.80691161
H       1.55225468      1.11668397     -4.60079488
H       2.20060178      2.70569365     -5.05658147
H      -0.98112904      1.15178510     -2.39463102
H      -2.10978702      1.73585182     -3.62863511
H      -0.60886085      0.91179797     -4.11066263
H       1.16502201      1.95883616     -2.26407120
O      -3.22626687     -0.98804555     -4.20061246
H      -2.37269263     -1.31527009     -3.85491626
H      -2.99621652     -0.47188620     -4.97903098
O       3.39015878      0.62304891     -1.14132531
H       3.67365749      1.53555887     -0.98480320
H       3.01817610      0.32768455     -0.29294062
O      -0.48669224     -4.00466611     -1.16908019
H       0.34076237     -3.72301975     -0.74259057
H      -1.14561934     -4.05049939     -0.45968503
O       2.54802667     -0.80230173      1.31668427
H       3.31082216     -0.55509172      1.86170625
H       1.78801306     -0.50503698      1.86625510
O       4.22233943      3.36638575     -0.34117634
H       3.93857257      4.22909927     -0.72123059
H       5.08909646      3.52782556      0.04444427
O      -0.38341191      2.55667819      2.83420826
H       0.38443775      2.88407118      2.33772304
H      -1.11990803      2.58284753      2.18618132
O       2.10098389      0.04896701      5.21310846
H       1.38483006     -0.10145365      4.55603807
H       1.74191819      0.71020953      5.81342109
O       1.66567176     -1.05912037     -2.70460694
H       1.93131790     -1.79366732     -2.12770250
H       2.14276698     -0.30536141     -2.31439539
O      -1.04217260     -1.62216931     -2.50156774
H      -0.89978999     -2.51820044     -2.12246174
H      -0.13346940     -1.25513818     -2.58587680
O       0.46368990     -0.02562891      3.02522623
H       0.12229980      0.90628003      2.95729750
H      -0.24717628     -0.57405987      2.63142988
O       2.12165737      2.45659168      1.42239046
H       2.66261167      1.98079072      2.07814269
H       2.77981020      2.89075534      0.85189411
O      -1.39609690     -1.16480152      1.37878501
H      -1.66187175     -2.09656398      1.28162583
H      -2.23629400     -0.68879888      1.52466078
O       2.11002156     -2.93546746     -0.42272738
H       2.85236967     -3.54538009     -0.37331966
H       2.29519517     -2.24804730      0.25267702
O      -4.65104412     -2.01036281     -0.00494647
H      -4.13059007     -1.41722124     -0.63755020
H      -5.43125254     -2.29149599     -0.49346817
O       0.07707210      0.95638830     -0.21552689
H       0.77719246      1.30807302      0.36240113
H      -0.17357780      0.09987239      0.16492550
O      -3.95473977      0.08984747      1.75119464
H      -4.49191554     -0.56955800      1.27433597
H      -4.32857554      0.15392458      2.63524972
O      -2.25003589      2.39223804      0.70201044
H      -2.94957401      1.73178925      0.80830234
H      -1.56195055      1.93322152      0.18269665
O       3.81970362      0.90246342      3.26557117
H       4.66893454      1.20307417      3.60161740
H       3.29400117      0.64390297      4.06159740
O      -2.62206111     -3.70145765      0.84410998
H      -2.91905165     -4.32485661      1.51354535
H      -3.43121362     -3.25154208      0.51314005
O      -3.21474482     -0.34714370     -1.41233302
H      -2.33017506     -0.75022590     -1.57753836
H      -3.53461329     -0.24043367     -2.32596582
