75
charge=0
O       0.55207837      0.63201400      5.70312756
O      -0.05926909      2.19863292      1.56679857
I       3.62016361     -3.93101111      3.01031801
I       3.01686579     -2.72305205     -0.28564699
I       2.05225912     -2.25584744      5.78485641
I       0.65827132     -0.03546838     -0.72840838
O       0.11141549      1.66451328      3.74242137
C       0.61652656      0.61550615      4.50946248
C       0.25318930      1.38414289      2.39569038
C       2.40273782     -2.23489944      2.69255428
C       2.13755538     -1.77148576      1.38842404
C       1.87194509     -1.55546985      3.80743621
C       1.33687382     -0.63897029      1.16283052
C       1.19022734     -0.37375084      3.57009071
C       0.93994733      0.07793956      2.27827645
O      -2.09004181     -1.03185095      5.09236024
H      -1.43254380     -0.85852685      5.77427637
H      -2.02948296     -1.98450708      4.88903961
O       0.89009796     -2.45985582     -3.58431571
H       1.17441899     -2.86136447     -2.75366173
H       1.28887343     -1.55619054     -3.57203423
O      -2.96203639     -2.02502609     -0.62120831
H      -3.24182095     -1.10272845     -0.42053034
H      -2.51029547     -1.95755576     -1.47723775
O      -2.11076072     -3.66213520      4.03795019
H      -2.85538834     -4.21959860      4.28504854
H      -1.30829953     -4.23933342      4.11896184
O       3.93453116      0.86438650      0.80068355
H       4.85451064      1.01127698      1.04169269
H       3.61626495      1.75344356      0.53144269
O      -1.34254621     -2.64842323      1.43933322
H      -1.86807966     -3.05448357      2.15220026
H      -1.95471831     -2.51468705      0.66422337
O      -0.60461650      5.09166732      1.80573759
H       0.25930480      5.24496423      1.39284808
H      -0.58255794      4.14626725      2.02140659
O       1.10512324      5.27907145     -0.59772897
H       1.68894345      5.92003087     -1.01576815
H       0.22582646      5.43037001     -0.98098542
O      -1.97718493     -0.02480551      2.43985889
H      -1.68612875     -0.88869558      2.08683233
H      -2.15394573     -0.21198793      3.38175325
O      -3.59978915      0.58035542      0.16939258
H      -3.17620132      0.52420723      1.04606247
H      -3.09711552      1.27105355     -0.29069611
O      -1.69108031      2.53262897     -1.03925829
H      -1.04515975      2.36453306     -0.33595150
H      -1.85243038      3.49557591     -0.99776962
O       1.92737302     -1.67626998     -6.27351072
H       1.60516565     -2.33767230     -5.64455678
H       1.43250504     -1.83471992     -7.08260913
O      -1.76251361     -1.64557427     -3.29787122
H      -0.87520877     -2.04560549     -3.43592901
H      -2.33531467     -2.03347271     -3.96687144
O      -0.67212256      1.00422919     -3.18762670
H      -1.08251599      1.64048681     -2.56810411
H      -1.27858271      0.24538310     -3.25023581
O       0.11571212     -5.19811462      4.02190943
H       0.32637745     -5.16663405      3.06037932
H       0.88373710     -4.81312340      4.46028358
O      -1.77790046      5.32401364     -0.62617225
H      -1.55060273      5.31260715      0.33763307
H      -2.53925857      5.90387608     -0.72188218
O       1.83279971      0.09911291     -4.02012863
H       1.91027793     -0.08427809     -4.97099184
H       1.00990839      0.61145802     -3.89283840
O       3.95710686      1.17029205     -2.27146950
H       3.93580292      0.64337854     -1.45877651
H       3.29645919      0.76534799     -2.85672920
O       3.23644595      3.24288130     -0.47515959
H       2.36284561      3.65448126     -0.53927669
H       3.36021648      2.73747588     -1.30157957
O       0.31454713     -4.88700031      1.28146088
H      -0.19319018     -4.04978653      1.19214058
H       1.15051912     -4.73094952      0.82849357
