82
charge=0
Cl     -0.77565182      5.10466257      2.62906504
Cl     -1.77418574      3.73304293      4.99792184
Cl      1.04987987      4.55492042      4.82702365
N       0.82641547      0.03781987      5.83104276
N       0.93567375     -0.60101940      4.68516286
N      -0.00030560      2.36919683      2.03368810
C       0.01580560      2.55547951      3.31536244
C       0.47630946      1.32354045      5.61185165
C       0.35224330      1.51798843      4.24102968
C       0.68470881     -0.29875848     -0.38849718
C       0.98527193     -1.37471297      0.45890222
C       0.35836880      0.93418352      0.13855661
C       0.97370235     -1.22086641      1.83363979
C       0.33028573      1.12741988      1.52957870
C       0.65516017      0.02943129      2.35806348
N       0.65032609      0.28518996      3.71785103
C      -0.34368226      3.92713572      3.87361182
H       0.33918176      2.02473949      6.42065639
H       0.70940289     -0.43598621     -1.46585805
H       1.23973050     -2.33828083      0.03030047
H       0.12723817      1.77360892     -0.50630307
H       1.21352730     -2.03817403      2.50404131
O      -2.13841154     -0.90126692      5.10711037
H      -1.52052688     -0.63817298      5.80026659
H      -1.69834461     -1.64250813      4.65258626
O      -2.44168965      1.03059509     -2.13258818
H      -1.76992170      1.73259073     -2.23501108
H      -2.53256540      0.86072327     -1.17729018
O      -2.94306712      0.88458850      3.13779775
H      -2.89977430      1.79651865      3.44413153
H      -2.57869130      0.34139225      3.86869623
O      -0.87226857     -3.35971367     -1.94183820
H      -1.17940995     -3.23333426     -1.02596121
H      -1.26447246     -2.61718074     -2.44176818
O      -1.71576414     -1.13992499     -3.47880866
H      -2.37821621     -1.25330010     -4.16724748
H      -1.99671314     -0.32763068     -2.96772677
O      -1.78297811     -3.17297435      3.39168429
H      -1.57984543     -4.03016413      3.78055770
H      -2.76493005     -3.05199433      3.49012718
O      -4.83777511     -1.86078973      0.87474368
H      -4.31426711     -1.05253891      0.66595310
H      -5.68306787     -1.76226088      0.42669077
O      -4.36560713     -2.43940298      3.59164372
H      -4.28538613     -1.62658239      4.10642051
H      -4.67088037     -2.16065404      2.70530434
O       4.43005472      0.20114672      0.66221656
H       3.88895243      0.57962292      1.38308474
H       4.02209467     -0.63348458      0.37891902
O       3.75747003     -1.63057334     -1.39574862
H       3.70128301     -0.83660915     -1.94114836
H       3.07087673     -2.22246031     -1.74800329
O       3.03428812      3.62519010      0.39054541
H       3.34399512      3.09594331     -0.36267550
H       2.16945472      3.98485910      0.10245825
O      -2.85558194      0.00697427      0.51513489
H      -2.24593672     -0.75400516      0.53678410
H      -2.78102878      0.41657442      1.40436804
O       1.71583323     -3.27748727     -2.55863155
H       1.96629304     -4.12281034     -2.94312269
H       0.76688931     -3.37623833     -2.27109010
O       1.07514242     -0.91289574     -4.11688237
H       0.10822679     -0.97676880     -4.01095368
H       1.41183019     -1.73716093     -3.72548752
O       1.77081782      1.64319275     -3.30210711
H       1.60951897      0.71737577     -3.58699856
H       2.51704481      1.61439888     -2.67723380
O      -2.01595253     -2.75445671      0.59457137
H      -1.75301560     -2.97881924      1.50890044
H      -2.97092570     -2.91924652      0.56861814
O       0.43929244      4.45981446     -0.33473626
H       0.01100634      3.96195248      0.37738808
H       0.12731246      4.03665599     -1.15579611
O       4.02619200      1.62278925     -1.54097836
H       4.21957996      1.10356071     -0.70626663
H       4.88392574      1.84490594     -1.91712531
O       3.11509196      1.91044824      2.51242720
H       3.79084607      2.25543653      3.10450817
H       3.04234997      2.58967894      1.79375784
O      -0.40747379      2.96408017     -2.64089738
H       0.42578181      2.47220125     -2.90863761
H      -0.63218347      3.51611789     -3.39702202
