85
charge=0
O       1.56935058     -4.04138163     -1.18172366
O       0.33621724      0.08581912      0.78537515
Cl     -0.99305349      5.57456057     -1.90104207
S       0.11320225     -0.54796949     -4.18436155
C       1.17279082     -2.86979011     -1.16848522
C       0.56070766     -2.16465210     -4.69416675
C       0.96941578     -2.02559056     -0.07149015
C       0.92105029     -2.93404155     -3.65572122
C       0.53342083     -0.70729211     -0.17479862
C       0.44604412     -0.98860221     -2.55084499
C       0.59498954      3.40277573     -2.29709208
C      -1.58775584      2.99437577     -1.30578997
C       0.88692266      2.04814024     -2.19137193
C      -1.29583791      1.63942291     -1.21064111
C      -0.63510333      3.85726892     -1.83886211
C      -0.05665148      1.18417576     -1.64743097
N       0.85707549     -2.26081065     -2.44344176
N       0.29164116     -0.19934604     -1.48257320
H       0.51211773     -2.44191734     -5.73642167
H       1.16406172     -2.42191307      0.91774830
H       1.21874796     -3.97151834     -3.64814118
H       1.32688918      4.08783822     -2.71051030
H      -2.54078962      3.37293376     -0.95340647
H       1.84880833      1.66295102     -2.51325242
H      -2.01561172      0.94554142     -0.78795975
O       3.27568612     -0.38975974     -2.39404746
H       3.72399548      0.38177482     -2.77066698
H       3.55594229     -0.37118859     -1.46105823
O      -4.32306456      1.71783854     -2.95481701
H      -4.43745171      1.84839153     -1.99156206
H      -3.59348855      2.30033511     -3.19103061
O       3.60568278     -2.32283639      3.38166739
H       3.11021230     -3.03570677      2.95519102
H       4.40969884     -2.28980625      2.82000862
O       3.93977737      3.00759052     -0.16125921
H       4.31164877      3.78968210      0.25820264
H       3.05897745      2.88494302      0.25865035
O      -3.35344731     -2.13677305      0.79099395
H      -2.66274662     -1.81234920      1.43437249
H      -3.57860125     -3.02800234      1.07746125
O      -3.60980048     -0.85238057     -3.78470959
H      -3.91203526      0.03163783     -3.48750920
H      -4.39927009     -1.28696550     -4.12080695
O      -5.00419452      0.09858150      1.36731300
H      -4.57076461      0.32289795      2.21183635
H      -4.57000620     -0.73213457      1.09073800
O      -1.23843787     -4.84953459     -2.44124533
H      -1.59411195     -3.97153493     -2.21279298
H      -0.52097093     -4.98441476     -1.81216309
O      -3.30285735      0.99476361      3.49607739
H      -3.13125164      1.87174464      3.05732309
H      -3.49275709      1.19009347      4.41848611
O      -4.65596488      2.22358708     -0.17570368
H      -4.79869037      1.38633212      0.35846960
H      -5.49019380      2.70088347     -0.10275419
O      -3.04012046      3.25428044      2.09810485
H      -3.45363394      3.04022736      1.24643425
H      -2.16205423      3.63997028      1.89770506
O       3.18930393     -4.34570885      1.07906840
H       3.42393180     -5.26799178      1.22017883
H       2.60704280     -4.35144857      0.29007645
O       2.54806536      0.07833914      2.54581198
H       2.87813308     -0.73929222      2.99182632
H       1.69676683     -0.17602520      2.15200319
O      -1.60631843     -1.05700067      2.50248890
H      -2.08703365     -0.33801625      2.95493049
H      -0.90484812     -0.61084239      1.99441218
O      -0.52551419      4.43169937      1.66197610
H       0.22212024      3.81567605      1.54294988
H      -0.46609231      5.04535518      0.92211371
O       4.09350865      2.44027248     -2.95628052
H       4.10898214      2.71784270     -2.02139730
H       4.94722633      2.70360109     -3.31203774
O       5.46295120     -2.41339334      1.25423265
H       4.84472972     -3.06569947      0.88845469
H       5.24242257     -1.58553782      0.79611781
O       4.22112879      0.06700179      0.30621607
H       3.62018718      0.07748786      1.08681910
H       4.49686827      0.98988292      0.20882877
O       1.57938713      2.51611240      1.27137923
H       1.07030081      1.76472505      0.89598648
H       1.97659637      2.10888955      2.05915130
O      -2.10917604     -2.15109476     -1.79107097
H      -2.59864823     -2.14973815     -0.94906943
H      -2.70709242     -1.75019832     -2.45254648
