64
charge=0
O      -1.04730019      0.64993801      0.05323124
Br     -0.83150115      3.50633635     -2.93958595
C      -0.86075826      2.34747798     -1.59393153
N      -0.96966206      1.50386558     -0.80667785
O       1.21271529     -2.53639342     -0.63029888
H       1.15394177     -2.95838039     -1.49924438
H       0.29395480     -2.45460628     -0.29807538
O      -3.79064940     -1.93689719     -0.47010561
H      -2.95989492     -2.35441734     -0.18418557
H      -3.54749606     -1.45297602     -1.28010122
O      -3.66460186      0.14839400      1.32655833
H      -2.79889169      0.42852375      0.98255762
H      -3.87297369     -0.62011662      0.73990226
O       2.40052463     -2.58994448      1.97368376
H       1.61173154     -2.79207172      2.50976448
H       2.11550453     -2.72133282      1.05181651
O      -0.39837402     -0.22572838     -3.88095712
H      -1.22686304     -0.29029836     -3.37672602
H       0.06434402     -1.06891264     -3.75334311
O       3.72912095     -0.30671504      2.32465853
H       4.57540815     -0.63803770      2.64236223
H       3.17134800     -1.12635268      2.20267676
O      -3.09536632     -0.29162039     -2.75774185
H      -3.58056274     -0.56709173     -3.54287608
H      -3.45615092      0.60196769     -2.53932401
O       1.89707798      1.28094456     -3.23193560
H       2.33298959      0.49631131     -2.83826896
H       1.00960249      0.94431259     -3.46635314
O       2.47080585      2.90627555     -1.20751170
H       2.80821247      3.72796403     -1.57703436
H       2.17198364      2.36398050     -1.99058708
O      -4.04859143      2.20628366     -2.12359650
H      -4.43251108      2.27882054     -1.21401265
H      -4.72670684      2.56347755     -2.70485800
O      -0.32717084      1.47072843      3.09973813
H       0.53937178      1.52306237      3.53366405
H      -0.14969860      1.90463815      2.24389570
O       0.99418259      3.15578659      1.22857069
H       1.42270818      3.05258235      0.36054268
H       1.70271861      2.99220382      1.86811255
O      -1.44279371     -0.92776740      2.92580649
H      -0.97903335     -0.04490146      2.98018166
H      -2.38379994     -0.70717523      2.84972152
O      -1.21576249     -2.60250063      0.69985416
H      -1.04480238     -3.35653085      1.28132730
H      -1.23646255     -1.85079124      1.33419971
O       2.51368695      1.90623463      3.48658936
H       3.05940549      2.24498068      4.20186021
H       2.97742408      1.10843911      3.15233803
O       3.11006839     -0.86722265     -1.87393322
H       3.72052813     -0.30334072     -1.34337165
H       2.45568883     -1.19964211     -1.23238214
O      -0.04166806     -3.22674899      3.37785683
H      -0.58138262     -2.41186523      3.46443159
H      -0.04553606     -3.64393024      4.24400505
O       1.55895629     -2.47600974     -3.54644914
H       1.84806744     -2.95252774     -4.33037597
H       2.33465752     -1.96533978     -3.24932586
O      -5.08409195      2.30265121      0.39128660
H      -4.82587508      3.05074069      0.93883926
H      -4.66602080      1.51885036      0.82218939
O       4.39227070      0.93648133     -0.23297327
H       4.11654182      0.62088829      0.64526212
H       3.80925384      1.69010687     -0.43548326
