96
charge=0
O      -5.82987081      1.67903239      1.47975465
O       1.58602649     -0.47301417      1.13977242
O      -0.35274419     -1.35595444     -0.15428372
N      -3.07599227     -3.81719927     -0.59317614
N      -3.83210267     -2.99089630      0.19304164
N      -0.45635016      0.96414577      1.20851425
S      -5.25304190     -0.66179788      0.00211756
S       2.33450454      0.41822177     -1.93780924
C      -4.61264061      1.51559034      1.47638326
C      -3.03888022     -3.28360178     -1.79970381
C      -4.21928626     -1.97900865     -0.55952836
C       2.08632206      1.77295399     -2.97481055
C       0.96441942      2.49085646     -2.64803205
C       0.27364472      1.95423583     -1.53536001
C      -4.02906616      0.39509162      0.69251405
C      -2.69543409      0.23829235      0.54551448
C       0.89730795      0.83067271     -1.05190954
C      -1.76468730      1.08908434      1.23248422
C      -3.27524058      4.35607779      3.53231337
C      -1.90242899      4.14588828      3.43742145
C      -4.15399590      3.50332685      2.87741550
C      -1.40207821      3.08738719      2.68922452
C      -3.66359623      2.43119970      2.13671508
C      -2.27618574      2.21655030      2.03573556
N      -3.74576265     -2.12498635     -1.83083798
S       0.38807596     -0.15728158      0.31583779
H      -2.53639540     -3.70682282     -2.66147595
H       2.81612345      1.96740764     -3.74983203
H       0.67748564      3.40594723     -3.15232896
H      -0.60291118      2.40357834     -1.08701652
H      -2.30037242     -0.58198556     -0.03618798
H      -3.66326657      5.18052888      4.12239270
H      -1.21352849      4.80756478      3.95418938
H      -5.22549133      3.65656438      2.94736420
H      -0.33221120      2.92954828      2.61351642
H      -3.76272980     -1.42475332     -2.59792410
O      -3.90986927     -0.09202822      3.45900066
H      -4.18240722     -1.02736353      3.38329781
H      -4.41535798      0.28732088      4.20056174
O       4.58060383     -0.45041725      0.97989943
H       4.92779822     -0.80084521      0.11609525
H       3.62129021     -0.55517826      0.91693914
O       5.10329764      3.07652843     -1.53856219
H       5.05195789      2.80284577     -0.60442406
H       4.33483617      3.66532331     -1.66876066
O      -0.02785051     -2.16631037     -2.90439344
H       0.63469201     -2.88492141     -2.83952021
H      -0.22850357     -1.95417613     -1.97694898
O       4.84834994      2.16788884      1.17896694
H       4.81685505      1.16650824      1.10466054
H       5.56283397      2.35772114      1.79527787
O       1.88751654     -3.36813070      1.11976179
H       2.42300171     -3.71776690      1.83928370
H       1.75578112     -2.42709266      1.32523823
O       5.39229726     -1.39972504     -1.42439350
H       4.65781448     -2.00663561     -1.63208909
H       5.31212109     -0.66513102     -2.06237351
O      -4.44359468     -2.86224851      3.02885009
H      -3.79226522     -3.38668680      3.50466945
H      -4.22776090     -3.00707812      2.08382289
O       1.03570728      4.46675104      0.17197646
H       1.43758674      3.80128688      0.78108950
H       0.80457259      5.20633635      0.74241824
O      -1.30825537     -4.08291897     -4.56368859
H      -1.42177140     -3.88895728     -5.49884189
H      -0.96795856     -3.26112401     -4.16765915
O      -7.45166101      2.32613680      3.69917981
H      -6.99307319      2.13395343      2.86113378
H      -8.27594886      1.83297444      3.64404938
O      -0.23217587     -4.89127025     -0.30989530
H       0.27154600     -4.30877381      0.27933902
H      -1.15981109     -4.61025586     -0.23571541
O       3.01693390     -2.96995603     -1.53957497
H       2.73874139     -3.21413081     -0.64110821
H       2.69694510     -3.69311715     -2.09796440
O       5.15098144      0.89507578     -3.15525706
H       5.16883474      1.69740365     -2.57286379
H       5.93197174      0.97332279     -3.71136197
O       1.08065606     -4.76264442     -2.75442219
H       0.49977254     -5.03941911     -3.47564690
H       0.56421580     -4.91909302     -1.93067398
O      -3.41245872     -0.13536587     -3.71116481
H      -3.87922825     -0.03045201     -4.54519799
H      -2.45604047     -0.00914692     -3.92779258
O      -0.75250252      0.08975716     -4.31765656
H      -0.27099718      0.86528862     -4.00111955
H      -0.31060561     -0.66653064     -3.88001732
O       2.19215606      2.69978157      1.93033504
H       1.81002431      1.81262710      1.91782025
H       3.14151188      2.56223467      1.72644169
O       2.93484233      4.92701205     -1.86175917
H       2.26364635      4.79520510     -1.15836909
H       3.31425458      5.79178158     -1.67671904
O      -5.37850385      1.42050633      5.41012977
H      -6.17821826      1.71736806      4.93336824
H      -5.70126901      1.03926702      6.23167843
