86
charge=0
N       1.48009280      3.10906796      1.71287067
N       1.30527095      2.05184696      2.32128533
N      -0.30791849      1.31646949     -0.82414194
C       0.31691765      1.69695952      0.21464621
C      -0.95162585      0.00611338     -0.92371502
C       2.10673851      3.27893482     -0.64644347
C      -0.08868389      4.20680412      0.19220660
C      -0.63280418      0.55926791      2.30425004
C       1.63169169     -0.14956042      1.35254783
C       0.93700869      3.08073250      0.32079158
C       0.61122720      0.98363289      1.52098557
H      -0.83458080     -0.37144471     -1.94496173
H      -2.02898903      0.13495484     -0.75548446
H      -0.57675379     -0.75059027     -0.22703934
H       1.73178814      3.29425242     -1.67469996
H       2.59352379      4.23669230     -0.43807779
H       2.84938839      2.48022486     -0.55557154
H       0.38309901      5.15972497      0.44982542
H      -0.44120199      4.25638395     -0.84168688
H      -0.94630371      4.03890532      0.84970982
H      -0.34867489      0.36182497      3.34302695
H      -1.06066510     -0.35595857      1.88815056
H      -1.39543099      1.34410335      2.28484759
H       1.21123387     -0.97514413      0.77516600
H       2.53335309      0.21342825      0.85078233
H       1.91407475     -0.53670367      2.33765461
O      -3.49862963      1.77072857     -3.68755087
H      -3.70676660      1.79633270     -4.62591739
H      -2.54988980      2.03784106     -3.61110452
O       1.44585698      2.67814153     -4.37067340
H       1.79014856      1.88448845     -3.89915251
H       1.53324855      2.47022919     -5.30533264
O       4.36389055      0.50461143     -1.20314423
H       5.23105622      0.70439367     -1.56650710
H       4.51853594     -0.22002933     -0.54739344
O       2.81503239     -3.57815965      0.96125789
H       3.05488853     -4.43937301      0.60662797
H       1.83873290     -3.50887445      0.86017055
O      -2.48623733     -3.78522785     -0.16488271
H      -2.81426459     -4.68344730     -0.27220878
H      -2.60526772     -3.34179909     -1.05801240
O       0.10726133     -3.21314534      0.97845317
H      -0.21433354     -3.14594299      1.89571129
H      -0.65997105     -3.52218193      0.46838674
O       1.20556608     -1.53908128      4.95498351
H       1.86254207     -2.15787619      4.56840388
H       0.38729829     -1.72435172      4.47454329
O       4.77237973     -1.42564772      0.66606592
H       4.77398674     -1.06339480      1.57186355
H       4.09485571     -2.12245570      0.67943171
O       4.73112760     -0.57091276      3.41022112
H       4.03215856      0.00602942      3.83131396
H       5.55454832     -0.34210417      3.85141922
O      -4.41494107     -0.49364505     -2.20355884
H      -4.45909082     -0.21611704     -1.26250421
H      -4.10236609      0.28914440     -2.69472011
O      -3.29315835      2.74461947      0.85239346
H      -3.26445269      3.16374013     -0.04066518
H      -3.84989622      3.33093961      1.37464499
O       2.08583066      0.48988721     -2.81105803
H       2.93331277      0.45410891     -2.31717697
H       1.43158021      0.66738735     -2.12266871
O       3.28137317     -3.03987766      3.79946894
H       3.13526501     -3.31331893      2.87837180
H       3.91989382     -2.30751389      3.72846534
O      -2.72315495     -2.50042562     -2.44606717
H      -3.36993792     -1.73490682     -2.37460745
H      -2.97068148     -2.97168523     -3.24694805
O      -3.30944709      3.90081801     -1.65429149
H      -3.83575666      3.34035538     -2.24385069
H      -2.43614635      3.86756736     -2.08066005
O      -3.37329047     -2.22389827      1.93466377
H      -3.16101716     -2.80677070      1.16894473
H      -4.29434140     -2.40614645      2.15073343
O      -1.12838349     -2.78205585      3.53465759
H      -1.29210963     -3.49663529      4.15867205
H      -2.00138064     -2.54779295      3.16018583
O       2.76209073      0.79589106      4.60389263
H       2.28521595      1.37123880      3.97761829
H       2.12582962      0.07889383      4.81018321
O      -1.04637619      2.78278022     -3.06642178
H      -0.25794616      2.85172687     -3.64448904
H      -0.72232811      2.28654764     -2.26624877
O      -4.37509835      0.18693342      0.51024351
H      -4.00160390      1.07678547      0.68330023
H      -3.83714817     -0.43006954      1.02785708
