110
charge=0
O      -0.03643086      4.32072757      3.12776334
O       3.28496704      4.17078037      1.17372829
O      -0.69515046      2.36649919      2.43956873
O       2.61155426      4.06875073      3.24126649
N       0.98944805     -0.58178533     -2.34504293
C       1.23261904      0.40983809     -1.54550149
C       2.47960638      0.77262590     -0.94275476
C       2.48095174      1.74182203     -0.00131714
C       0.04047175      2.12813885     -0.22140716
C       1.24801002      2.39373159      0.43155869
C       0.02618102      1.15041934     -1.19456064
C       1.25773089      3.21695799      1.58521622
C      -2.30608773      0.44918248     -1.32578927
C      -2.67995364     -0.79368396     -0.96759307
N      -0.98488113      0.58151091     -1.88052970
N       0.12471104      3.31621511      2.43524475
N       2.44274116      3.86818120      2.04806401
C      -3.11430489      1.68737746     -1.05734798
C      -3.96963892     -1.05317113     -0.24687161
C      -1.78610187     -1.96071928     -1.29384065
C      -4.57222070      1.33530520     -0.75809565
C      -4.63473131      0.21809521      0.28166150
C       0.32397209     -1.17448911     -5.08484904
C      -0.35183369     -2.53734135     -4.88524915
C      -0.32433160     -0.04899024     -4.26706690
C      -0.52055070     -2.89884924     -3.40267708
C      -0.39571910     -0.47110490     -2.76816539
C      -1.24595096     -1.75403340     -2.70322790
H       3.38913924      0.25314440     -1.22769647
H       3.40125547      1.99918091      0.50314411
H      -0.85278819      2.66850826      0.05384239
H      -2.71861305      2.22005238     -0.18507399
H      -3.02593753      2.38788760     -1.89592031
H      -3.75613597     -1.74995702      0.57633433
H      -4.64612463     -1.60206869     -0.92327218
H      -2.34603837     -2.90153971     -1.23132629
H      -0.97227971     -2.01859193     -0.55920938
H      -5.09061252      2.23104880     -0.40089908
H      -5.08638890      1.01216172     -1.67663304
H      -4.11553245      0.55749381      1.18635409
H      -5.67174835      0.00822410      0.56623902
H       0.28274112     -0.89706832     -6.14511877
H       1.38297851     -1.24654591     -4.81382435
H       0.22263993     -3.31324474     -5.40448024
H      -1.34806923     -2.51708099     -5.34991361
H       0.25185947      0.87658339     -4.34775547
H      -1.34627678      0.14375395     -4.60998038
H      -1.11932770     -3.81281150     -3.30298589
H       0.44977415     -3.09803319     -2.93424600
H      -2.12704007     -1.53588140     -3.32654462
O      -2.34441606     -5.25141013      0.41009117
H      -2.29850503     -4.43119656      0.92908609
H      -2.28126479     -5.93819741      1.08798680
O      -0.25155485     -0.53145365      1.59682735
H      -0.29470658      0.35513581      1.98454173
H       0.66924744     -0.83312149      1.72964770
O       0.30835148      5.29405886     -1.51641401
H       1.18760905      5.71393934     -1.44011513
H       0.47366807      4.46264056     -2.00258922
O      -3.49883138      2.90946967      2.42126087
H      -3.85020746      3.40404637      3.16881764
H      -2.55531262      2.78789635      2.63088732
O      -1.80917768      3.19653549     -4.31156233
H      -2.40025126      2.42930622     -4.31454588
H      -2.19890145      3.83956145     -3.67450721
O       2.31632282     -4.53579278      2.20810388
H       1.69419860     -4.67781763      1.46867870
H       3.19005923     -4.66175660      1.79530172
O       2.32333811     -1.69571516      1.74179192
H       2.32812513     -2.59755916      2.11873947
H       2.51047035     -1.85185122      0.79857033
O       0.73224141      3.11157413     -3.32549199
H      -0.17846721      3.08360170     -3.71492745
H       1.26395983      3.55987912     -3.99182247
O      -1.29651090     -3.01810360      1.97842419
H      -0.91533976     -3.41538188      2.78940272
H      -1.09392278     -2.05676728      2.00509208
O      -3.38496648      4.87519335      0.25246216
H      -2.61304198      5.37696222      0.58428790
H      -3.51555201      4.18025382      0.91864108
O      -3.67006281      0.78418498     -4.23239477
H      -3.63246657      0.45043838     -3.32420076
H      -4.57478082      1.09609297     -4.34324576
O       2.93038912      6.12808527     -0.93548489
H       3.08423226      5.45863073     -0.24748101
H       3.04268093      6.96905599     -0.48095911
O       2.43769683     -2.78621182     -0.96856008
H       2.13235939     -2.15339619     -1.64165754
H       1.64516587     -3.31299892     -0.73561561
O      -2.51169884      5.08490746     -2.43777582
H      -1.63957255      5.44167161     -2.20725528
H      -2.93105830      4.91883518     -1.57015313
O      -0.93064204      6.12205447      0.86796993
H      -0.47914734      5.84203055      1.67367434
H      -0.42464551      5.73408237      0.12702710
O      -1.79198014     -6.92890558      2.91988121
H      -1.48596842     -7.84221533      2.89664152
H      -2.52691906     -6.93246977      3.54367176
O       2.60946878      0.90799255      2.91997106
H       2.72957599     -0.02238194      2.66927114
H       2.96939949      0.98781011      3.80789990
O       4.47102080     -4.32646775      0.33683378
H       3.94430371     -3.80152557     -0.29085302
H       4.88630424     -5.01118605     -0.19516539
O       0.37371521     -4.28357331      0.17394970
H      -0.14543374     -3.71532077      0.79498401
H      -0.31334312     -4.89793613     -0.13306561
O      -0.05772366     -4.65192754      3.90618458
H      -0.44160374     -5.49203550      3.61624001
H       0.86719483     -4.69300667      3.61487666
