103
charge=0
O       1.06519064     -0.16479553      1.63696352
F      -0.74436936     -8.27325124     -0.68965678
N      -1.06628953     -3.55312500     -0.85119263
S      -5.39144442     -2.43478858      0.62229200
C      -1.78351248     -2.50323812     -1.06038566
C      -4.19386364     -1.63207006     -1.51240479
C      -3.21123712     -2.36180649     -0.76745390
C      -3.70053347     -2.85671476      0.41790880
C      -5.41014808     -1.55974678     -0.90553624
C      -2.11675886     -7.22489856      0.91487355
C      -0.99509628     -5.93808078     -0.80812555
C      -2.68715763     -6.04901121      1.39359449
C      -1.29525023     -7.14144390     -0.19516605
C      -1.55532702     -4.74795047     -0.31973853
C      -2.42284653     -4.82148411      0.79322336
N      -2.98758154     -3.62954567      1.31522352
N      -1.15673945     -1.37767430     -1.62394934
C      -6.63672302     -0.84712320     -1.36676510
C       0.30553483     -1.44597188     -1.77306940
C      -1.51027352     -0.06760888     -1.04488852
C       1.24150034      1.16094015     -0.28217735
C       1.00872721     -1.30586592     -0.42733310
C      -0.89724023      0.08086306      0.34015066
N       0.60859039     -0.05338414      0.32063061
H      -3.99438151     -1.14927898     -2.46444142
H      -2.30783158     -8.18314780      1.38468449
H      -0.31360305     -5.90392415     -1.65204235
H      -3.34753267     -6.08162298      2.25617237
H      -3.39867536     -3.69091736      2.24645067
H      -6.99809885     -0.13857454     -0.61262135
H      -7.45665562     -1.54157163     -1.58479297
H      -6.40116531     -0.28503099     -2.27496920
H       0.59081125     -2.41086957     -2.19789071
H       0.60704063     -0.65851486     -2.47456839
H      -1.17514458      0.71540887     -1.73375685
H      -2.59227985      0.03195502     -0.94197063
H       2.32049881      1.00057336     -0.29717381
H       0.86709798      1.33325919     -1.29305660
H       0.99622598      2.01007375      0.35869793
H       2.09381290     -1.27478367     -0.54640412
H       0.73173537     -2.14224088      0.21739960
H      -1.12625771      1.05827556      0.77640909
H      -1.26437343     -0.70321065      1.01211115
O       4.18640075     -1.82588429     -1.39806246
H       4.05934277     -2.62276195     -0.83270891
H       4.64398019     -2.14221356     -2.18216322
O      -0.39881694      2.76705276     -2.82558562
H       0.37624350      3.00018892     -3.34733031
H      -0.42015252      3.42062914     -2.09633114
O       0.47233371     -2.42545042      2.92353640
H       0.75443223     -1.60813127      2.42022036
H       1.02387790     -2.44393440      3.71345436
O      -0.20992177      1.37400636      3.50725439
H      -0.61895002      2.12072034      3.03481612
H       0.21644030      0.85007868      2.78250620
O      -1.41980336      3.27243774      1.68606547
H      -1.04882680      3.76269151      0.92229261
H      -2.35063103      3.51062114      1.71619050
O      -4.49323627     -1.72081179     -5.09458422
H      -4.83062595     -0.85106588     -4.79214579
H      -4.91395359     -2.36508798     -4.51608927
O      -2.53450780      1.61033282     -4.43531711
H      -1.91824779      2.10331427     -3.87050066
H      -2.13479000      0.71993767     -4.54008729
O       2.25666756      4.52973292     -0.26758034
H       2.75748899      3.93857566     -0.86861066
H       2.55786376      4.27181554      0.63263115
O      -4.10455038     -2.91283293      3.94101128
H      -4.97847995     -2.51176535      3.91641708
H      -3.48375689     -2.15747512      3.91046422
O       1.34305127     -4.65102025      1.36752680
H       0.62248708     -4.98671846      0.81770724
H       0.94663139     -3.93263973      1.89769430
O       3.61608716      0.64923627      2.28602070
H       2.72470015      0.32996420      2.01103033
H       3.49822337      0.90605504      3.21239306
O       3.65799731      2.72910614     -1.91461225
H       4.08272347      2.02764297     -1.36741690
H       4.39277761      3.15724375     -2.36495881
O       2.24706461      2.16743450      4.49818355
H       1.31983630      1.92245255      4.27349421
H       2.24748059      2.34442683      5.44325791
O      -5.11411209      0.85444155     -4.11965263
H      -4.19987312      1.23372434     -4.15521554
H      -5.62004808      1.39004479     -4.73862999
O      -2.04740074     -1.06559271      3.45225660
H      -1.65238878     -0.21820828      3.70987339
H      -1.28202723     -1.65588472      3.33403463
O      -1.75745173     -1.08022494     -4.56986821
H      -1.65616954     -1.32395343     -3.63497043
H      -2.62871864     -1.44620507     -4.82155482
O       3.22365602      3.54440654      2.11082996
H       2.78964965      3.46855774      2.97447143
H       3.48585474      2.62298299      1.94018356
O       3.72701110     -4.04338266      0.13332633
H       2.84602620     -4.23651927      0.52928090
H       4.35836926     -4.26852406      0.82255384
O       4.78817766      0.73909869     -0.37101865
H       4.64685415      0.70256791      0.58843662
H       4.66795125     -0.17780139     -0.68699065
O      -0.30522228      4.48942221     -0.59035395
H       0.70204892      4.51744326     -0.44966355
H      -0.56012902      5.40523741     -0.74576441
