96
charge=0
N       2.16170433     -6.76176740     -1.86605134
C       1.75946708     -5.99749841     -1.09013540
O       1.58268422     -5.23673804      1.14726240
O      -1.64321730      2.42035771      0.12370650
C       1.05308832     -4.17932163      1.81125004
C       1.28518129     -5.04556320     -0.17700995
C       0.57366796     -3.89104733     -0.34668295
C       0.41159611     -3.32018573      0.95356112
C      -0.69674736     -1.79241685      2.59349393
C      -1.35229499     -0.60693002      2.89354262
C      -0.52635388     -1.11214428      0.29879522
C      -0.27631563     -2.07533671      1.28501411
C      -1.61991520      0.34458540      1.88684275
C      -1.17028805      0.08588408      0.57035384
N      -2.26571376      1.51118286      2.17196531
C      -2.95280737      3.77687452      1.59296232
C      -0.10740885      1.37349016     -1.32494042
C      -2.53770243      0.74859125     -1.44264838
C      -2.69701951      2.37167098      1.09729956
C      -1.38032297      1.12695363     -0.51941948
H       1.25653815     -4.15422189      2.87008118
H       0.23213695     -3.49966916     -1.29553977
H      -0.53197089     -2.51516420      3.38848028
H      -1.68265590     -0.41029020      3.90961154
H      -0.18144518     -1.30269564     -0.71300890
H      -2.51637979      1.73390057      3.12747761
H      -2.03980812      4.21654407      2.00794831
H      -3.72220610      3.75834799      2.37128423
H      -3.31037588      4.40125633      0.77007400
H       0.15806475      0.48425293     -1.90151378
H      -0.27211267      2.19186214     -2.03163192
H       0.72979768      1.63056210     -0.66814848
H      -2.72349856      1.56192324     -2.15338293
H      -3.45229752      0.53692746     -0.88165710
H      -2.28178039     -0.15967822     -1.99700899
H      -3.60045508      1.96394729      0.61948312
O       4.72395726     -4.92975014      0.08903676
H       4.32082344     -5.80368984      0.11049051
H       4.46639146     -4.48621965      0.93562329
O      -2.98040038     -3.89009080     -0.75259903
H      -2.30570185     -4.53020840     -0.50423927
H      -2.59402836     -3.39571914     -1.50693312
O       4.30468820     -3.44469899     -2.07593861
H       4.42918942     -4.01431119     -1.26509764
H       5.19196178     -3.32416093     -2.43071158
O       0.69076883     -2.24392006     -3.39098804
H       1.31285207     -1.78908838     -2.79689601
H       1.18876361     -3.03110206     -3.69786188
O      -5.07518157     -0.00447167      1.42003746
H      -4.63784183     -0.88234879      1.27814366
H      -5.98729417     -0.13392531      1.14075650
O       2.39955442     -4.37523763     -4.01245839
H       3.10985130     -4.18458701     -3.37229693
H       2.17004807     -5.29510528     -3.83649088
O       4.06284193     -3.53566394      2.33891634
H       4.84972986     -3.36223809      2.86574704
H       3.80213327     -2.64585760      1.98308022
O       0.66405055      2.97845250      1.83788848
H       0.31230280      3.02059860      2.75037916
H      -0.11251404      2.79229572      1.27873729
O      -3.77822921     -2.38112809      1.43159766
H      -3.54547399     -2.89933353      0.62847637
H      -2.91858008     -2.12889602      1.79520818
O       1.83686417      4.88428030      0.01137237
H       1.51996394      4.31866591      0.73521860
H       1.29044768      5.68072681      0.06014518
O       1.03471953      4.86211038     -2.75574736
H       1.43448297      4.59327003     -1.90751872
H       0.13036762      4.50881565     -2.70303191
O       1.73524178      0.51677454      2.78786350
H       0.92638355     -0.01131018      2.71564511
H       1.51195288      1.33738336      2.30221912
O      -4.72922679     -0.04639064      4.18687688
H      -4.87873711      0.04592488      3.21787060
H      -4.67663094     -0.99719810      4.32764650
O      -2.79863812      1.63876444      5.13306779
H      -3.19606166      2.28586462      5.72328359
H      -3.52098136      1.00664135      4.90578087
O       0.04146886      2.45689058      4.56803759
H      -0.80998979      2.06214882      4.81073625
H       0.66066402      1.71524741      4.51918336
O      -1.96369452     -2.44388624     -2.90176122
H      -1.00305756     -2.37052010     -3.11567151
H      -2.40105310     -2.59890520     -3.74420194
O      -1.77749055      4.56202307     -1.88118625
H      -1.51444423      5.41344858     -1.49783344
H      -1.73623231      3.93233517     -1.14455130
O       2.70494891     -1.23555500     -1.56171343
H       3.13795467     -0.43007899     -1.86723974
H       3.34766706     -1.95951616     -1.74457308
O       3.45510136     -1.12965784      1.28838585
H       2.89850876     -0.52197431      1.81741778
H       3.04499248     -1.15685502      0.40863323
O      -0.05023289      6.89513924     -1.19676338
H      -0.05630434      7.82376507     -1.44640669
H       0.42707491      6.42669238     -1.91720843
