98
charge=0
O       0.93530407      0.77269911      0.75611079
Cl      5.77084252      1.24400921     -4.11184719
Cl     -1.11170796      7.19553505      1.83271661
Cl     -0.45850481     -6.28847341     -0.39702323
Cl      5.49047813     -1.04607704     -1.99349691
Cl      3.24110376      2.86185709     -5.00745579
Cl      1.59413186      6.20581618      0.60998396
Cl     -3.67224387      5.40939636      1.59736995
Cl     -1.44224441     -4.72672019     -2.92272702
Cl     -0.04144451     -4.77079389      2.30778728
Cl      2.67777852     -1.68429343     -0.75620067
Cl      0.41523137      2.10729158     -3.81660079
Cl      1.77157222      3.39542090     -0.71978885
Cl     -3.49577763      2.63941235      0.13292273
Cl     -1.97417356     -1.65025634     -2.73583744
Cl     -0.41426697     -1.66361683      2.42182112
O       0.51299868      0.04348052     -1.75593991
O      -0.84995597      1.91121694     -0.77006594
O      -1.25241529     -0.44177205     -0.14640577
C       4.23099699      0.88191971     -3.42285133
C      -1.02207184      5.65089305      1.06650672
C      -0.69109089     -4.57652306     -0.31964100
C       4.10937917     -0.13500100     -2.47079791
C       3.09947505      1.59502448     -3.82958264
C       0.18826904      5.20154904      0.53563795
C      -2.16011002      4.84428185      0.97589084
C      -1.11550457     -3.87687348     -1.45165547
C      -0.47745833     -3.89686683      0.88108725
C       2.86319965     -0.41831969     -1.90414677
C       1.85265607      1.29257618     -3.28301039
C       0.27000164      3.93861907     -0.05759512
C      -2.08469013      3.59184883      0.36492851
C      -1.30809185     -2.49640346     -1.38878325
C      -0.63905164     -2.50903188      0.93650315
C       1.74928144      0.32574994     -2.28525955
C      -0.85944208      3.12274532     -0.11152088
C      -1.02900269     -1.81252845     -0.20658241
P      -0.02895833      0.59488156     -0.33569035
O      -4.80231675     -0.14552736     -1.07916288
H      -4.28484423      0.37127084     -1.71771591
H      -4.34515255     -0.03626059     -0.23226252
O       4.36592182      1.57652743      0.28453700
H       4.09466008      0.83353875      0.86366002
H       5.32791686      1.55814808      0.30740491
O       2.15162626     -4.79790664     -2.37928967
H       1.50097550     -5.47021298     -2.60582674
H       1.83404090     -3.98587952     -2.82580502
O       1.20866383     -2.49744096     -3.70247621
H       0.35056828     -2.61630964     -4.12303815
H       1.79623216     -2.13081263     -4.39644453
O      -4.08212629      1.22199794      6.08352273
H      -4.33121110      1.66913272      5.25166033
H      -4.89527120      0.82546110      6.40997099
O       2.82914968     -4.75404955      0.33654252
H       2.60494526     -4.72189129     -0.61791847
H       2.40043431     -5.55160178      0.66170815
O       0.22334765      5.52429258     -3.04433068
H       0.90423325      4.84002384     -3.04254472
H       0.48692305      6.12264162     -2.33547646
O      -3.73489232     -0.32685105      1.82677948
H      -2.87753120      0.12430106      1.78106917
H      -4.28375559      0.31944697      2.29884291
O      -3.03967940      1.42477147     -3.08618053
H      -2.21801351      1.03850275     -2.76500694
H      -2.89707765      2.37688662     -2.94980398
O       1.29591268      0.62683672     -6.89633522
H       0.43589969      0.69013731     -6.46470347
H       1.69234283      1.49522952     -6.75265688
O      -2.36638109      4.29840108     -2.71556230
H      -2.98074537      4.87880911     -3.17507243
H      -1.49272607      4.71243284     -2.84238920
O       2.88798935     -1.27790867     -5.55553614
H       3.37541462     -1.82304823     -6.18079786
H       2.37613000     -0.64634910     -6.09894998
O       0.42980031      3.39164254      3.08114397
H       0.46195479      3.78961455      3.95672140
H       1.35916362      3.10229483      2.91115849
O       3.19720465     -0.12010470      2.21341996
H       2.32176654     -0.02154094      1.80562412
H       3.30169301     -1.08835845      2.31959155
O      -1.68392553      1.61780252      2.82973042
H      -1.61706259      0.95649210      3.55108870
H      -0.88940721      2.19138628      2.90755711
O       3.06623544      2.69208526      2.77406528
H       3.43343540      2.74362511      1.87760719
H       3.16631362      1.74680683      2.97516314
O      -4.30139709      2.15059510      3.43740409
H      -4.67375344      2.93582924      3.02267552
H      -3.33971687      2.17244151      3.21281381
O      -4.02903678     -2.82423764      0.03931926
H      -4.39822882     -2.21489518     -0.61814987
H      -4.02181758     -2.27775909      0.83574352
O       3.11711263     -2.91494993      2.47063348
H       3.07010853     -3.50169310      1.69002661
H       2.29488511     -3.08587566      2.94236953
O      -2.17384203     -0.38179053      4.73344657
H      -2.73693348     -0.89854735      4.14279360
H      -2.80329406      0.07235808      5.32973348
