83
charge=0
N      -2.73397759     -0.29743074      1.74659671
N      -0.80087735      0.43329931     -0.93873610
N       2.24220028      2.41129443     -0.88237048
C      -3.72121764     -1.18406725      1.77729991
C      -0.84959743      0.08142266      0.31199344
C       0.13347870      0.45263436      1.27838362
C      -3.59243920     -2.16433883      0.77779486
C       1.15158544      1.24202590      0.87544048
C      -2.42724211     -1.83722404      0.09441365
C       1.24450893      1.65593938     -0.49728639
N       2.29309817      2.66020366     -2.29475515
N      -1.76443344     -2.50153352     -0.89995101
N      -1.94813583     -0.70456178      0.69490748
N       0.26054930      1.15673131     -1.32625478
H      -4.49898227     -1.09852206      2.52556057
H       0.06612896      0.08700217      2.29854622
H      -4.20628040     -3.03623641      0.61427571
H       1.92272579      1.55723987      1.56800353
H       3.15662117      3.17967476     -2.43467166
H       2.45729472      1.75821026     -2.76076455
H      -2.37341127     -2.96448520     -1.56411552
H      -1.02633292     -1.98542739     -1.36700976
H       0.20549777      1.40315683     -2.31448395
O       4.54725571      1.04213686     -0.16896227
H       4.70150583      1.06488869      0.79430821
H       3.74717482      1.61461426     -0.28574623
O       0.76030809      3.26717051      3.68054075
H      -0.06687953      2.87514967      3.36095085
H       1.22661853      3.62497780      2.90368397
O      -3.41511621     -2.50944063     -3.48344928
H      -2.63445481     -2.01378606     -3.83387402
H      -3.73688043     -3.02624329     -4.22795374
O       5.23174470      0.13206307     -4.04213759
H       5.49661906      0.94374531     -3.56139035
H       5.06491145      0.41335395     -4.94652191
O      -6.14857976     -3.42382639      2.44490168
H      -6.63340910     -4.24868707      2.54513762
H      -6.38999506     -3.11420967      1.54478191
O       2.36699048      1.04357794      4.18111880
H       1.80263255      1.84720351      4.13656330
H       1.72818588      0.31736124      4.30197190
O      -1.13560801     -1.28799117     -4.39550932
H      -1.10220774     -0.31869028     -4.41513954
H      -0.38993163     -1.53845469     -3.81879916
O      -6.96789204     -2.69931685     -0.13558134
H      -7.78046625     -2.18453028     -0.14012367
H      -6.37690044     -2.22414290     -0.76361663
O      -3.61920572     -3.83947002      3.74179629
H      -3.88332587     -3.60719704      4.63733631
H      -4.41188261     -3.65726982      3.20118078
O       0.87569447     -1.97204006     -2.47042001
H       1.69079363     -1.42731738     -2.39320782
H       1.17895718     -2.88227923     -2.39860262
O       5.64810058      2.31770943     -2.33645174
H       5.44574654      1.88516094     -1.47504764
H       6.50270718      2.74178836     -2.21320189
O      -1.04114672      1.59449168     -3.89559665
H      -1.85098527      1.70049411     -3.38311442
H      -0.72696230      2.50827625     -4.06733531
O      -1.76267035      1.65123991      3.57712459
H      -2.48309086      2.12146037      4.00747820
H      -2.19016405      1.05167185      2.91885287
O       0.00391551     -0.52773555      4.59340979
H      -0.66192984      0.17247229      4.50499470
H      -0.39360396     -1.31000691      4.16553166
O       3.11267765     -0.37954310     -2.29179110
H       3.58946920     -0.22513738     -1.45863286
H       3.81089600     -0.36108503     -2.97917311
O       0.17373780      4.03925011     -3.69533494
H       0.55103425      4.64884766     -4.33607311
H       0.93756183      3.67195161     -3.18868034
O      -1.06373076     -2.72680986      3.11565368
H      -1.98242042     -3.03037821      3.25938743
H      -0.54651925     -3.53756359      3.10803744
O       4.42963054      1.63850553      2.61439000
H       3.69749049      1.28564631      3.19124567
H       5.17240713      1.76618808      3.21220355
O       2.78279508      3.99482066      1.68336370
H       3.46382486      3.39479867      2.02971580
H       2.66576395      3.70139941      0.76472269
O      -5.25889455     -1.18623028     -1.72839698
H      -4.69860958     -1.61274969     -2.40573278
H      -4.64265275     -1.01797931     -1.00043871
