106
charge=0
O      -2.39364823      1.99357467     -1.66583365
O      -0.01240580      2.54573617     -0.68095818
C       1.51981949      1.58174856     -2.22563461
C       0.81549795      0.32658856     -2.19023892
C       2.59767322      1.05334899     -2.89283671
C      -0.39953567      0.03273252     -1.67143204
C       6.39782098      2.39617534     -4.18078598
C      -2.17783491     -3.85197833     -1.89612950
C      -2.14099302      0.38564031      3.45336278
C       6.02567444      1.06612217     -4.35988327
C       5.51339044      3.29476014     -3.58332186
C      -2.98644923     -2.71794637     -1.96844566
C      -0.80434096     -3.70940560     -1.70921530
C      -3.08237645      1.08298820      2.70101547
C      -0.91377170      0.03220660      2.89326767
C       4.77468961      0.63314897     -3.94631652
C       4.26194481      2.87099837     -3.16927017
C      -2.42296163     -1.44759979     -1.85978080
C      -0.23776330     -2.44602503     -1.61737231
C      -2.80723386      1.42087748      1.37946374
C      -0.63489973      0.36455816      1.57426582
C       3.87415298      1.52982432     -3.34693721
C      -1.03475191     -1.29328996     -1.70953041
C      -1.58392800      1.05544117      0.81475076
C       0.98252367      2.86118164     -1.71432351
C       1.96405512     -0.34594781     -2.95501007
P      -1.20674173      1.45804371     -0.90064944
H       7.37818470      2.73385947     -4.50324661
H      -2.62103198     -4.84022404     -1.97720957
H      -2.36839946      0.10486886      4.47850560
H       6.71599963      0.36493518     -4.81868629
H       5.80603926      4.33051297     -3.44044574
H      -4.05886624     -2.81608654     -2.11086480
H      -0.16704330     -4.58484118     -1.62375980
H      -4.04055129      1.35163639      3.13461387
H      -0.18035695     -0.51806584      3.47490992
H       4.48528973     -0.40649205     -4.07391080
H       3.58134654      3.57552600     -2.69985388
H      -3.07333374     -0.57734054     -1.90861201
H       0.83082184     -2.35742727     -1.45630708
H      -3.54349288      1.95895783      0.79132231
H       0.31502503      0.07405189      1.13248789
H       0.48927278      3.42802169     -2.51719092
H       1.72828679      3.48938376     -1.21695329
H       2.49515839     -1.15053901     -2.43489065
H       1.69078475     -0.69169205     -3.95888911
O      -5.45910264      0.10365193     -3.63336711
H      -4.59237450      0.18604204     -4.06498080
H      -5.50205337     -0.77729937     -3.20874472
O       2.28995486     -1.10496670      2.15988653
H       2.89573172     -1.85593988      2.33045727
H       2.65487764     -0.68797172      1.35084757
O       4.75533850      2.18334464      1.57958676
H       4.49032359      3.03810843      1.19053180
H       4.22952898      2.11029559      2.39212666
O       3.91771174     -3.39629175      2.06835128
H       4.31899740     -3.92482743      2.76447764
H       3.24434204     -3.98418406      1.61872449
O       2.03365931     -4.70172749      0.69776217
H       1.22933926     -4.22561868      0.99228787
H       2.21653683     -4.38714750     -0.20793630
O      -8.09617636      0.30228760     -2.26454667
H      -7.77001725      0.89678961     -1.57832567
H      -7.54585037      0.52324135     -3.02879069
O      -1.30642914      3.69160390     -3.93128105
H      -1.87315498      3.48993206     -3.17431331
H      -1.56873450      3.02104734     -4.57432828
O      -2.68741985     -2.40148342      1.25717054
H      -2.72947858     -2.64024503      0.31739090
H      -3.20918369     -3.08055301      1.70050277
O       0.25017412      2.77565457      4.53346129
H       0.34601107      3.29847448      3.72178917
H      -0.54403479      2.25306985      4.36923093
O      -5.21965826      1.50883013     -1.22089116
H      -4.34593440      1.91965723     -1.31216459
H      -5.33408796      1.06227890     -2.08882581
O       0.12971887     -3.06787130      1.92493567
H       0.69242578     -2.27598994      1.95040545
H      -0.75577196     -2.75964108      1.67189336
O      -6.24101897     -1.97869514     -1.88995572
H      -5.87776813     -1.70709279     -1.02289680
H      -7.07889567     -1.48712444     -1.93614803
O       3.42889529      4.43308160      0.37441973
H       2.63674543      4.22198604      0.91726203
H       3.63910187      5.35098513      0.57253072
O       2.52828442      1.43607590      3.36361886
H       2.41533755      0.48856571      3.14749124
H       1.86958150      1.65566578      4.04664368
O      -5.19153410     -0.77095397      0.46058841
H      -5.11802446      0.08080204     -0.01909644
H      -4.30422968     -0.96618464      0.79200017
O      -2.70143590      0.87972699     -4.31539406
H      -2.08240542      0.14096668     -4.33742162
H      -2.60229676      1.23962374     -3.41291334
O       1.30107877      3.36478708      1.78237942
H       0.70512794      3.01647890      1.10069928
H       1.73831511      2.57498545      2.17486531
O       4.87605167     -2.25434889     -0.41183331
H       4.78864306     -2.63521977      0.48001549
H       4.58845358     -1.32952853     -0.30456163
O       2.95857702     -3.59467862     -1.78508826
H       3.36838068     -4.22717137     -2.38307341
H       3.71286946     -3.12524214     -1.34451233
O       3.58864600      0.27208915      0.09538452
H       3.18336905      0.71822785     -0.66077484
H       4.07381218      0.98607584      0.59499853
