70
charge=0
Cl      3.30792949      2.81703075      2.29713177
Cl     -0.89214902      0.12624385      4.37695564
C      -0.48508928      2.39561695      1.09440058
C       0.86414309      2.76288471      1.14645665
C      -1.02985404      1.56747517      2.09152987
C       1.63914651      2.31602645      2.20420109
C       1.13497974      1.49794809      3.21548057
C      -0.20408835      1.14246349      3.12987441
H      -2.06667213      1.24894204      2.04808127
H       1.75929308      1.15954465      4.03268295
O      -3.12062412      3.94864395      3.07272724
H      -2.28746423      3.48529062      3.23163516
H      -2.87254462      4.87699692      3.00703494
O       2.29059162      1.62375376     -2.79070632
H       2.88725887      2.20952461     -2.28694249
H       1.27940075      3.39032639      0.36637298
O       2.14737049     -0.79363871     -1.20572906
H       1.22316151     -0.72550964     -0.86625876
H       2.24698529     -1.73189317     -1.44438886
O      -1.95213600      0.19445464     -2.31980499
H      -1.35249094      0.92065294     -2.64515089
H      -2.84946720      0.58536975     -2.24915994
O      -4.73194036      0.06773223      0.70953430
H      -5.52569483     -0.21921724      1.17086600
H      -4.13829582     -0.73868873      0.66572041
O       3.53573488     -3.39069175      1.18610333
H       3.94890053     -4.19982891      1.50079856
H       3.13810518     -3.61004668      0.31344687
O       4.11377009      3.21282053     -1.26242423
H       4.67444257      2.61888219     -0.71810719
H       3.85141865      3.91030800     -0.65496642
O      -0.31910433     -4.02012340     -0.67008539
H      -0.88534792     -3.47527521     -1.24714026
H      -0.49839391     -3.68225128      0.22783126
O       2.23550633     -3.67857968     -1.22693416
H       2.46800924     -4.28968603     -1.93260998
H       1.26031615     -3.83348212     -1.03791310
O       1.55681544     -1.79305639      2.52886774
H       2.17716151     -2.46249807      2.18637557
H       1.95225270     -0.96589797      2.21413293
O      -0.36236075      2.29271430     -2.80201883
H       2.34236016      0.76603963     -2.33589939
H       0.60470688      2.08723390     -2.83760080
O      -0.40038613     -0.66756144     -0.21743699
H      -0.46964663     -0.14207422      0.58972830
H      -1.02404444     -0.25090967     -0.85568125
O       3.75185909     -0.42977638      1.00101315
H       3.20627681     -0.50571568      0.18177678
H       4.06103964     -1.33696349      1.14342917
O      -3.79858519      2.67834107      0.60137845
H      -4.14690978      1.78249846      0.79196437
H      -3.79997375      3.16025726      1.44950530
O       5.67377768      1.46685072      0.27273363
H       5.04572843      0.78218006      0.59116070
H       6.29890825      0.98877405     -0.28063961
O      -4.56066066      1.16074638     -1.96337989
H      -4.52129676      2.08810502     -1.69967270
H      -4.81018371      0.70668928     -1.13885205
O      -2.22011096     -2.47906873     -2.19783696
H      -2.71523263     -2.86037981     -2.92890036
H      -2.06240023     -1.53363443     -2.43624089
O      -1.21502493      2.85025850      0.06092178
H      -2.19370580      2.69349884      0.21255102
H      -0.49198626      2.69072286     -1.93046422
O      -0.87848272     -2.83913272      1.90977460
H      -1.06720284     -3.33462800      2.71295356
H      -0.04978982     -2.33830625      2.10802192
O      -3.25347538     -2.10209776      0.49006323
H      -2.42220163     -2.18510317      0.99382284
H      -2.99219299     -2.25872391     -0.43603982
