95
charge=0
O       3.31663032      0.10719544      0.96862924
O       0.69247653     -4.84445868      1.29530551
O       3.30868049      0.15848515     -3.82326461
N      -1.21860051     -3.68632132      0.83637993
N      -1.09648797     -1.26276590      0.66848990
O       1.46222124      1.43546433     -3.91053013
O      -0.30186763      4.02143437      2.31632879
O       1.19472065      2.00666160      0.94475382
S       2.52305035     -2.33091726      1.65350528
S       0.63505870      2.94659638     -1.47490577
C       2.37961431     -0.63194770      1.12364857
C       0.07713895     -3.78477720      1.23622953
C       2.36012210      0.69825331     -3.26955510
C      -1.75807971     -2.47507055      0.65558916
C       0.13499056     -1.31682952      1.04914564
N      -3.05551587     -2.39649921      0.35217287
N       1.02247676     -0.30786996      0.84492095
C       0.71685498     -2.49216072      1.74406939
C      -0.46390192      3.79690656      0.91441212
C       0.83633603      3.24066704      0.36765038
C       2.15529918      0.61092385     -1.77827732
C       0.56508875      0.94769757      0.25095638
C       0.81810463      1.11537460     -1.26663079
H       1.84262448      1.66594972     -4.82046454
H      -1.13182351      4.44017542      2.63304153
H      -3.40227227     -1.51600068     -0.00684667
H      -3.51779936     -3.23881221      0.04073134
H       0.42140295     -2.40934754      2.80395833
H      -1.29078358      3.09477284      0.72428303
H      -0.69143011      4.73574553      0.38607153
H       1.67514998      3.92255166      0.54405520
H       2.98761497      1.17155130     -1.33450742
H       2.29392756     -0.43514414     -1.49105752
H      -0.52184460      0.95671659      0.40815760
H      -0.00702566      0.63301955     -1.80280229
O      -2.09956914     -6.35906297      0.65953608
H      -1.35475500     -6.79480388      1.09021455
H      -1.86959094     -5.40020895      0.74747678
O      -3.28171114     -3.89335987     -2.31047143
H      -2.85983038     -4.77688262     -2.31364718
H      -3.95631802     -3.93829906     -2.99503275
O      -3.09292399      0.21521327     -1.34936630
H      -3.08130758      1.07202030     -1.80042620
H      -2.42072799     -0.35328253     -1.79688221
O      -3.25000898      1.09790353      1.26863133
H      -3.09686320      0.69120133      0.38698704
H      -2.41949497      0.97521777      1.75855592
O      -1.45141550     -1.59144032     -2.60790315
H      -0.59240965     -1.90546554     -2.25554962
H      -2.01582628     -2.38404477     -2.60368618
O      -0.98902640      1.35704457      3.17010482
H      -0.63994500      2.23673363      2.92504648
H      -1.77142679      1.57189400      3.72429005
O       2.43547917      3.27971962      3.50372597
H       1.58470108      3.65704320      3.24088721
H       2.25002565      2.32677777      3.56991771
O      -2.91353362      4.77849288      2.83820715
H      -3.34384150      4.50865933      1.97798504
H      -3.28004904      5.63747825      3.06993880
O       3.58731335     -2.28989310     -2.42097773
H       3.68876292     -1.50439153     -2.99175542
H       3.86184324     -3.03750775     -2.96071429
O       4.68914773      3.03868374     -1.50712366
H       4.47606763      3.21515546     -0.56667364
H       5.57461322      2.66434481     -1.48935367
O       0.90775055     -2.65155342     -1.46630672
H       0.77180374     -3.62270920     -1.54820121
H       1.80878923     -2.52893821     -1.82586032
O      -1.99301558     -6.37494731     -2.01247663
H      -2.24521035     -7.20384077     -2.43034062
H      -2.08763380     -6.51308482     -1.03127791
O       1.53382092      0.39468599      3.84417266
H       0.58818121      0.64008832      3.78339000
H       1.68678319      0.19024566      4.77201732
O       3.32562255      4.05957858     -3.75940375
H       2.45654111      3.96296572     -3.35033623
H       3.92272670      3.76500641     -3.04383250
O       4.11757845      2.93664862      1.18804036
H       3.80209484      2.02122369      1.15397871
H       3.66437920      3.28771104      1.97685788
O       0.73940824     -5.42642168     -1.58146665
H      -0.12013460     -5.78727753     -1.85588184
H       0.76816329     -5.56959487     -0.62256593
O       2.84382131      2.36910246     -5.93101228
H       3.18508039      3.03222227     -5.28733909
H       3.54072501      1.70238496     -5.97548442
O      -3.99962378      3.69070467      0.67538086
H      -3.65150632      3.79299086     -0.22339038
H      -3.79532608      2.75034228      0.88706384
O      -2.68805940      3.11676164     -1.95362524
H      -1.71577164      3.11406784     -1.85052141
H      -2.84167411      3.52246997     -2.81401995
O      -3.46335660      2.20353517      4.16601252
H      -4.00609313      1.78010056      3.48808181
H      -3.41092854      3.13153780      3.87839209
