82
charge=0
O       1.88096990     -0.94054225      1.19373965
O       0.71397873      2.60177976     -1.94982784
O       1.71703809     -2.83781588     -0.06121565
O       3.18822097     -3.86050126      1.38811154
C       1.70837980     -1.47314334      0.13036687
C       0.96813815      1.37871089     -2.12069322
C       3.12926656     -4.62524151      2.52921562
C       1.90270802     -3.58737771      1.06453646
C       1.83815404     -4.81603761      2.89986861
C       1.02570240     -4.13495239      1.93586974
C       1.03311407      0.74906083     -3.40688893
C       1.31542916     -0.58437398     -3.51988014
C       1.53212175     -1.37538405     -2.37484481
C       1.46961671     -0.76718930     -1.14987938
N       1.19433436      0.55909585     -1.04003206
H       4.08111435     -4.93632753      2.92852829
H       1.48460721     -5.35996211      3.76292204
H      -0.04829518     -4.04605193      1.89998193
H       0.87667124      1.37820904     -4.27698043
H       1.37450851     -1.04393082     -4.50260845
H       1.73384437     -2.43436748     -2.44861531
H       1.24288095      1.01830406     -0.10445363
O      -1.21772877     -1.18736661      0.46509948
H      -1.44568592     -0.89073741     -0.43347589
H      -2.05822203     -1.55106097      0.81254540
O      -0.62150725      0.59192163      2.52003558
H      -0.81670928      0.01755931      1.74464151
H       0.22757735      1.01951528      2.28484820
O       1.42849550      2.07255991      1.35952952
H       0.96187769      2.90216158      1.12477912
H       2.38942132      2.27134786      1.32680504
O      -0.79470946     -3.51266503     -2.33354968
H      -0.59797346     -3.66560555     -1.39714703
H      -1.55585079     -4.09817379     -2.49290673
O       4.93100464      5.06639995     -1.80081974
H       5.37362454      4.62784445     -1.06421149
H       4.02974785      5.21244732     -1.46889007
O      -3.28690636     -4.90744072     -2.02715045
H      -3.93322885     -5.45511107     -2.48169023
H      -3.74894835     -4.04866481     -1.80614098
O      -2.22964128      2.84322890      2.09984355
H      -1.73313803      2.02804641      2.33701765
H      -2.42015794      3.27086391      2.94013089
O       4.16680769      2.96938747     -3.60253888
H       4.51558849      3.73374637     -3.10338215
H       3.30700124      3.27644365     -3.94459326
O      -0.33717007      4.04720193      0.42694554
H      -1.08322493      3.75107393      0.99280432
H      -0.42727622      3.54831337     -0.39879839
O      -1.95183131     -1.01855836     -2.29738212
H      -1.65594957     -0.41478111     -2.98633825
H      -1.45527247     -1.86073255     -2.43481754
O       4.01599982      2.86419011      0.59228272
H       4.13935047      2.21531297     -0.13094614
H       3.53225258      3.59132412      0.16471583
O      -2.96004775     -4.40961761      2.53979236
H      -2.29692951     -4.22876688      3.24213362
H      -2.46969222     -4.85124292      1.82382464
O      -1.58391762     -5.26059500      0.14751772
H      -1.05857807     -6.06635021      0.11040153
H      -2.25823385     -5.34932324     -0.55658650
O       2.22896474      4.72566909     -0.82028529
H       1.81096091      3.95019691     -1.24104975
H       1.53578595      5.05231350     -0.23005804
O      -3.69957148     -2.18469243      1.34228428
H      -4.21373532     -1.62933350      1.93638579
H      -3.47596704     -3.01959909      1.85473289
O       1.50804511      3.88874032     -4.30634907
H       1.08503326      3.58273292     -3.47892143
H       1.44106090      4.84851114     -4.28390215
O      -4.30021757     -2.52990571     -1.39845693
H      -4.21245792     -2.40212174     -0.43274733
H      -3.70012025     -1.87183464     -1.78689932
O       0.45263778     -1.60014935      3.99988944
H       0.01052462     -0.81458083      3.62048076
H       1.12884910     -1.80897137      3.34191481
O      -1.03435779     -3.84736324      4.46431404
H      -1.32377443     -3.78908838      5.37937288
H      -0.52360970     -3.01612213      4.30333114
O       4.16224461      1.08371648     -1.64696650
H       4.14120941      1.71469724     -2.41124690
H       4.98444778      0.59643107     -1.75664459
