68
charge=0
Cl     -2.94459576     -2.26385821      0.21512128
Cl      0.81312283      2.57965600      1.60462659
N      -2.59932722      0.27873330      0.56951495
N       0.47074471      0.18322602      0.60593278
S      -0.35578408     -1.00243505     -0.35793708
S      -1.74730525      1.77924819      0.45978904
C      -2.03369612     -0.78547704      0.16924679
C      -0.08297333      1.30306553      0.81267907
O       1.36607886      1.09089281     -2.64063722
H       1.88381098      1.18183858     -1.82569241
H       1.46683820      0.15403991     -2.89134381
O       2.59136284     -1.94876504      1.39683665
H       3.29822155     -1.49086833      1.87756709
H       1.94991302     -1.23195040      1.25633707
O       3.53149999      0.54305217      2.35572759
H       2.70825132      0.52856322      2.87631186
H       4.04308361      1.30405812      2.70948764
O      -0.61576143     -4.71378111     -0.21708909
H      -0.64179665     -4.18058481     -1.04641173
H      -0.22015775     -5.55051124     -0.47708646
O      -1.34837028      1.50243701     -3.11909839
H      -0.39221258      1.44476218     -2.89867635
H      -1.74416234      2.05505649     -2.43124758
O       4.76846198      2.86632690      3.19921880
H       4.00145136      3.41117914      3.48151148
H       5.35678733      2.84760343      3.95986720
O      -0.64054767     -3.30606193     -2.58351801
H       0.18884869     -2.84842529     -2.80635065
H      -1.33164520     -2.63970416     -2.76723610
O      -3.86752290      1.92971926     -4.51497375
H      -4.35066838      1.10240569     -4.33804534
H      -2.93081342      1.67815434     -4.49559624
O      -0.80386139     -1.37681870      3.04351900
H      -0.45907760     -2.25095934      2.69712930
H      -1.55413662     -1.60005679      3.60290221
O       0.62801521      2.56051538      5.13870196
H       0.80143385      1.65820713      4.79579690
H      -0.25462987      2.76937457      4.81536912
O       1.73555892     -1.74102957     -3.19447715
H       2.46258064     -1.81527929     -2.52139675
H       2.14457748     -1.95087980     -4.04025129
O       3.62874129     -1.66351895     -1.28782572
H       3.72298120     -0.71186999     -1.09766419
H       3.31555333     -2.01767088     -0.43670063
O       0.31496956     -3.62635593      2.16612970
H       1.21179791     -3.31876260      1.96028473
H      -0.02355351     -3.98861429      1.31633461
O      -2.40041122     -1.14362625     -2.89732921
H      -2.02624976     -0.24582195     -2.98762306
H      -3.34080985     -1.06315771     -3.12252217
O      -5.30359778      0.86520510     -0.92705424
H      -4.85495676      1.69420997     -1.19169299
H      -4.69688789      0.46798287     -0.28706778
O       3.41339616      1.08397022     -0.41814548
H       3.34650536      0.95493476      0.55452234
H       4.08468369      1.76538093     -0.52777409
O       2.44978875      4.22204129      3.87774536
H       1.81018497      3.66407593      4.37674887
H       2.45071819      5.07430497      4.32290916
O      -5.15269800     -0.37878971     -3.34949075
H      -5.30966979     -0.00873105     -2.44515961
H      -5.94178077     -0.87778905     -3.57897792
O      -3.81733468      2.99923362     -2.02219759
H      -4.07086366      3.92650146     -1.98659119
H      -3.91358690      2.73107751     -2.97295328
O       1.23200717      0.02549077      4.08563033
H       0.46265890     -0.48187663      3.70511889
H       1.62278028     -0.57837027      4.72672176
