110
charge=0
O      -1.65118945     -5.05109811     -2.12132288
N      -4.40189802     -1.38767711     -2.95974660
N      -4.25983761     -2.17961816     -0.66785398
N      -0.31350261     -3.36707892      0.36947361
N       1.25763978     -4.52838311      1.50904611
N       5.50212881      4.73407994     -1.67304262
O       0.03701389     -5.26450120      1.43788077
C      -2.45270465     -4.18269742     -1.77084288
C      -3.80150713     -1.81087968     -4.07297075
C      -3.70906325     -3.10582472      0.06016951
C      -0.81408135     -4.49958966      0.75191866
C       0.97837574     -3.42077023      0.86177224
C      -3.93724846     -2.22978651     -1.99014483
C      -3.07250082     -3.17168744     -2.54208024
C       3.52382725      0.12888911      0.82755505
C       2.36534708      0.04673883      1.51876325
C       3.28392168      4.73340123     -1.24927289
C       5.45249777      1.39071929     -0.14740145
C       4.05718689      1.32046954      0.16683762
C       6.02308329      2.48351324     -0.75108821
C       3.22289968      2.37871658     -0.16847802
C       5.18324398      3.56747012     -1.07422621
C       3.78260975      3.51121753     -0.78123684
N       4.33573739      5.39869586     -1.75312494
N      -2.99609023     -2.87786761     -3.87807644
N      -2.87982529     -4.08977945     -0.41566685
C      -2.20706350     -3.58138839     -4.88141444
C      -2.21290582     -4.97955754      0.52760897
C       4.20604117     -1.23116486      0.75040156
C       1.87213511     -2.28134740      0.68620661
C       2.06190599     -1.34729020      1.89816512
C       3.20133800     -2.19087562      1.37534410
H      -3.90675687     -1.34616692     -5.04537916
H      -3.88641106     -3.10589738      1.13500178
H       1.69507465      0.86586145      1.75833413
H       2.29000089      5.15721948     -1.24732895
H       6.08398054      0.54567796      0.11082696
H       7.08501229      2.51817373     -0.97482982
H       2.15368093      2.32238310      0.01877079
H       4.32724637      6.34593812     -2.17374069
H      -2.57357971     -4.60809899     -4.96165287
H      -2.32424766     -3.06084343     -5.83424848
H      -1.15566163     -3.57443751     -4.58480478
H      -2.20864968     -6.00470932      0.14236143
H      -2.76163783     -4.97342108      1.47627220
H       5.14991943     -1.23926367      1.31309817
H       4.44715314     -1.49516372     -0.28755122
H       1.75424490     -1.77248976     -0.26955075
H       1.52463539     -1.59203361      2.80754344
H       3.54929971     -3.05248805      1.93560636
O      -3.09654736      2.20299378     -0.65928922
H      -3.53659641      1.56783482     -0.06921141
H      -2.15853312      1.94394659     -0.65621356
O       7.92222455      5.91236610     -2.47827599
H       8.17166958      5.49135554     -3.30669229
H       7.08982720      5.45410149     -2.19989031
O       0.87914637     -3.53791306      4.48272372
H       1.11841491     -4.08311013      3.72069935
H       1.73137735     -3.15101474      4.76807452
O       0.74668747      1.06233248      4.18338773
H       1.57916231      0.81131985      4.59995579
H       0.17912186      0.28110427      4.27356307
O      -0.40129633      0.99935544     -0.84514232
H      -0.59277153      0.47731114     -0.03975032
H      -0.72913120      0.42697589     -1.57414295
O       7.10327498      8.51071948     -2.80278532
H       7.46098600      9.02908776     -2.07572556
H       7.48085760      7.60663939     -2.68517201
O      -4.91220777      0.27979834      0.71463605
H      -5.74917697      0.65875192      0.42675416
H      -4.81263835     -0.54171339      0.18706600
O       3.40807587     -2.44532523      5.12072979
H       3.58077236     -1.52829629      4.83743059
H       3.64443569     -2.46609785      6.05294132
O       3.75610918      0.25250392      4.24415642
H       4.49271549      0.84824858      4.41394860
H       3.55958546      0.35079698      3.29348786
O      -6.67149950     -3.54563833     -3.02294104
H      -7.44454691     -3.48173596     -3.59214272
H      -6.27667177     -2.66241793     -3.03871188
O      -2.27082892      0.80032313     -4.90787041
H      -2.94669352      1.18118653     -4.28452938
H      -1.88423234      1.56077635     -5.35172861
O      -4.68130809     -5.58891565     -3.89193131
H      -4.49627816     -6.20259505     -3.16639749
H      -5.36980244     -4.99577280     -3.55377812
O      -0.79990839     -0.71342054     -3.05945604
H       0.15760308     -0.66530636     -3.19723622
H      -1.20089285     -0.16881049     -3.76969570
O      -3.30747504     -7.29607958     -1.81650086
H      -2.55726684     -6.74382773     -2.09783375
H      -3.11998321     -8.17462249     -2.16082815
O      -4.17647309      1.57415904     -3.15036476
H      -4.49083525      0.67461114     -2.95709515
H      -3.78648869      1.87015958     -2.29596638
O      -1.24421628     -0.74126286      1.18079034
H      -1.03150353     -1.57158630      0.71424351
H      -0.84499580     -0.86580896      2.06638925
O      -3.53425357     -1.42588205      2.76771193
H      -4.30255854     -0.84688000      2.68092291
H      -2.92266840     -1.06279130      2.10028851
O       4.42066711      7.99587010     -2.79445170
H       4.12111121      8.16644228     -3.69247200
H       5.37209204      8.26204237     -2.79015068
O       1.93144540     -0.10275555     -2.10759828
H       1.33273764      0.41363588     -1.53391432
H       2.73241963      0.43042075     -2.15278225
O      -0.81267025     -1.40600765      3.89623307
H      -1.76398411     -1.55266794      4.00789167
H      -0.34459235     -2.22886484      4.15664923
