64
charge=-3
O       0.34235543      0.21863957     -1.92913402
O       0.31915553     -1.47942130     -0.00702540
O      -0.18874644      0.99268733      0.45570179
P       0.80391010      0.02513783     -0.39941664
O       2.42150522      3.09283070      0.43858347
H       1.58155469      3.35914267      0.00970926
H       2.38434553      2.12393216      0.33741287
O      -1.84636422      0.69602391     -5.04230135
H      -2.19443321      0.65828863     -4.13114292
H      -1.29283489     -0.10719743     -5.06390392
O      -0.26727234      3.43216833     -0.48935476
H      -0.36204410      3.34382187     -1.45367438
H      -0.26066821      2.46975184     -0.16984708
O       2.02114236     -1.42634417     -3.31392642
H       1.43171484     -0.76919865     -2.84253080
H       2.02237617     -2.18400695     -2.69531756
O      -0.22097316     -3.02977328      4.58765867
H      -1.04762885     -2.56634954      4.37277894
H       0.37499600     -2.72763385      3.87841635
O       1.51055969     -1.82009531      2.46907758
H       1.05253695     -1.78766174      1.58687067
H       1.37288352     -0.91090932      2.78952866
O       1.44838883      3.77904987      3.05541447
H       0.52759157      3.97392818      2.79812564
H       1.87111237      3.56327953      2.19771511
O       3.95676153     -0.39071006     -1.09965067
H       3.62764197     -0.75275837     -1.93856888
H       3.09904503     -0.06328464     -0.70696472
O       0.11485504      2.55988167     -3.34714257
H      -0.51337617      2.17449130     -3.97588340
H       0.35561463      1.76307018     -2.80833533
O      -2.74423384     -1.65425476      3.66026256
H      -2.53620747     -1.88451023      2.73431826
H      -2.62002764     -0.69073298      3.68330017
O       0.44678181      0.94381463      3.01607823
H       0.26201092      0.96866537      2.02137873
H       0.90106242      1.78802772      3.18175146
O      -2.26631529      0.20811899     -2.28391765
H      -1.25917139      0.25244833     -2.12846372
H      -2.63642336      0.52920024     -1.44326339
O      -0.41195196     -1.93868515     -4.79848264
H      -0.87503325     -2.21337936     -3.98503652
H       0.48486086     -1.75920529     -4.44872595
O       4.02039328     -2.47526354      0.90846563
H       4.06940670     -1.74587917      0.25754376
H       3.27781950     -2.21576397      1.48483918
O      -2.78159420      0.63741175      0.60258965
H      -1.78306156      0.79338826      0.49932139
H      -2.78506808     -0.33438025      0.70540703
O       1.95794732     -3.39013820     -1.12361642
H       2.73916986     -3.29113739     -0.55472567
H       1.33240774     -2.74303664     -0.70361735
O      -2.05875078     -2.11915265      0.90548946
H      -1.12636252     -1.82020132      0.62985579
H      -2.34490920     -2.60116661      0.11855989
O      -1.62226124     -2.51370833     -2.10386132
H      -0.82405667     -2.29612734     -1.58069293
H      -2.03090727     -1.62269220     -2.17239585
O      -1.35640980      4.12170995      2.13624204
H      -1.72828936      3.28821547      2.47381538
H      -1.15597251      3.93413939      1.19969830
O      -2.32417479      1.40494263      3.29875051
H      -1.35709560      1.21788734      3.31022897
H      -2.58543011      1.16558412      2.38112748
