89
charge=0
N      -1.63089376      4.29098989     -5.88757490
O       0.57342882     -4.87616329      2.62167665
O      -4.04496866     -3.00047200      2.39759834
C      -1.49905818      3.16354135     -5.65572494
C      -1.39837697     -1.89440488     -2.23761504
C      -1.37597430     -1.13028880     -3.18430742
S      -0.72620077      0.70942033     -6.61101021
S      -2.61696175     -2.74405391      0.09893418
C       0.76367462     -4.41973135      1.47668307
C      -3.10134525     -3.38619513      3.09661131
C      -0.80310740     -0.61003474     -5.51993249
C      -1.34611529      1.79584662     -5.39009342
C      -1.29775979     -2.67375658     -1.08605067
C      -1.58389443      1.14793522     -4.20302722
C      -0.17716283     -3.31316351     -0.62713037
C      -1.27609075     -0.24111140     -4.27095224
C      -0.31571753     -3.83802852      0.68149062
C      -1.57618573     -3.57610561      1.22105579
N       2.00591275     -4.45976345      0.90718782
N      -3.11871384     -3.42570398      4.45353119
N      -1.93344889     -3.85368923      2.51000684
H      -0.47904934     -1.59862780     -5.81564882
H      -1.92685721      1.65580672     -3.31055312
H       0.73441052     -3.34695407     -1.21096208
H       2.23366603     -3.80054480      0.16574578
H       2.75409113     -4.65178258      1.55910321
H      -3.87756083     -2.90207193      4.86827746
H      -2.23592177     -3.36768417      4.95893464
H      -1.17634040     -4.28294842      3.04956095
O      -4.12069088     -0.25151610      2.58212748
H      -4.26204486      0.34399716      1.81502286
H      -4.34942090     -1.15823740      2.30699264
O      -4.08109440     -0.44073968      5.30977512
H      -4.67403630      0.12936806      5.80839578
H      -4.25483535     -0.23722102      4.36541521
O       0.12577209      6.41975411     -2.69744655
H      -0.42193097      6.84196686     -2.02896393
H      -0.27340879      6.69665399     -3.55086461
O      -1.44816993      0.77715426     -0.35644060
H      -0.56640509      1.16416211     -0.59751694
H      -1.52032973      0.00508103     -0.93703392
O       2.14205091      0.40807183     -3.20365274
H       2.05491581      1.12144261     -3.87502589
H       1.85823063     -0.42861007     -3.62166005
O      -4.08600719      1.41137250      0.35296915
H      -3.15676412      1.35514134      0.05312207
H      -4.27490188      2.35159878      0.42190829
O       0.03991895      3.61959416     -2.80514117
H       0.42240295      3.23050955     -2.00196363
H       0.06751759      4.59242997     -2.68677655
O      -1.28215320     -0.17005635      2.35500656
H      -2.23979236     -0.33501877      2.46719748
H      -1.23353170      0.20651828      1.45429192
O       4.04397657     -0.67098131     -1.32567280
H       3.69559145     -0.30603593     -0.49123701
H       3.56950597     -0.17458455     -2.01731567
O      -1.23766153     -0.09080660      5.27100433
H      -2.21230982     -0.09646089      5.34008838
H      -1.06280859      0.11102030      4.33638256
O      -1.07407270      7.05683074     -5.13177488
H      -0.49938304      7.43060219     -5.80672221
H      -1.33113007      6.18423295     -5.48318672
O      -0.54817625     -2.62698809      5.82872920
H      -0.47417284     -2.69803245      6.78598295
H      -0.76486374     -1.66969269      5.65359035
O       3.84410216     -5.81672908     -1.18286407
H       3.02707950     -5.89579899     -0.67106576
H       3.84096831     -6.57408178     -1.77611324
O       2.71171389      0.46948132      0.96998672
H       2.20461849     -0.22056330      1.48563666
H       3.18853189      0.98474874      1.62782037
O       1.88907488     -3.03946511      4.36848315
H       1.60149617     -3.85420016      3.92205078
H       1.15408352     -2.87013769      4.98661573
O       1.68708762      2.64365498     -4.76666298
H       2.43779959      3.23964621     -4.85097350
H       1.09269630      3.07919487     -4.10594468
O       2.96053624     -3.11367505     -1.69994582
H       3.58565036     -3.85455384     -1.73390814
H       3.46856757     -2.27918999     -1.51865578
O       1.28849074     -1.39870124      2.19779746
H       0.35837004     -1.14359206      2.33695023
H       1.56170097     -1.88975905      3.00550074
O       1.81584620     -2.26381625     -4.14530384
H       2.17050654     -2.66118897     -3.32080205
H       2.52945774     -2.38055369     -4.78116716
O       1.02915262      1.62895495     -0.98401000
H       1.35183134      1.11479250     -1.75961329
H       1.61187799      1.35451555     -0.24699496
