69
charge=-1
O       0.89378589      2.45584994     -1.52795446
O      -1.74667531     -0.12423383      1.19151376
N      -0.61092094      1.55174775      0.02926701
C       0.34739639      1.49857211     -0.93753849
C      -0.84805358      0.27747414      0.41781300
N       0.64912031      0.17334148     -1.22242531
N       0.04589544     -0.60543819     -0.21227830
H       1.59160479     -0.09435515     -1.48801421
H      -0.35516597     -1.50034606     -0.54217285
O      -1.32500715      4.33792324     -2.09491146
H      -0.49840249      3.91444663     -1.80347914
H      -1.91601194      4.23880292     -1.32729706
O      -1.27648765      3.70753840      2.25669243
H      -0.97608757      3.38039086      3.12427435
H      -0.81675522      3.12026122      1.63887948
O      -1.11912752     -0.27003959      3.93649145
H      -1.40051656     -0.10772385      3.01429574
H      -1.52528936     -1.11279230      4.17773624
O      -2.26375555      2.13870300     -3.55691383
H      -2.60942594      1.55827662     -2.86421532
H      -2.03023406      2.96819266     -3.08005168
O       1.76997410      1.12592520      2.51372088
H       2.23523508      1.54087650      1.75556818
H       2.44706630      0.60429240      2.95776279
O       1.73373030     -3.84015800     -0.94386988
H       1.94924701     -3.39994355     -0.10424945
H       0.76027098     -3.77193528     -0.99521019
O      -2.97175884      3.13929829     -0.03400583
H      -2.15385199      2.58924670     -0.00397672
H      -2.97937290      3.50005987      0.86599085
O       0.36656748      1.59162218     -4.25766483
H       0.77277537      1.96920159     -3.45690970
H      -0.59302207      1.75922205     -4.10274786
O       1.39686577     -1.72867660      3.90218860
H       0.76220736     -0.99251240      3.81400737
H       1.82210652     -1.79564579      3.02758820
O      -1.03165926     -3.23144136     -0.94324372
H      -1.60318789     -2.82469252     -1.62709498
H      -1.55866135     -3.28835208     -0.11456210
O      -0.85052227     -3.30492777      4.00145082
H      -0.74883414     -4.12930034      4.48419300
H       0.04668614     -2.89317560      3.98182948
O       2.33455267     -1.86304073      1.18730096
H       3.08906057     -1.41667371      0.76553897
H       1.56598910     -1.32900559      0.90123481
O       2.71365917     -1.84365038     -2.57097971
H       1.99660638     -1.57580467     -3.18068380
H       2.35226398     -2.61635226     -2.07157718
O       0.45842422     -1.05422968     -4.12279565
H       0.46316166     -0.05127151     -4.18138381
H       0.42142066     -1.35427506     -5.03667479
O      -2.19346763     -1.58722806     -2.88573408
H      -1.36046866     -1.26128656     -3.27056482
H      -2.63940653     -0.81283846     -2.51127222
O       4.08415671     -0.48749248     -0.72292832
H       5.02883658     -0.52355742     -0.89874431
H       3.65187130     -0.95296839     -1.48844771
O      -2.28373043     -2.90419044      1.50077258
H      -1.77787782     -3.17413150      2.28662339
H      -2.14106216     -1.93903690      1.44781244
O      -3.62637454      0.52007581     -1.15484463
H      -3.25150052      0.12478002     -0.35282441
H      -3.76275815      1.44124359     -0.87230579
O       3.18306425      2.11597695      0.27433615
H       3.50134042      1.31076634     -0.16775287
H       2.55245473      2.50028413     -0.35741633
O       0.01265794      2.37163885      4.48774745
H      -0.51062705      1.56154793      4.58008328
H       0.70528551      2.09408993      3.86264841
