96
charge=-3
O       4.39867000     -2.10738918     -1.23425541
O       2.67349434      1.77431019      1.40264714
O       1.82382384     -2.05439925     -1.18818774
O       3.10053339     -0.39005081     -2.67021177
O       1.61838334     -0.55601787      1.88395859
N      -0.39922903      0.25327615     -0.20557895
N      -0.21658771      1.64026546     -1.98215198
N      -5.32288788     -0.19511838      3.80613273
O       3.24374634     -0.15495630     -0.11080622
C      -1.00136993      0.76004706     -1.28074731
C       0.91396952      1.65836359     -1.29467615
C      -5.54618563      0.51895950      2.68988139
C      -4.34444546     -1.12105328      3.72015703
C      -3.96632255      0.50042878     -3.56340014
C      -4.91686918     -0.13600309     -2.76752711
C      -2.70416289      0.75523844     -3.05129367
C      -4.84845711      0.37189340      1.50659736
C      -3.59592399     -1.36446890      2.58973067
C      -4.57982277     -0.52678255     -1.48093167
C      -2.34952154      0.40252416     -1.73674330
C      -3.82033443     -0.59122202      1.43022879
C      -3.31105216     -0.27078361     -0.94853363
N      -3.01110292     -0.74683633      0.34574820
N       0.82451014      0.83879592     -0.22377442
P       3.13064296     -1.29055911     -1.43070983
P       2.17256436      0.44301161      0.90337132
H       1.81255619      2.23234044     -1.51586200
H      -6.32490360      1.27965484      2.75713503
H      -4.15557028     -1.69273462      4.62837153
H      -4.18843353      0.77636640     -4.58972222
H      -5.90547656     -0.36085565     -3.16007382
H      -1.95959794      1.23645182     -3.67626312
H      -5.06457461      1.02008367      0.66427734
H      -2.80537192     -2.10757129      2.59664309
H      -5.29382550     -1.06403795     -0.86306869
H      -2.27027815     -1.46760498      0.40645723
O       5.57448030      1.16622189     -2.37176286
H       4.79767306      0.61397211     -2.58252974
H       6.14105785      0.55279095     -1.86959530
O       4.89411717      1.43278318      3.48196311
H       5.20858296      0.62016241      3.05469062
H       4.13727272      1.66712950      2.92289655
O       3.90801736      3.13075087     -0.96491949
H       3.66712282      2.73366036     -0.11265496
H       4.52053857      2.48383747     -1.36314231
O       4.42502985     -3.41416441      1.21768386
H       3.47745756     -3.45289533      1.42486130
H       4.42398384     -3.07051000      0.29238719
O      -1.62558427      1.56244556      4.94370990
H      -1.49908924      0.91794281      4.21514969
H      -0.89667670      2.18031980      4.77738353
O      -5.81123770     -0.60407455      6.77757210
H      -4.95325450     -0.24722033      7.05990614
H      -5.83231789     -0.39844591      5.82685821
O      -3.30184386      0.95593607      7.43664491
H      -2.53261228      0.82602547      6.86194215
H      -3.78541166      1.63340374      6.92892072
O       1.32798043     -3.22744065      1.20217458
H       1.39613272     -2.34333184      1.61805036
H       1.56608890     -2.97432058      0.27573172
O      -0.41595620     -2.39027577     -2.48407569
H       0.45175579     -2.20704106     -2.00411307
H      -0.84475391     -1.52654101     -2.51013234
O      -2.81866736     -0.74684476     -6.51463438
H      -2.95140082     -1.13278543     -5.64301499
H      -1.91476812     -0.36521587     -6.43715167
O      -0.23957972      0.29328763     -6.16682241
H       0.31213977     -0.30465853     -5.61797787
H      -0.22079033      1.14408750     -5.68209167
O      -4.32572436      2.48880415      5.21274082
H      -4.79036902      1.70945172      4.87269312
H      -3.40150132      2.31751657      4.93963628
O      -1.37533814     -3.08835092      0.24353614
H      -0.50222620     -3.13890545      0.69194076
H      -1.12474542     -3.00918723     -0.69583453
O       0.36383497      2.79984393      3.04740241
H       1.24800683      2.64584869      2.67111409
H      -0.11890677      2.01975808      2.73271952
O       1.40277806     -1.46865856     -4.64958631
H       0.75993553     -1.96660207     -4.11720769
H       2.02233799     -1.12576867     -3.96303794
O      -0.85951825      0.05702529      2.72842355
H      -1.15272401      0.07281150      1.80314461
H       0.08421953     -0.21484416      2.61640480
O       5.60599429     -0.83138557      1.65880178
H       5.23042490     -1.73502085      1.72168951
H       5.00900639     -0.42753806      1.00858589
O       0.15313344      2.71468222     -4.67055494
H       1.10096329      2.47006706     -4.70502031
H      -0.08043151      2.46326495     -3.75428482
O       6.95530551     -1.07621743     -1.01271521
H       6.09580775     -1.51074563     -1.22178840
H       6.86463525     -0.95884934     -0.05435228
O       2.72093708      1.48506448     -4.78162750
H       2.42945517      0.75598704     -5.34228654
H       2.88703530      1.03414198     -3.93012987
