86
charge=0
O      -0.47595024     -2.08708054      0.42299296
O      -0.40272876     -0.45883967      3.07313156
O       0.44966531     -2.11391309      4.31637891
O       1.81614722      0.15384944     -0.88717939
C       0.48253944     -1.30941935      0.22174406
C       0.49533942     -1.25068213      3.31112178
C       2.28154909      0.01878905      0.37252818
C       1.52864079     -0.85478189      1.09184597
N       0.73664469     -0.73906635     -1.01064706
N       2.63988779     -2.48012409      2.54050988
C       3.49552912      0.78026623      0.72596692
C       1.93189775     -3.72614684      2.21287763
C       3.44567273     -2.61737372      3.75906389
C       1.80085303     -1.27075108      2.50208213
H      -0.45622454     -2.03666490      4.73696963
H      -0.02970108     -0.31824358     -1.58010763
H       4.34683378      0.10275350      0.85118006
H       3.32077226      1.30691668      1.66944305
H       3.74069848      1.49882214     -0.05648436
H       1.28648770     -4.07890847      3.03131538
H       2.67280758     -4.50413856      1.99507281
H       1.31040869     -3.58014713      1.32433469
H       3.99435661     -1.68759989      3.94322729
H       4.17809783     -3.41778978      3.60654627
H       2.84659977     -2.85705543      4.65033769
H       2.38305353     -0.45491721      2.96038911
O      -3.47632846     -0.83104702     -0.93930135
H      -3.16418193     -1.75299664     -1.16677605
H      -4.42750956     -0.81263386     -1.07792256
O      -1.40963762      0.53276906     -2.31201609
H      -2.21161542      0.02479329     -2.08076289
H      -1.54110425      1.39011056     -1.82790347
O      -1.94669588      2.70949337     -0.82450030
H      -1.96245804      2.29982085      0.05726318
H      -1.44615270      3.54016950     -0.75153057
O       5.21828068     -0.48501995     -1.64082724
H       4.84799243     -1.18449352     -1.06934277
H       5.79598731     -0.94517553     -2.25603708
O       4.27749886      2.12613061     -2.50485646
H       4.51719461      1.22090736     -2.23854867
H       3.34450166      2.08627823     -2.78722723
O       1.50821706      2.66118136     -2.82763080
H       1.19989029      2.44991985     -1.93208281
H       0.89886726      2.21637660     -3.46015190
O       1.65684575      5.43512564     -2.35879019
H       1.57679356      4.54406362     -2.75508810
H       2.48569038      5.35619555     -1.85977046
O      -2.30794103      0.66991054      1.22119180
H      -1.51487768      0.22860108      1.56446484
H      -2.65003185      0.08176779      0.51915749
O      -3.74749015     -0.83411597      3.27207661
H      -3.68607790     -1.58248279      2.65832127
H      -3.35025753     -0.10719102      2.75717028
O      -2.95151106     -5.70463606     -1.33616977
H      -3.84106498     -5.93181200     -1.62235634
H      -2.95682299     -5.83518179     -0.36258026
O      -2.28946653     -3.26765234      2.21611479
H      -2.05899981     -3.16647300      3.15140025
H      -1.58433571     -2.81298993      1.71371121
O      -2.11877357     -2.12435966      4.99713129
H      -2.58378309     -2.29333839      5.82158619
H      -2.67851901     -1.48607580      4.47730058
O       3.86463999      4.18471047     -0.79256935
H       4.66297729      4.48635761     -0.34933296
H       4.14996306      3.45076667     -1.39644097
O       1.41388866      3.09970434      0.26234887
H       0.78457990      3.83973827      0.18727820
H       2.27939054      3.50382505      0.06249980
O      -2.83204598     -5.88341250      1.42808777
H      -2.62403845     -4.97171425      1.72647194
H      -2.08848914     -6.41654906      1.72483640
O      -0.19648756      1.40070619     -4.61771383
H      -0.79979358      0.99026459     -3.96385318
H      -0.74692012      2.01060221     -5.11861289
O       4.14664346     -2.58511657      0.01718697
H       3.46129837     -2.99963179     -0.51830389
H       3.71327098     -2.45383048      0.89359228
O      -0.36814861      5.12507870     -0.60422779
H      -0.70499873      5.94909131     -0.24141833
H       0.32266761      5.37028680     -1.27651885
O      -2.19958469     -3.01983609     -1.62587041
H      -2.47427674     -3.95839074     -1.55813723
H      -1.48813172     -2.89483132     -0.97292722
O       1.35792556      2.03092574      2.96261585
H       0.55733020      1.49351511      2.99844659
H       1.32464713      2.44078819      2.07926079
