99
charge=0
O       1.72170183     -2.77164616      1.59226941
F      -7.90800645     -0.86517252     -2.14299878
F      -7.04197765      0.69632129     -3.39673144
F      -8.21897124      1.21670915     -1.64023364
F      -6.44448794      2.25670968      0.06810499
F      -4.37254870      1.84078799     -0.38115145
F      -5.68231436      2.57598834     -1.94867223
F      -2.04066878     -2.65134587      0.53629559
F      -2.49075703     -4.04049372     -1.11135232
F      -2.76292733     -2.11641222     -2.86677067
F      -1.80938175     -0.61841070     -1.57213016
F      -3.74639390     -0.60607826      0.15068637
F      -4.66262611     -2.44313397     -0.62945989
F      -4.12393493      0.37900133     -2.65901706
F      -5.41424918     -1.38054628     -2.82944007
F      -6.38726949     -0.32877100     -0.09016689
S       2.06725118     -4.16666781     -0.64492205
C       2.52556101     -3.12889727      0.74140286
C       4.66797834     -2.57581514     -0.31828278
C       3.97145108     -2.78835767      0.80319986
C       4.54489305     -2.64817322      2.18483639
C      -7.33158226      0.33881654     -2.13867585
C      -5.61454267      1.77859082     -0.87271032
C       0.25120223     -4.16152760     -0.43618557
C      -0.37805086     -2.94743231     -1.12357618
C      -1.85095842     -2.86849518     -0.81005072
C      -2.59037440     -1.72531305     -1.57635434
C      -3.97878164     -1.32525371     -0.96716209
C      -4.88647945     -0.49671556     -1.95313153
C      -6.04013379      0.31188987     -1.24737552
H       5.71020441     -2.27356330     -0.27287301
H       4.22031760     -2.66381435     -1.30432121
H       5.60683187     -2.39757003      2.12890966
H       4.02581547     -1.87136876      2.75482938
H       4.43170008     -3.58254333      2.74657963
H      -0.10587243     -5.10021214     -0.86912342
H       0.04722132     -4.16191189      0.63893008
H      -0.23749630     -2.99830702     -2.20968927
H       0.09127603     -2.02248941     -0.77029350
O      -1.38334208      2.54308425     -2.00207994
H      -1.45148622      2.23544107     -1.06843069
H      -1.74991766      3.43264378     -2.00853946
O      -1.15036611      1.57862287      0.58451703
H      -0.45937063      0.91957715      0.30193990
H      -1.85054258      1.06267258      1.03017576
O       1.41976172      1.63820873     -2.38299161
H       0.60386177      2.16249832     -2.32363040
H       1.24202712      1.01084693     -3.12301745
O      -3.86349584     -2.09469144      3.01210955
H      -4.70089382     -1.59488534      2.99426690
H      -3.87033132     -2.63371207      2.21388411
O      -6.49905848      0.61646851      5.67248460
H      -7.45799925      0.77590175      5.52392492
H      -6.45696141     -0.13763386      6.26815528
O       4.97404005     -0.42115252     -3.44916937
H       4.48920350      0.33295106     -3.84540411
H       5.18921713     -0.14928221     -2.53756398
O       3.44032938      1.66241128     -4.58416189
H       3.04310672      2.07759975     -3.80468085
H       2.69208676      1.15807082     -4.94280400
O      -2.75513708      0.45142634      2.64092959
H      -2.05706696      0.70180551      3.26232404
H      -2.89771659     -0.51082015      2.76814587
O       0.94318794      0.10025214     -4.63352350
H       0.95151176     -0.87093821     -4.50051639
H       0.00356291      0.35247981     -4.73212557
O      -8.28776855      0.66773794      2.22155657
H      -7.32728877      0.52508710      2.35288858
H      -8.34754601      1.40566929      1.60734674
O       3.77743933     -2.77541233     -3.69220932
H       4.36811326     -3.27532981     -4.26298437
H       4.20051827     -1.87331740     -3.61488189
O       5.87488559      0.41708842     -0.86658794
H       6.30430523      1.26566260     -1.01242126
H       5.34293741      0.55210378     -0.05706397
O      -9.10269610      1.09929996      4.83906732
H      -9.81476291      0.48391438      5.03714334
H      -8.92184566      0.97480881      3.88077643
O       1.10072867     -2.68159176     -4.22532576
H       0.98600493     -3.14214348     -5.06252327
H       2.06651585     -2.76458284     -4.02726196
O       2.14219529     -0.07927145      2.38950430
H       1.40421145      0.42000664      2.78797308
H       1.89192602     -1.02065417      2.37042169
O       0.90958296      0.03374753     -0.21182629
H       1.26592883      0.57463510     -0.95396283
H       1.55647116      0.07414253      0.51286138
O      -1.71839498      1.02850899     -4.44627120
H      -2.35145166      0.31116387     -4.34290364
H      -1.70961975      1.47171037     -3.57783033
O       4.64465576      0.94011695      1.62326988
H       3.77584416      0.58902775      1.89898105
H       5.24927794      0.65503109      2.31489260
O      -0.02834269      1.63408683      3.14817627
H       0.24125864      2.46551815      3.55142275
H      -0.33367961      1.86434448      2.24308522
O      -5.66149496      0.13382124      3.09441641
H      -4.83301494      0.61476291      2.93399054
H      -5.87532427      0.30058066      4.04339819
