101
charge=0
O      -1.98102840     -6.43129189      3.46514583
N      -3.13107636     -4.48110826      3.69494373
N      -3.40835809     -3.33037842      3.26208413
N       1.07166925      2.44811576     -5.22711346
N       2.34492939      1.96077336     -5.36107675
O      -0.48085215     -1.30547138     -3.68535799
C      -2.23496148     -5.34868862      2.97166862
C       0.25923865      1.51901207     -4.73567963
C       2.32992777      0.68888009     -4.95070708
C      -0.98325144     -5.72747158      0.91027201
C       3.37345017     -0.25731395     -4.86537636
C      -1.73345022     -4.88589907      1.65222269
C       1.00317889      0.33676696     -4.53197001
C      -2.11004207     -3.55259303      1.22894769
C       3.06260786     -1.48951327     -4.37938905
C       0.76790991     -0.92623589     -4.03362605
C      -2.89916294     -2.81335179      2.05550466
C       0.12632052     -2.03849684     -1.41801324
C      -0.33087453     -2.60014231     -0.22957622
C      -2.07974182     -2.37918697     -2.36222626
C      -0.76782296     -1.92989746     -2.47254056
C      -1.64989999     -3.02769117     -0.08102115
C      -2.54402205     -2.91949546     -1.16345607
N       1.78072892     -1.80916548     -3.98852289
C      -3.32327763     -1.40537475      1.80901165
C      -3.98260473     -3.33854867     -1.04186357
H      -0.78734431      1.71736328     -4.54162830
H      -0.60667528     -5.44696627     -0.06714352
H      -0.75294864     -6.71463572      1.29923399
H       4.38995439     -0.02016347     -5.15679220
H       3.78590664     -2.28585963     -4.25301957
H       1.13916249     -1.65574956     -1.48206171
H       0.33791026     -2.65361866      0.62282605
H      -2.75274414     -2.24271590     -3.20374603
H       1.61249967     -2.77998757     -3.67411485
H      -2.94422618     -1.02315091      0.86045816
H      -2.94277887     -0.76283711      2.61037915
H      -4.41530624     -1.31949522      1.82785597
H      -4.56087789     -2.56473425     -0.52305702
H      -4.43479212     -3.48082385     -2.02675495
H      -4.08778734     -4.26364379     -0.46705853
O       0.69410619      3.68772005      0.26719754
H       0.44778201      2.81570734     -0.12373513
H       1.50554709      3.91783649     -0.20821287
O      -1.15164227      1.17635379      3.31890875
H      -1.45861868      1.49401400      4.17427639
H      -0.30470668      1.67808397      3.14739404
O       1.10707906      5.25928531     -5.09821144
H       1.00892815      4.30993028     -5.35579759
H       2.06422229      5.32792541     -4.95981181
O      -1.15531666     -4.03243814      6.89566751
H      -1.51007877     -3.26473749      7.35390819
H      -1.92173553     -4.64681546      6.79618772
O      -3.05493052      1.94166553      1.23353751
H      -2.80054305      2.85401308      0.99244943
H      -2.40718929      1.67699820      1.91134758
O      -2.56891657      0.76870635     -1.22807520
H      -2.70761489      1.50903784     -1.84025796
H      -2.83680975      1.13167443     -0.34868262
O      -3.26391379     -5.69942206      6.30632981
H      -3.42347407     -5.27427713      5.43610543
H      -2.88870125     -6.55006303      6.04982320
O       0.00766702      4.56086428     -2.78146013
H      -0.03354013      5.24970036     -2.10828873
H       0.38401566      4.97931865     -3.60826813
O      -0.93243723     -5.40446796     -2.57258198
H      -1.45986641     -5.90002749     -3.20761832
H      -1.43759065     -4.58990745     -2.40784412
O       1.18294406      2.38354914      2.77712662
H       1.05285155      3.00287792      2.03411566
H       1.64505874      1.63396336      2.35418087
O       0.08194296     -1.39896910      2.81579960
H      -0.41999382     -0.63965887      3.15775795
H      -0.02077817     -2.12727965      3.45683548
O       2.52131448      3.23251800     -2.07016892
H       3.13093181      3.58679237     -2.74271630
H       1.64088767      3.47285923     -2.41306606
O       3.80508347      4.13382250     -4.50236591
H       3.45313735      3.32346838     -4.95869799
H       4.71460281      4.23359878     -4.79791633
O      -0.23400899     -3.73718244      4.33093495
H      -0.57374182     -3.77810751      5.25721513
H       0.55971928     -4.28107806      4.34566599
O       1.64072134     -4.51158135     -3.24070660
H       0.75785422     -4.86766317     -3.01094393
H       2.01984111     -5.15308013     -3.84926349
O       2.59082374      0.39977016     -1.67287039
H       2.75815546      0.27174050     -0.72624403
H       2.72399153      1.35649211     -1.82886059
O      -2.41472641      3.27251196     -2.78860743
H      -1.53655934      3.70416157     -2.90413392
H      -3.02022821      3.77501561     -3.34238798
O      -2.14379478      4.39259683      0.02438918
H      -2.33147451      4.06646841     -0.87017510
H      -1.17832039      4.31333591      0.11101091
O       1.81718692      0.05096818      1.20356159
H       1.44607198     -0.60625841      1.82450609
H       1.03315430      0.33386898      0.69361437
O       0.04669473      1.19309759     -0.68100163
H       0.66861110      0.85653250     -1.35023660
H      -0.87692198      0.95411398     -0.95229266
