97
charge=0
N      -0.42056371      1.66338529      2.57904504
C       0.66969454      4.95885202      3.87914362
C       1.71015816      5.21635938      2.95785756
C      -0.06772784      3.78701909      3.83373074
C       2.01997180      4.29955612      1.96069724
C       1.92200621      1.64677530     -0.19047356
C       0.22480441      2.85043122      2.83076491
C       1.27312469      3.11579728      1.88295808
C       1.23968084      2.01090266      0.98252252
C      -1.57174017     -1.96323921      0.45188600
C      -0.83854589     -2.24807517     -0.73536802
C      -1.23191567     -0.83223462      1.16076824
C       0.18718173      1.18533609      1.46238376
C       1.55710492      0.50952099     -0.84380818
C       0.17805428     -1.41449954     -1.11036923
C      -0.19096811      0.01637249      0.76344431
N       0.51687805     -0.29077448     -0.39002641
C      -2.64002101     -2.89253511      0.95876414
C      -1.19964706     -3.41972845     -1.61298588
C      -3.15674329     -3.85831709     -0.10616351
C      -1.98604664     -4.49043416     -0.85760164
H       0.43711916      5.70689545      4.63166716
H       2.25674507      6.15282111      3.01968108
H      -0.88096562      3.60592518      4.53082530
H       2.81012668      4.50978156      1.24356445
H       2.72202320      2.23930902     -0.62234842
H      -1.76244234     -0.56964261      2.07109099
H       2.03534388      0.16559516     -1.74963009
H       0.75969241     -1.59318502     -2.01124690
H      -2.20287758     -3.48368228      1.77829289
H      -3.45293422     -2.29609306      1.38679920
H      -0.29860971     -3.82573272     -2.08227518
H      -1.82040389     -3.02595757     -2.43246361
H      -3.80453385     -3.31305502     -0.80720678
H      -3.77145543     -4.62794236      0.37350415
H      -2.33644629     -5.25235449     -1.56516508
H      -1.33242555     -5.00147575     -0.13820760
O       3.66371928     -0.63950076     -3.74743378
H       2.70471116     -0.58951756     -3.90965823
H       3.77192877     -1.25388255     -2.99929139
O       1.07183642      0.53885049     -4.13564134
H       1.58712336      1.32945870     -3.90757708
H       0.24421752      0.63317959     -3.63099176
O      -1.64257878      2.75549176     -0.84736687
H      -2.16137793      2.51606455     -0.05483249
H      -1.19486001      3.59073634     -0.60002998
O      -3.09175387      4.98064256      1.90011192
H      -3.22269775      4.01330226      1.83846872
H      -3.87206989      5.36070415      1.48541553
O      -1.47248016      0.98331303     -2.78947970
H      -1.91829633      1.44691062     -3.50781066
H      -1.44005688      1.66561245     -2.05959534
O       3.80556570     -2.61249786     -1.64026474
H       4.61516476     -3.12682577     -1.56845851
H       3.57357705     -2.35595450     -0.70659782
O       3.19130767     -1.81844464      0.83291248
H       2.53559883     -2.27597757      1.39367853
H       3.96051801     -1.65102060      1.41550774
O      -4.52205262     -0.04882389      0.82356392
H      -4.22674742     -0.24799946     -0.09354308
H      -5.46337190      0.13213488      0.74113058
O       3.12770550      2.96700706      4.88776073
H       2.94629802      3.71492199      4.29682212
H       2.29312868      2.86566814      5.36136422
O       0.83432719     -0.67145320      4.14102180
H       1.69241329     -0.24379938      3.95400475
H       0.19702105      0.00103331      3.84410591
O       1.68200280     -3.26323295     -3.44661926
H       2.43627289     -3.22093017     -2.83219639
H       2.04823660     -2.96912482     -4.28691941
O      -0.55116346     -5.23439083      2.50947372
H      -0.56142517     -5.77938081      3.30111544
H       0.11246784     -4.54741941      2.68997948
O       1.02860777     -2.82016178      2.41041880
H       0.91942777     -2.10433443      3.08548161
H       0.35633963     -2.59485621      1.75253491
O      -4.29369752     -2.77467604     -3.60026028
H      -3.82225851     -2.75617840     -4.44004605
H      -4.15706146     -3.66760642     -3.26534790
O      -3.66091553     -0.55041123     -1.74635512
H      -2.86623016     -0.10682991     -2.09966709
H      -3.85634733     -1.28309766     -2.34963359
O       3.20833911      0.70662865      3.29283172
H       3.23876852      1.53788783      3.82045522
H       2.85739561      0.96911928      2.42864029
O       5.24175114     -1.08773256      2.60925684
H       5.41232395     -1.69063475      3.33930925
H       4.67194046     -0.38912160      2.98883241
O       3.41673197      2.07498432     -3.15722785
H       3.95926823      2.65877733     -3.69524959
H       3.75297209      1.17246525     -3.34216554
O      -3.02116189      2.19506921      1.58312959
H      -2.24300859      1.89934903      2.10742187
H      -3.58449484      1.40979539      1.42144799
O      -0.78793876      5.20339181      0.24573029
H      -1.55310071      5.24180563      0.85545100
H      -0.02509437      5.11114257      0.83014868
