98
charge=0
N      -3.86655885     -1.37679433     -1.11329705
N       2.17833292      0.74374671     -5.52835284
N       4.56351239      2.05450390      1.67064772
N      -0.69063566     -1.39132284      1.55175146
N       2.03563082      0.03661501      3.43467493
S      -3.14307120     -1.26288198     -2.63038216
C      -2.93958182     -1.26678737     -0.18777565
C       2.40215874     -0.55727806     -5.55688870
C       4.49644631      2.14925169      0.35860202
C      -1.55535087     -1.05182733     -2.00884841
C      -1.59679548     -1.07598828     -0.63268969
C       3.08325808      0.81749115      3.29315850
C      -0.49082994     -0.86665563      0.30424247
C       2.44251652      2.37703698     -3.62884945
C       2.77572315      2.46692462     -2.28614507
C       3.24294212      0.05837730     -2.14906444
C       2.49576735      1.12188656     -4.23456002
C       3.49999925      1.25232328      2.01884224
C       2.90367724     -0.01321111     -3.49269820
C       3.15602838      1.31995437     -1.57322526
C       0.16255666     -1.09887486      2.51565151
C       0.64361248     -0.14312401     -0.01555434
C       2.78383884      0.87622826      0.87783636
C       1.30307823     -0.29474867      2.32656922
C       1.58727580      0.13222382      0.99189569
N       2.84668620     -1.06581603     -4.37305326
N       3.45200743      1.44564076     -0.17811041
H      -3.23325768     -1.29456566      0.85940704
H       2.24823031     -1.19926873     -6.41646903
H       5.17007404      2.71703568     -0.27170195
H      -0.69380122     -0.91896198     -2.65078836
H       3.62127823      1.11874381      4.19149370
H       2.12682552      3.25358423     -4.18580314
H       2.71077577      3.41488618     -1.76320114
H       3.53603997     -0.81301705     -1.57193334
H      -0.04177726     -1.50259117      3.50736836
H       0.76372708      0.25890585     -1.01557707
H       3.10077863     -2.04957775     -4.16940613
O       1.86915294      3.96427742      0.82521773
H       1.76797709      4.04633672      1.79915376
H       2.65469993      4.50870704      0.63525191
O       4.36144172      5.37853402      0.45686962
H       4.69689372      5.25790400      1.36622081
H       4.29152122      6.33079567      0.33818605
O       5.03389814      4.42001749      3.03516118
H       5.83485566      4.49796763      3.56212347
H       5.03481768      3.50270651      2.66334472
O      -0.63246280      1.87972097     -2.48983984
H      -1.49242943      1.66813367     -2.11104010
H      -0.36159717      2.71708383     -2.04887670
O       2.07290826      4.40977432      3.54789635
H       3.03407115      4.48163281      3.63820708
H       1.78585854      3.87800727      4.31969452
O      -0.66854030      1.37003604     -5.26831829
H       0.25786243      1.31777262     -5.57034629
H      -0.61296334      1.66278136     -4.33475663
O      -2.22879731      0.64079921      3.99688759
H      -2.19380937      1.21842917      3.22932005
H      -2.85420614     -0.06891147      3.74813397
O      -2.21712945     -3.74235981      2.14232765
H      -1.82443027     -2.87084685      1.90231758
H      -1.56510037     -4.37621556      1.81726528
O       3.43888590     -3.73410549     -3.68637148
H       3.01627616     -4.13786581     -4.46318431
H       2.74602162     -3.76104682     -2.99885476
O       1.43845861      2.96586958      5.84864850
H       1.05344355      3.49813545      6.55053648
H       0.88505994      2.14847354      5.81336507
O       1.75440165     -3.99948754     -6.00225225
H       0.90394417     -3.87460502     -5.53868053
H       1.58432219     -4.66456855     -6.67543114
O      -4.79059754     -4.53370518      1.27217224
H      -5.09713063     -5.08201707      2.00087978
H      -3.88273352     -4.27038606      1.52470535
O       1.22827293     -3.15568606     -2.02952742
H       0.85690276     -3.58719641     -1.24412037
H       0.54304592     -3.21133703     -2.71768301
O       0.13281992      0.57092244      5.63167576
H       0.79627755      0.21407291      5.01358148
H      -0.69687029      0.58515897      5.11809111
O       0.47419658     -4.18355271      0.65727426
H       0.45776734     -3.30459330      1.06235412
H       1.27355895     -4.59718171      1.00210677
O      -1.62610282     -1.08219527     -5.25278217
H      -2.26213425     -1.10919228     -5.97347056
H      -1.24186871     -0.15355280     -5.27018436
O       0.10110908      4.20762570     -1.20322392
H      -0.55655964      4.87767880     -0.99775695
H       0.66701705      4.13537091     -0.39558054
O      -0.48449650     -3.36178067     -4.39421015
H      -0.87377080     -2.51708712     -4.73804338
H      -1.24380479     -3.92770174     -4.21827967
O      -5.87100221     -1.91259219      1.18863307
H      -5.65981067     -2.86595413      1.14263578
H      -5.61192660     -1.58725063      0.31478089
O      -3.99908890     -1.44877476      3.26864325
H      -4.71676261     -1.50149707      2.60174520
H      -3.64773391     -2.34479249      3.32394416
