88
charge=0
Br     -4.81750597      4.36518234     -3.80483366
N       3.14712904     -0.01431176     -1.30743472
N       1.91821475     -0.12596613      0.81077565
O      -1.15696877     -0.29163444     -1.20631831
S      -3.68673784      2.39289871     -1.64093625
C       2.79221236      0.40792766     -2.51667897
C       0.79524628      0.28124070      1.34927704
C       2.02381184      0.16263885     -0.54111827
C      -4.11982635      2.69643862     -3.28989463
C      -3.90440596      1.61061208     -4.09575596
C      -3.37700728      0.51041862     -3.36982132
C      -3.19589697      0.76473259     -2.03257334
C       1.00303090      0.68355489     -1.29728494
N       0.57223962      0.16600875      2.72974326
N       1.50589983      0.83941176     -2.56276003
N      -0.21945170      0.88443119      0.67089439
C      -2.58503332     -0.13788682     -1.01152666
C      -0.34891669      0.86286320     -0.76535957
H       3.43583272      0.41406814     -3.38645716
H      -4.12228638      1.60465071     -5.15688849
H      -3.12268123     -0.44354054     -3.82270197
H       1.39850071     -0.18627506      3.21226919
H      -0.20165274     -0.48561630      2.90212719
H       0.97495976      1.24181351     -3.34283361
H      -0.97918483      1.33085246      1.19592531
H      -3.00008240     -1.14432361     -1.13006547
H      -2.79433092      0.20493763      0.01092167
H      -0.85863817      1.77343168     -1.10349813
O       2.69202644     -1.07509753      4.64290527
H       2.75265352     -0.97308725      5.59689279
H       2.39185194     -1.99672097      4.49192026
O      -0.30729381     -2.89279999     -0.28817115
H      -0.51554987     -1.95912939     -0.48516171
H       0.26304923     -3.15317235     -1.08387429
O      -2.40782578      2.34145773      1.85154875
H      -2.48093748      3.17170175      1.34111894
H      -1.98848790      2.61719673      2.67952682
O      -0.03924919      2.73941763      3.74473391
H      -0.05455393      2.72186943      4.70734906
H       0.15500555      1.80751182      3.45792339
O      -4.99518821     -2.39596382     -2.05409653
H      -4.50248887     -2.48031120     -2.88630576
H      -5.43394312     -1.54138564     -2.11311885
O      -0.33970008     -1.46100916     -3.83925266
H      -1.12183260     -2.01876800     -3.99778680
H      -0.58977626     -0.94471047     -3.05687208
O       1.59552625     -3.47422033      3.78104154
H       1.87776245     -3.36861651      2.83194840
H       1.87157979     -4.35928639      4.03941097
O      -0.41393357      2.34080659     -3.98107202
H      -1.29391287      1.96534622     -4.10205498
H      -0.50856920      3.00645099     -3.27062578
O       3.76185355     -2.89253566     -1.37796069
H       3.54073067     -3.14986181     -0.47100300
H       3.81291813     -1.91914159     -1.32680294
O       2.78728421      2.98926691      2.44250683
H       3.29172621      2.15479228      2.58097483
H       2.04290803      2.95041713      3.05663353
O      -0.32787759      4.04257809     -1.73037404
H       0.45835941      3.96319964     -1.16415417
H      -1.03043211      4.35902599     -1.13883624
O       2.17564247     -2.92742107      1.22375510
H       2.27835931     -1.94846453      1.19181781
H       1.33411584     -3.04341801      0.73810072
O       1.18665603     -3.39583100     -2.38631061
H       0.88411102     -2.71334102     -3.01638000
H       2.12629767     -3.19880263     -2.17480262
O      -2.78997682     -3.05148867     -3.87601322
H      -2.62945332     -3.53513516     -3.02315311
H      -2.84740165     -3.73713077     -4.54959786
O       1.93523503      4.11690657      0.13671654
H       2.68563308      4.62309097     -0.19090369
H       2.30406935      3.55885551      0.86611283
O      -0.99252409     -2.39658426      2.68481250
H      -0.88663449     -2.73233744      1.78270632
H      -0.33822326     -2.89977279      3.19387022
O       4.13093597      0.57270487      2.64627710
H       3.63134100      0.18256025      1.90634362
H       3.90447208      0.00093739      3.39584149
O      -2.63336671     -4.12020675     -1.40028207
H      -1.87726795     -3.75907410     -0.89488054
H      -3.42498746     -3.70143400     -1.03590759
O       0.02367241      5.16398993      1.98481402
H       0.04777081      4.42822531      2.61657972
H       0.75358407      4.97246268      1.36337763
O      -2.13732847      4.80441985      0.44620026
H      -2.74377342      5.55156134      0.43766833
H      -1.38183219      5.06311260      1.03974593
