95
charge=0
N      -1.52221938      1.63477086     -2.41625441
S       1.58434507      2.75626173      1.45388175
C      -0.89783908      1.55501000     -1.43391851
N       3.85899445     -2.77647921     -1.21543533
O       2.17736444     -2.28994564     -2.55285965
C       0.06313370      2.43944540      0.72504295
C       3.29938256     -3.03074093     -2.34986528
C      -0.03624572      1.42049952     -0.33324072
C       0.89273379      0.38859245     -0.39281606
C       1.00082249     -0.58104724     -1.38387006
C       2.03442971     -1.50325110     -1.44651952
N       3.04083729     -1.83643894     -0.61645842
N      -1.01841404      3.11810503      1.11007584
C       3.72434625     -3.98452351     -3.38340331
C       3.38803628     -1.28789923      0.68896592
C      -2.41928936      2.85016387      0.72189965
C      -0.94645029      4.22788806      2.08500615
C      -3.16355816      4.10886690      1.15636433
C      -2.40519255      4.54814029      2.40965485
H       1.59771405      0.39928897      0.42929242
H       0.33811415     -0.57682814     -2.24509609
H       4.65277358     -4.46595079     -3.07334959
H       2.94465536     -4.74217493     -3.50741416
H       3.88018237     -3.46719465     -4.33522670
H       3.86424337     -0.30310652      0.58488589
H       2.48903012     -1.24077541      1.31138244
H       4.10173240     -1.97494876      1.14750304
H      -2.77702445      1.96016535      1.26047484
H      -2.51342579      2.67280352     -0.34814200
H      -0.41730543      5.06480430      1.61075405
H      -0.37198764      3.91883642      2.96233938
H      -4.22208430      3.90573905      1.33917655
H      -3.08484815      4.86922179      0.37089396
H      -2.54269504      5.60760365      2.64237426
H      -2.72736929      3.95417229      3.27085449
O       1.15914421      3.64720770     -2.82936160
H       0.58806648      4.21078166     -2.26969217
H       0.56070708      2.94726446     -3.11713914
O       5.60284412      1.09530794      0.08499968
H       6.04407785      0.52952615     -0.57085544
H       5.21389811      1.80613536     -0.44017217
O      -4.26051189      0.06409638     -0.98034925
H      -4.89577684     -0.14890241     -0.28461849
H      -3.39885807     -0.16270273     -0.58693404
O      -2.99928073      4.20687480     -2.66461938
H      -3.73557708      3.87080928     -2.12623392
H      -2.56700488      3.38788372     -2.95582451
O       2.49754715     -5.74051597      1.40100962
H       2.61837613     -6.67606002      1.59008887
H       3.40026874     -5.39164021      1.22007145
O      -2.34031038     -1.13150479      0.76678254
H      -2.28067889     -2.01798244      0.37893643
H      -1.46378865     -1.04223382      1.20940626
O      -0.64557824     -3.31347741     -0.24314677
H      -0.17739873     -2.46753188     -0.32565244
H      -0.39578225     -3.62714199      0.64622061
O       3.93441315      0.23236099     -2.92565665
H       3.93628511      0.62544495     -3.80386323
H       3.65973224      0.97281345     -2.32842630
O       3.25467069      2.41136653     -1.40796052
H       2.88007212      2.38289446     -0.50562582
H       2.57656109      2.91424354     -1.90949652
O       0.32966795     -4.21432891      2.33494868
H      -0.20894039     -4.77639915      2.90019960
H       1.12506869     -4.74309782      2.12175180
O      -0.75306062      5.22106470     -1.35510253
H      -0.63319720      6.14521301     -1.59610526
H      -1.59394997      4.95718516     -1.79068117
O      -5.10377508      2.60963344     -1.36844913
H      -5.73862600      2.56656190     -2.09234577
H      -4.66072850      1.72303146     -1.37649439
O       6.36274049     -0.84331413     -2.01692148
H       6.07401630     -1.68678925     -1.65282343
H       5.54773542     -0.48615093     -2.42684272
O       0.13404592     -1.29279533      2.04139651
H       0.22690972     -0.58949226      2.73841167
H       0.21415327     -2.14483081      2.49291728
O      -4.03619192      0.04945334      2.73228838
H      -4.67247341      0.56476559      2.20924015
H      -3.53395227     -0.47814257      2.08276988
O       4.92856757     -4.77577700      0.57510540
H       4.70216031     -4.07708708     -0.07188680
H       5.63207354     -4.40876498      1.11962066
O      -2.31142814      1.58012669      4.23135977
H      -2.94012554      1.03150240      3.70535868
H      -2.55924858      1.42471987      5.14798450
O      -6.00749466      1.44228928      1.08731565
H      -5.82665894      2.04472049      0.34126977
H      -6.83927183      1.73492012      1.47056436
O       1.46216813     -5.04321203     -1.36247252
H       1.73076965     -5.39409138     -0.50151659
H       0.64699811     -4.55230579     -1.16651682
O       0.33915234      0.71758494      3.81604498
H      -0.56506346      1.06586371      3.96198714
H       0.80129059      1.41587553      3.31872528
