106
charge=0
O       4.42822934      1.77077372     -1.57911381
O      -1.08393140     -2.51684627     -1.81210471
O       2.01057767     -2.01040339     -1.40717353
N       5.95624746      1.01771656     -5.60225752
N       4.73860731      1.03530294     -5.17025752
N      -3.71319097     -0.03120812      4.50211245
N       6.65724559      2.05411507     -5.08653385
N      -2.81533134      0.36843008      5.45175716
O      -0.63259578     -3.84559596     -0.05193719
S      -1.47852310      0.25480623      3.26828733
S      -4.21561596     -0.45937653      1.92300611
S      -0.51597884      1.71099721     -0.42369905
C       3.42103340      1.75355675     -2.26621284
C      -0.79968336     -2.67234073     -0.63899417
C       1.62279372     -1.00401919     -0.83114937
C      -3.18833830     -0.13186671      3.30677745
C       5.81516069      2.71734479     -4.31279830
C      -1.60741319      0.54049429      4.99000213
C      -1.85711664      0.65401976      0.02305826
C      -1.83374769     -0.63905779      0.37450205
N       4.62214333      2.10929083     -4.36201323
N       0.55104387     -0.76810506     -0.04188479
N       2.23080000      1.20430882     -1.89785554
C      -0.75601938     -5.01690569     -0.89661165
C      -0.44346323      0.94392766      5.81878194
C      -3.08840008     -1.37314572      0.78349119
C       3.39041946      2.40076240     -3.65704301
C      -0.60612865     -1.52358563      0.37015095
C       0.83065118      0.63877559      0.20345782
C       2.11023024      0.46142262     -0.68276828
H       6.03847848      3.60439437     -3.73668376
H      -2.79912021      1.20516061      0.03757841
H       1.47120636      1.16275059     -2.58394301
H       0.00659210     -4.98398527     -1.67934721
H      -1.75078813     -5.04820518     -1.34810156
H      -0.59263468     -5.85775406     -0.22448232
H      -0.01222684      1.88389140      5.45995157
H       0.32978674      0.17133979      5.77286800
H      -0.76925259      1.06583076      6.85420361
H      -3.73303377     -1.56437439     -0.08418395
H      -2.83611603     -2.32542995      1.26328115
H       3.29722451      3.48612870     -3.55299833
H       2.55602970      2.05115035     -4.26929655
H      -0.45245618     -1.96260021      1.36802270
H       1.02520556      0.86339487      1.25645302
H       3.04135540      0.55086753     -0.11391413
O      -4.69163068      0.02502335     -1.81583868
H      -3.86596762     -0.01504708     -2.35272191
H      -5.39827098     -0.13988870     -2.44733206
O       2.87797719      3.81985160     -6.33473122
H       2.23367497      3.13166921     -6.56943045
H       3.49869774      3.83040888     -7.06927257
O      -5.65683659     -2.12698892      4.83537632
H      -6.43567526     -1.86784432      4.33217095
H      -5.09997887     -1.31969874      4.84585858
O      -1.58721946      4.10106436      4.77774614
H      -2.17486414      3.67452341      5.43540253
H      -2.05149317      4.90298228      4.52038696
O      -4.15354688     -3.97807613      3.37739179
H      -4.67881968     -3.30994970      3.87305283
H      -4.37418059     -4.81311609      3.80116014
O       0.22037760     -2.23997734      4.96745853
H      -0.46368442     -2.67463428      4.40020343
H       0.60746903     -2.95374650      5.48304452
O       2.50779472     -0.58176947     -6.30915106
H       3.31617815     -0.21617937     -5.90584667
H       2.14588708     -1.20314948     -5.65921541
O      -2.36965616     -0.35187200     -3.23891099
H      -1.68335824      0.30575882     -3.44176228
H      -1.90465373     -1.00903471     -2.69585077
O       2.23723589      1.53148491      3.36283643
H       3.05650205      2.02915496      3.28766309
H       1.51968710      2.17891986      3.18314172
O       0.16018996      3.24295599      2.75748368
H      -0.49988426      3.47877193      3.44085541
H      -0.34880271      3.01311778      1.96876357
O       0.20623423      0.79954792     -3.98582224
H       0.29355675      1.21222740     -4.86684392
H       0.46383136     -0.13339287     -4.13107435
O      -3.33368375      2.92659438      6.65188376
H      -3.15587076      3.02280929      7.59241398
H      -3.31137097      1.96468598      6.48027042
O      -1.43707826     -3.36740630      3.14477738
H      -0.93872412     -4.14046717      2.81192727
H      -2.36270939     -3.65290484      3.29288312
O       8.69748237      4.11931209     -4.64919736
H       8.33562552      3.28882727     -4.99544033
H       9.49342252      3.85411724     -4.18013237
O       1.70704190     -1.21532440      2.81724531
H       1.27448577     -1.55486890      3.62717503
H       2.04080150     -0.33160646      3.05029901
O       0.42579811     -5.29714180      2.22416628
H       0.91028577     -5.82978093      2.86180313
H       1.09755883     -4.66950656      1.86857843
O      -4.60355747      2.48783006     -0.35948981
H      -5.05781892      2.28982462      0.46547489
H      -4.76699826      1.69950994     -0.90990708
O       2.35608944     -3.50301406      1.35875833
H       2.39337680     -3.28044353      0.42009612
H       2.25577928     -2.64738455      1.82587404
O       0.97741107      1.61031792     -6.60703044
H       0.38225971      1.56076369     -7.36180159
H       1.51442956      0.77422588     -6.62412354
O       1.03023829     -1.92817448     -4.08131014
H       0.21678184     -2.43627044     -3.97395005
H       1.49254237     -2.04750691     -3.23100921
