106
charge=1
O      -0.81481597     -4.81417011     -3.66195030
C      -0.40395053     -3.65957338     -3.83214615
C      -0.27836080     -2.67353455     -2.79938327
C       0.31142904     -1.45492252     -3.01407000
C      -2.95388310     -2.40533229     -1.07796791
C      -1.68233344     -2.37710151     -0.66568386
C       3.18691871      1.97155330     -4.14611461
C       3.15160704      2.23593433     -2.77582396
C       2.43879788      0.93077655     -4.70627252
C       2.35653645      1.45808653     -1.92291099
C       1.65902580      0.17184244     -3.84547811
C       1.62085502      0.42308364     -2.46771062
N       0.83861459     -0.91618744     -4.14716165
C      -3.49629890     -3.10257354     -2.27882291
C       0.79641085     -2.67404111     -0.59175742
C      -0.73722698      0.37539166     -1.63498987
C       0.37590265     -0.41150902      1.81865261
C      -1.34642471     -1.67555121      0.61180218
C      -0.70813361      0.63680556     -0.14547419
C       0.86870515     -1.15945394     -0.51715789
C      -0.49512936     -3.05378935     -1.34641241
C       0.56107000     -0.47813522     -1.87813846
N      -0.20902385     -0.65484650      0.46210606
H      -0.07917108     -3.36309339     -4.84714027
H      -3.67909421     -1.85048921     -0.48024865
H       3.81695179      2.58776749     -4.78000483
H       3.75477881      3.04676533     -2.38144138
H       2.46425117      0.72715017     -5.77228600
H       2.33080756      1.66575664     -0.85552185
H       0.59348708     -1.19414589     -5.10663712
H      -4.41280595     -3.64477071     -2.01899791
H      -2.79194523     -3.80360471     -2.72516317
H      -3.77246754     -2.37144608     -3.05102040
H       1.66689309     -3.04403559     -1.14186558
H       0.83829905     -3.11581243      0.41001880
H      -0.70127115      1.30238874     -2.21236807
H      -1.62241644     -0.19059781     -1.92756675
H      -0.43400162     -0.11089106      2.48736791
H       1.12619980      0.37660474      1.74302579
H       0.84801295     -1.33022975      2.17411739
H      -2.19591371     -1.13120545      1.02833214
H      -0.99969799     -2.39687931      1.36024474
H      -1.67310373      0.89106032      0.30176115
H       0.01740123      1.41681825      0.10716886
H       1.82592063     -0.80308273     -0.12182262
H      -0.62316087     -4.13840027     -1.30498870
O      -0.24507985     -3.94318551     -7.35640106
H       0.01370717     -4.52163106     -8.07957222
H       0.06665088     -3.05695335     -7.59395008
O      -4.44097374     -0.86403303      1.96477178
H      -4.25093009     -1.81737233      2.10622911
H      -5.39671169     -0.77511757      2.02589227
O       3.73340847     -0.03668461      1.12965550
H       3.50531240      0.79310216      1.62207369
H       4.60407844      0.11461785      0.74862618
O      -0.47606675      1.63148830     -6.75862390
H      -0.33915964      2.10222619     -5.91597210
H      -0.17511246      2.23589462     -7.44304075
O       1.83355705      0.27553335      4.62230969
H       2.30453433     -0.51443578      4.29343401
H       0.94978189     -0.03286464      4.87861019
O      -1.91683678     -6.24414992     -1.51398412
H      -2.68369716     -6.70875023     -1.86174183
H      -1.52717597     -5.77714131     -2.28394320
O      -0.25215404     -1.16800706     -6.74639959
H      -0.32757756     -0.20216584     -6.87924446
H      -1.16125462     -1.47413424     -6.55464273
O       0.09538445      2.63269726      5.49587912
H      -0.30145702      1.77158033      5.73603215
H       1.04455473      2.45564329      5.48679471
O      -2.51705476     -2.74559061     -6.14205345
H      -1.99388964     -3.45699632     -6.55340183
H      -3.34297089     -2.72656669     -6.63568268
O      -0.93899266      0.02222706      5.50372475
H      -1.61953480      0.10286354      4.79433327
H      -1.33719947     -0.49248918      6.21213179
O       0.74669843      3.39174136      1.21293273
H       0.95532329      4.30746697      1.00220421
H      -0.02743679      3.43383090      1.81849624
O      -3.62625802     -3.47350206      2.38823986
H      -3.05747838     -4.03529465      1.81838254
H      -4.15532139     -4.09130822      2.90080183
O      -1.81533920      4.86769282      5.26255181
H      -1.79400298      5.75678798      5.62798644
H      -1.10755515      4.38266167      5.71106845
O      -1.80600420     -5.05736082      0.99862223
H      -1.44635123     -5.79086666      1.50771546
H      -1.94361479     -5.43113057      0.09990029
O       5.43631575      4.45601989     -3.91748986
H       6.33850352      4.12105832     -3.89890937
H       5.53733222      5.38507433     -4.14780474
O       2.83147870      2.03599005      2.62047885
H       2.13323173      2.56807809      2.19345698
H       2.39864791      1.56508286      3.35893132
O      -2.45021621      0.53375818      3.31787359
H      -2.40723015      1.48839429      3.14082446
H      -3.27633578      0.17451652      2.93733397
O       3.07931752     -1.83226795      3.16978635
H       3.79574759     -2.36419873      3.52971099
H       3.47857238     -1.30665634      2.44521642
O      -1.27224227      3.14965178      3.09468036
H      -0.68990348      2.88676376      3.84139097
H      -1.70131873      3.93706074      3.47339801
O      -0.03568810      2.94453749     -4.22476363
H      -0.21324331      3.88699473     -4.13775431
H       0.90762736      2.84625140     -4.02476966
