70
charge=0
O      -2.68173441     -1.25467276      0.47833125
O      -0.48404605     -2.54962116      0.57644549
O      -1.87032120     -2.51823393     -1.58198517
O      -0.44704515      0.01260170      0.58692894
O      -1.84836776      0.04752130     -1.55794577
O       0.36286841     -1.26206134     -1.46567401
P      -1.24571728     -1.24906179      1.33192232
P      -2.85898351     -1.22490482     -1.19905375
P      -0.30110799     -2.73697513     -1.08714620
P      -0.26119802      0.23500139     -1.05996401
O      -3.99261913      0.36431020      2.64694438
H      -3.50184512     -0.00272124      3.41516042
H      -4.09796872     -0.39280003      2.05819502
O      -0.11680821     -0.53739556      5.03484719
H       0.27425836      0.13106766      4.43008777
H       0.29466938     -1.38823955      4.77371342
O       2.40853195      0.57952289     -3.16287734
H       1.55731117      0.24239544     -3.50727747
H       3.02570167     -0.17883776     -3.23636386
O       2.26242692     -2.91491154      1.58989090
H       1.33998660     -2.89124092      1.29455802
H       2.50685793     -1.96465588      1.67396638
O       2.96709775     -0.24729241      1.73843130
H       3.86834290     -0.10196858      2.04500614
H       2.91724884      0.21003396      0.85089777
O      -3.22953837      1.33331973     -5.36543989
H      -2.66237089      1.90986419     -4.81987866
H      -2.82937390      1.37010017     -6.24028663
O      -2.65356561     -0.94913652      4.70448395
H      -3.03814655     -0.89008837      5.58506078
H      -1.66721886     -0.73034102      4.82906011
O       1.43291695      3.64785841     -0.20797149
H       0.69997621      3.52946494      0.43666411
H       1.95023299      4.39066725      0.11833806
O       3.60479711     -3.42420176     -0.85847190
H       3.16240250     -3.27675140      0.00280103
H       4.40419138     -3.91301941     -0.64236787
O      -0.11407984      0.09278813     -4.30267141
H      -0.79531537     -0.59692849     -4.24337218
H      -0.61145467      0.91203249     -4.13621088
O      -0.52877604      3.15114538      1.67594292
H      -0.68229250      3.79114014      2.37856675
H      -1.42965023      2.83546243      1.40432720
O      -2.10084979     -3.41077975      3.39946907
H      -2.40565437     -2.64002829      3.92060265
H      -2.61846635     -4.15682819      3.71746524
O       1.13716334      3.29294816     -3.09059522
H       1.23620122      3.46681187     -2.13918415
H       1.72145201      2.53562046     -3.25945093
O      -2.94844288      2.22635535      0.95349421
H      -3.66652694      2.85567016      0.83441154
H      -3.29180248      1.56918483      1.60937896
O      -2.72397906     -1.16608250     -4.17869384
H      -3.16745826     -1.89302872     -4.62556472
H      -3.03403676     -0.34935224     -4.62593325
O       3.98952496     -1.73808405     -3.09633959
H       3.81753261     -2.22491097     -2.26530754
H       3.74494634     -2.36220570     -3.78643626
O       2.81114473      1.14525936     -0.48385300
H       2.63446091      0.89460531     -1.41903793
H       2.37640221      2.00634154     -0.35586373
O       0.69507633     -3.10889694      4.20459249
H       1.33758235     -3.19698541      3.48456084
H      -0.15930366     -3.38636022      3.83011610
O      -1.47409447      2.58064424     -3.50496397
H      -0.55464085      2.92144941     -3.36416280
H      -1.78224323      2.30424961     -2.63406358
O       1.06866649      1.27149740      3.28145264
H       1.70595537      0.76044122      2.75015009
H       0.50070972      1.71879637      2.63423289
