86
charge=0
O      -0.76987346      1.38111750      2.96989912
N      -1.00844056     -5.83045538     -3.34856124
N       1.15216081     -6.09159917     -2.71844308
O       0.84294110     -6.94693433     -3.79406181
C      -0.44015068     -6.72195933     -4.09808198
C       0.01988078     -5.45091625     -2.49864455
C      -0.16863616     -4.42678480     -1.49455552
C       0.81187701     -3.94778784     -0.71224136
C       1.62367935     -2.72702785      1.26609439
C      -0.44640774     -2.00623585      0.25540386
C       1.49600176     -1.75444829      2.24688513
C      -0.59160684     -1.03692974      1.23425576
C       0.64764308     -2.88736507      0.27192017
C       0.37439692     -0.93443255      2.23072486
S       0.20184541      0.29878743      3.53749011
C      -0.87465211     -0.68334257      4.64767561
H      -0.86223440     -7.25988756     -4.94010139
H      -1.17880712     -4.03479146     -1.44753938
H       1.80872495     -4.37752969     -0.79358775
H       2.49538862     -3.37552195      1.26452544
H      -1.17298142     -2.06154433     -0.54923785
H       2.24867387     -1.64019662      3.02111014
H      -1.43305409     -0.35024973      1.21616223
H      -1.12138261     -0.04986409      5.50453748
H      -0.29984808     -1.55543227      4.97000318
H      -1.77549590     -0.97200170      4.09934342
O      -0.55165138      2.53563185      0.37203270
H      -0.57029668      2.01484308      1.19792717
H      -1.44058100      2.94586278      0.33483981
O       2.35967610      1.66736623      1.94443548
H       2.35804949      2.62586976      1.79748574
H       2.94164185      1.50540865      2.71363902
O       1.78413627      1.17239227     -0.82053531
H       2.14267911      1.12083282      0.08305665
H       0.88377865      1.50133103     -0.68157134
O      -0.02531204      4.03863594      3.48542953
H       0.57948172      4.38160280      2.80422649
H      -0.15356815      3.09405762      3.24477869
O      -2.66773017      4.75697315      3.30208383
H      -2.84625350      5.66094211      3.57886025
H      -1.68928833      4.64368869      3.37324214
O      -3.07996231      3.72903621      0.67270899
H      -3.39704896      4.40836992      0.07056903
H      -3.03446159      4.16203632      1.54726362
O      -0.43626158     -2.26201177     -3.57878637
H       0.20411125     -2.87301186     -3.98819401
H      -1.01253023     -2.00342255     -4.31592045
O      -0.15005589      2.97729343      6.16378995
H      -1.05684554      2.69656239      5.91698363
H       0.11030432      3.53852133      5.41452042
O       3.79340712      1.09540802      4.33049405
H       3.71906117      0.14079823      4.46845203
H       3.22766818      1.43958661      5.04133722
O      -3.21810224     -4.63269235     -5.04715828
H      -2.66833686     -4.88274061     -4.28516827
H      -2.92601952     -5.26217421     -5.73402085
O       1.88347270     -1.20359738     -2.28058000
H       0.98276048     -1.34701092     -2.62141644
H       1.85227997     -0.37154431     -1.76310394
O       3.43595772     -1.80161801     -4.38166193
H       2.94708234     -1.45749231     -3.58819490
H       3.43954589     -1.07258764     -5.00889769
O       1.68988920     -3.82759174     -4.81868339
H       2.01564854     -4.53084319     -4.24316395
H       2.37600279     -3.11361007     -4.76765586
O      -1.75420270     -6.28053060     -6.88062808
H      -1.09249105     -5.55098195     -6.99706896
H      -1.99574995     -6.54919720     -7.77164876
O       1.90313652      1.32064428      6.60947293
H       2.22794925      1.60194648      7.47033440
H       1.09479351      1.87765789      6.44746953
O       1.44352862      4.28368532      1.07991512
H       1.90062178      4.74207600      0.36912841
H       0.74356610      3.73363431      0.65384285
O       2.34292808     -1.26693706      5.56260182
H       2.11350308     -0.45823199      6.06115600
H       2.65686902     -1.89100529      6.22397622
O      -2.09836105     -2.33520904     -5.94630382
H      -2.73800171     -1.76648254     -6.38408767
H      -2.60933397     -3.11882189     -5.61276974
O      -2.61824739      2.25673666      4.97240008
H      -2.98042277      3.09175411      4.64046727
H      -2.17807284      1.88298706      4.18724837
O      -0.08853786     -4.14018167     -7.03184685
H       0.60867192     -4.10396047     -6.35057907
H      -0.68631171     -3.40711175     -6.80262765
