101
charge=0
N      -1.59566362     -3.05714314     -3.30747983
N      -0.89824568     -0.36809819     -1.44959708
O      -2.49573381     -1.08678286     -5.74814190
O      -1.89011503      1.54273227     -3.89121278
O       2.21894257     -4.16238053      1.73061918
S       4.47547872     -2.21410905      4.19984529
C      -1.70575954     -1.78473029     -3.47109100
C       4.07360425     -3.41016148      3.01597845
C       2.08536339     -2.20204029      3.25219676
C       2.76582859     -3.28354469      2.61967566
C      -2.10645621     -0.85746263     -4.50764604
C      -1.82723625      0.28331745     -3.72133716
C       2.88054691     -1.52558730      4.13805654
C       1.04603252     -1.56869346     -0.60113253
C       1.76537968     -2.49156870      0.03938528
C      -1.38503634     -0.59634782     -2.61531182
N       1.57634010     -0.72788146      6.08199534
C      -0.46090054     -1.49966052     -0.62114897
C       1.21295491     -3.61888197      0.86042869
C       2.19537797     -1.65136975      7.04096473
C       1.09378799      0.47790243      6.76427586
C       2.50365938     -0.35901719      4.99351521
H      -1.92407828     -3.54695587     -4.14087748
H      -2.17425515     -0.31422080     -6.32619250
H      -0.96194146      2.36848397     -3.23509158
H       4.79451361     -4.14020399      2.67644273
H       1.05269321     -1.93305939      3.06564025
H       1.56548133     -0.79700420     -1.16802190
H       2.85261755     -2.46226310     -0.03161305
H      -0.83802970     -1.34743557      0.40240810
H      -0.89264046     -2.44248191     -0.98699402
H       0.32533844     -3.31079717      1.43519033
H       0.91561412     -4.46403563      0.22655002
H       3.10605521     -1.22294692      7.49881174
H       2.46718445     -2.58311785      6.53663657
H       1.47386275     -1.87370617      7.83277629
H       0.39286995      0.18258264      7.55222113
H       1.91539907      1.06057271      7.22038542
H       0.56784337      1.11836257      6.04490193
H       3.41421596      0.12366378      5.39810624
H       1.99406319      0.38597984      4.36757605
O      -2.01177823      2.65898815      5.16266508
H      -2.55352457      2.14563135      4.51809441
H      -2.53587847      3.43830447      5.37530154
O      -0.83932565     -1.77369695      5.16376296
H       0.06641067     -1.46970107      5.45610280
H      -1.44274449     -1.18349416      5.65126787
O       1.08914389     -3.75806998     -2.98817665
H       0.10880164     -3.61773080     -2.94975403
H       1.42370527     -3.27707737     -2.21676319
O      -1.22675943      0.73103204     -7.04783238
H      -0.97269984      0.41930170     -7.94908006
H      -1.62655926      1.62650013     -7.07783445
O      -0.47705282     -2.74987755     -7.26329934
H      -1.27073337     -2.48503465     -6.77678914
H       0.23166718     -2.71389585     -6.59320195
O       2.58402260      1.58237114     -1.05145702
H       1.77324576      1.88049868     -0.62112501
H       3.07830686      1.13612758     -0.33664146
O       0.42816336      3.18334852      3.85905196
H      -0.38607798      3.04741959      4.38448062
H       1.11662592      3.41253880      4.49039587
O      -1.37575258     -0.66948929      2.73075647
H      -0.60944930     -0.08088311      2.56515810
H      -1.14574481     -1.16183475      3.56005843
O       1.58416803     -2.43710359     -5.28188218
H       1.44294246     -2.92867254     -4.42653303
H       2.45346852     -2.71155584     -5.59122363
O       1.93525354      2.23018404     -3.67157975
H       1.74391013      1.49611898     -4.31548506
H       2.39255369      1.84494401     -2.89724983
O      -3.36069111      0.81803491      3.65649480
H      -4.08407971      0.86782114      3.02490655
H      -2.65093021      0.24964010      3.22997895
O      -0.39154342     -0.72080839     -9.17224014
H      -0.33085895     -1.51161013     -8.58880247
H       0.50342041     -0.57650260     -9.49413479
O       1.24485528      0.39120460     -5.49747178
H       0.40731656      0.53718087     -5.97192357
H       1.31893005     -0.57125650     -5.36053684
O      -2.74696418      0.03562847      6.45100023
H      -2.34078860      0.91462194      6.42691409
H      -3.33312523      0.05628460      5.67891544
O      -0.23024396      3.00265049     -2.78685566
H       0.73806196      2.68744753     -3.18866421
H      -0.24732670      2.73333698     -1.82386030
O       0.73377430      1.08342235      2.07783519
H       0.38572544      1.40171607      1.21853441
H       0.68572202      1.85754238      2.68034943
O       3.44902267      0.44063101      1.40906403
H       3.65222659     -0.48550389      1.58382984
H       2.53922877      0.54675977      1.74691793
O      -1.19056596     -1.91453219      8.27518709
H      -1.07285526     -2.47600683      7.49887855
H      -1.91690705     -1.33606606      8.00931537
O      -0.44334733      1.88974332     -0.37304362
H      -0.68489590      0.92711404     -0.85265738
H      -1.26573172      2.22525272      0.00437680
O      -2.53981857      2.97189286     -6.24446854
H      -2.43047411      2.53282447     -5.37674221
H      -2.11861525      3.83068290     -6.14069497
