94
charge=0
N      -3.84195396     -0.38155221      2.01410939
O       2.21761668     -0.32328898     -5.79181164
O       3.75445586      0.15368439     -4.31251462
C      -2.71226562     -0.40000507      1.72839562
N       0.27327669     -0.05325990     -3.89522307
N      -0.32671479     -0.12135262     -2.73837926
N       1.87112604     -0.13493124     -2.32758949
N      -3.02343633      2.88227020     -1.55487483
O       0.92300249     -0.77518573      1.78837885
C       1.58793766     -0.07667572     -3.62008336
C       1.25846377     -0.68746060      0.45236176
C       0.33016056     -0.32170831     -0.44958264
C      -0.38003331     -0.71607961      2.18416037
C      -2.34249749      3.91389060     -1.04389564
C      -2.60984000      1.64905519     -1.24897424
C      -1.22970444      3.75532439     -0.22342619
C      -0.80616274      2.46783664      0.08386782
C      -1.51263579      1.38647304     -0.43566004
C      -1.37721169     -0.41547023      1.30586150
N       0.65299752     -0.18502408     -1.81369634
N       2.60824190     -0.07723288     -4.65751809
N      -0.51686795     -0.92990587      3.51701144
C       2.67971821     -1.05943997      0.24903607
C      -1.11522910     -0.05206375     -0.13963205
H      -2.69690653      4.90710427     -1.31467798
H      -3.16631814      0.82268752     -1.69421226
H      -0.68257814      4.61772314      0.14353614
H       0.08075370      2.30396173      0.69288665
H      -1.39608007     -1.39568369      3.78583356
H       0.29858822     -1.35307196      3.95924437
H       3.30144418     -0.16572979      0.12523662
H       2.79308335     -1.67023142     -0.64895490
H       3.02866005     -1.61997558      1.11987811
H      -1.73304940     -0.69687277     -0.78050203
O      -3.31794166     -1.46501921     -5.14236907
H      -2.96175791     -0.58339177     -5.40874616
H      -2.52864443     -2.02286572     -5.07610541
O      -0.52384798     -2.51652866     -5.32736177
H      -0.19058291     -1.60592638     -5.35033837
H      -0.27584897     -2.89256198     -6.17857968
O       4.02816176     -2.70043897      3.08481411
H       3.36549939     -2.56679909      3.78840722
H       4.45235633     -3.53960959      3.28669993
O       0.54144157     -3.07630575     -2.53607752
H       0.21827785     -3.09839548     -3.44825508
H      -0.26322033     -3.14475111     -1.99963763
O       1.86751829      5.03092860      0.56458566
H       2.51493543      5.41683063     -0.03355221
H       2.11440328      4.07996757      0.63164012
O      -4.86720164     -0.75945903     -3.11098546
H      -5.74744524     -1.04839487     -3.37561925
H      -4.26118610     -1.09754498     -3.83413510
O      -4.11581362     -2.01985135     -0.75894390
H      -4.34144206     -1.48085556      0.01025678
H      -4.41490628     -1.52846587     -1.55584479
O       2.40042189      2.37189319      1.19017850
H       3.35331915      2.14732453      1.12582492
H       2.22949111      2.60054722      2.12679654
O      -2.70823199     -2.75259619      3.91500376
H      -3.51743182     -2.38486312      3.53931328
H      -2.29848241     -3.25053271      3.18225808
O      -1.06213535      2.10094346      3.81811171
H      -0.95206705      1.14133051      3.92432776
H      -1.63475754      2.19381524      3.04796909
O      -4.42773335      2.09108328     -3.98198780
H      -4.73320874      1.23614838     -3.63842086
H      -4.10346434      2.56145237     -3.18911760
O       1.57776690      3.02996422      3.81798756
H       1.69130347      4.00589200      3.81480274
H       0.61536292      2.85077715      3.81974552
O      -1.87808248     -3.50852409     -0.82159572
H      -2.68928432     -2.93721465     -0.81285809
H      -2.18953296     -4.35670572     -1.15601892
O       2.07091581     -1.76922239      4.94337983
H       2.36497856     -0.83680835      4.82115055
H       2.06623136     -1.92521195      5.89304973
O      -1.00530607     -3.74522195      1.85043877
H      -1.28839834     -3.67806981      0.91496483
H      -0.55808919     -4.59414487      1.91529728
O       5.52704434     -0.21658004      3.02875049
H       4.91445080      0.22583567      3.63557597
H       5.15303723     -1.11405783      2.96703056
O       2.88657343      0.64206436      3.99424334
H       2.51571286      1.53377037      4.17247717
H       2.61808949      0.47463137      3.07922018
O       5.06903689      1.58815761      0.99451448
H       5.53523725      1.39996929      0.17507714
H       5.32639352      0.87770850      1.62560867
O      -2.36554805      1.08408450     -5.58475854
H      -1.54658059      1.11822018     -5.07652029
H      -3.02784757      1.56607314     -5.03894717
O       1.96184794      5.71178314      3.28446470
H       1.28486469      6.36346849      3.48970336
H       1.93627477      5.61007157      2.30894119
