76
charge=0
S       0.08309527     -0.94202592      0.25675101
S      -1.99086472     -0.60958643     -1.94505653
C      -0.84078029     -3.41314900     -2.48351071
C      -0.64830475      0.60456171      0.70608362
C      -1.76230264      1.16537193      0.23368844
C      -0.81194759     -3.02801710     -1.20972291
C      -2.69503510      0.65151470     -0.81134431
C      -1.31715006     -1.73101693     -0.66547832
H      -0.46207138     -4.39196483     -2.76049806
H      -1.25354117     -2.79539137     -3.27751833
H      -0.05278505      1.12141355      1.45446963
H      -2.04131115      2.12979536      0.65672847
H      -0.40216553     -3.70366661     -0.45887451
H      -2.98488072      1.47280298     -1.47599006
H      -3.61129674      0.25742533     -0.35073614
H      -2.10466507     -1.92405445      0.07869456
O      -2.00976595      4.56880508      1.05542358
H      -2.22238469      5.14135761      1.79869986
H      -1.03912486      4.37524006      1.14224840
O       1.90648650     -1.24826488     -2.70894593
H       1.14950088     -1.84606281     -2.64541996
H       2.46373075     -1.50326771     -1.94514676
O      -1.65495359      5.44306825     -1.50113633
H      -2.37163171      5.97446744     -1.86034826
H      -1.90874204      5.23720900     -0.56898131
O      -1.59545482     -4.70861340      2.13479168
H      -2.36560009     -4.76359313      1.54447048
H      -0.85137970     -5.10575524      1.63561901
O      -1.06546615     -2.20416504      3.05853230
H      -0.78506952     -1.78413067      2.22481734
H      -1.23776596     -3.14137206      2.78088393
O       1.26078053      5.34649151     -1.62365219
H       0.34829290      5.67449291     -1.67476313
H       1.34936897      4.74251531     -2.39117811
O       2.32783479      1.99836892      0.35739025
H       1.94621240      1.71293186     -0.50406497
H       2.96875982      2.69743540      0.11778370
O       0.64086541      4.20139375      0.96945286
H       1.07648623      3.32826103      0.94999514
H       0.86278291      4.56252874      0.08988341
O       3.48571132     -1.98256053     -0.45459526
H       4.42702816     -2.08775550     -0.62841221
H       3.43127276     -1.31189982      0.28264644
O       3.73742875      4.38794230     -0.38830586
H       4.01109719      4.87167341      0.39770260
H       2.99272077      4.90463599     -0.73869266
O      -3.85604451     -1.90121566      1.88347004
H      -3.99264518     -2.85904186      1.93253735
H      -3.07716934     -1.74791387      2.44204350
O       1.67911318     -1.98362937      3.47346557
H       0.70020224     -2.08633350      3.51605119
H       1.99194898     -2.07921163      4.37837553
O      -4.68659998     -2.39343653     -0.87882835
H      -4.06076332     -2.02547734     -1.52295672
H      -4.50197941     -1.90364748     -0.05967098
O       1.52590423      3.52137596     -3.73853120
H       2.29585205      3.56987909     -4.31283770
H       1.59779917      2.66533058     -3.25385202
O       2.53304759     -3.93238936      1.46353685
H       2.26889067     -3.32195194      2.17428106
H       2.85149779     -3.35594516      0.74533278
O       1.23184324      1.35598160     -2.12922090
H       0.26736864      1.48157479     -2.07804540
H       1.38450512      0.40540610     -2.35761760
O      -4.05596606     -4.61179680      0.65932287
H      -4.26626943     -3.99319397     -0.07263882
H      -4.69223508     -5.32921794      0.59361812
O      -1.24855878      2.82940448     -2.76307659
H      -1.41557799      3.67433688     -2.30973211
H      -0.69147546      3.08136223     -3.51093826
O       3.29213188     -0.30668725      1.62237299
H       2.92894007      0.54189989      1.29364688
H       2.65956686     -0.66171861      2.26786248
O       0.58873184     -5.62930532      0.66260671
H       1.32908741     -5.04226861      0.95851900
H       0.89514188     -6.52529955      0.82951327
