89
charge=0
O      -1.83867778     -0.41494054      3.68373932
O      -0.97293394     -2.59482982      1.91535597
O       1.47010636     -1.50597857      3.39959942
O       1.80706743      0.67310212      2.16552193
O       0.80848959     -0.43178657     -0.28718595
O       3.16837493     -1.34182945      1.54242791
C      -1.83813141      0.28669444      2.66158376
C      -0.75137186     -1.56456305      1.31958878
C      -0.12155658      0.59474471     -0.37739342
C      -1.98424574      1.70819659      2.65658869
C      -2.33739563      2.40268300      1.50446319
C      -3.52666130      1.34686441     -0.17438036
C      -3.89136510      0.00224043     -0.03743005
C      -2.24403745      1.73015063      0.26081037
C      -1.26681519      0.61910552      0.28167003
C      -3.13645267     -0.84439860      0.78587037
N      -3.63233537     -1.98015229      1.26955188
C      -1.73057831     -0.42705277      1.21914658
C       0.64550445     -1.35707511      0.74978897
S       1.78837101     -0.80361077      2.15379230
H       3.93749361     -0.70270818      1.76561377
H       0.21340862      1.35188777     -1.07580803
H      -2.08852535      2.17275555      3.63347073
H      -2.90257135      3.33161267      1.59840064
H      -4.31105610      2.08394752     -0.34997170
H      -4.87918008     -0.31920452     -0.35524931
H      -4.58252811     -2.24044719      1.05937252
H      -3.09127577     -2.57861801      1.88224209
H       1.04601602     -2.33136614      0.43503555
O       5.13254671      0.27286195      2.07136600
H       5.42846038      0.65531241      1.19975795
H       5.89602277     -0.18261405      2.44314768
O       0.35812880      0.83115176      5.09940520
H      -0.50953570      0.47388502      4.84323126
H       0.95224638      0.10905653      4.85236901
O      -1.93230832      1.60343272     -3.23018925
H      -1.62687817      2.25709316     -2.58008940
H      -1.11172523      1.23763311     -3.63923042
O      -1.50435812     -2.31943487     -1.22208961
H      -2.23044329     -1.92218623     -1.75569827
H      -0.74051843     -2.26319101     -1.82569280
O      -5.82289908      0.23973161     -2.67816360
H      -6.59257954     -0.05318141     -3.17485787
H      -5.43751611      0.96437768     -3.21873430
O       0.51150472      3.98934437      0.80509866
H       0.37867987      3.60294060      1.68638253
H       1.37205684      3.63535835      0.53254767
O       5.51898447      1.30890255     -0.35943509
H       6.14335347      2.01881800     -0.54076790
H       4.63236249      1.72879005     -0.39712337
O       2.97963294      2.37225901      0.13322178
H       3.31179120      2.72249365      1.00749936
H       2.45666814      1.60596824      0.42368794
O      -1.13638272     -4.98135354     -0.27427198
H      -1.32958546     -5.08891602      0.67580179
H      -1.50795779     -4.11611837     -0.53056330
O      -0.61372106      3.79435999     -1.71434012
H      -0.89680187      4.67832939     -1.96860982
H      -0.43164667      3.84527061     -0.74898605
O       1.01820254     -2.06098701     -2.70086829
H       1.27906080     -2.93490004     -2.35514827
H       1.31829396     -1.45706432     -2.00789011
O       1.07455843      3.12524097      3.63966821
H       0.92002595      3.77867353      4.32969601
H       0.80755974      2.26895364      4.04907001
O       3.73589718      3.03669103      2.63284175
H       4.11131475      2.18033440      2.88036745
H       2.85576854      3.05106335      3.06581011
O       1.83638002      2.54529560     -2.65055914
H       2.37221305      2.58497317     -1.84651313
H       1.07527957      3.11996614     -2.45766705
O       0.42874093      0.53958327     -4.16395383
H       0.58453729     -0.39168920     -3.95094056
H       1.11129859      1.04321541     -3.68617006
O       1.38425110     -4.16559419     -0.82853087
H       0.50525249     -4.57682347     -0.61130227
H       2.02629680     -4.87813343     -0.76242721
O      -1.31957371     -5.41052580      2.62997399
H      -0.43640615     -5.03729583      2.72904104
H      -1.86468959     -4.77016765      3.11668634
O      -3.18714908     -1.02148882     -2.98780968
H      -4.12890030     -0.82683341     -2.84689886
H      -2.77078195     -0.14245278     -2.93788971
O      -2.75868199     -3.21001575      4.02074949
H      -3.26076000     -3.16768366      4.83945681
H      -2.27489935     -2.36639532      3.97149568
O      -4.46429138      2.19611087     -4.14909624
H      -3.52246396      2.02360444     -3.92796182
H      -4.50887217      2.09262223     -5.10450239
