87
charge=0
Cl     -1.16668977     -3.38672905      4.29851746
Cl     -0.40417756     -0.60875821      2.89262209
Br      0.44053906      1.40699266     -6.64655343
N      -1.96478901      0.47390699     -3.43033102
O      -2.16099203     -1.25445537     -1.98790659
C      -0.08428326     -2.69994304     -3.22557693
C      -0.78896730     -3.29262373     -2.26237162
C      -1.38419654      1.08031828     -4.47724085
C      -1.53444873     -0.72395609     -3.08091355
C      -2.02790458     -4.14272742      1.84346617
C       0.11298597     -0.76495132     -4.80354186
C      -2.24939809     -3.96022871      0.48611698
C      -1.36177032     -1.72563907      0.62444200
C      -1.45252624     -3.12223103      2.59801272
C      -1.12597938     -1.90967629      1.98403380
C      -0.35695844      0.48331409     -5.18681959
C      -0.49084868     -1.40256447     -3.72512358
C      -1.90259132     -2.75950051     -0.13199677
C      -1.99925824     -2.64941205     -1.64234409
H       0.80582325     -3.15969680     -3.64541535
H      -0.49666064     -4.25227094     -1.84924771
H      -1.74283495      2.07346261     -4.73203039
H      -2.28488354     -5.07857893      2.32775068
H       0.94765806     -1.23996578     -5.30899439
H      -2.68092003     -4.77111740     -0.09511896
H      -1.10747010     -0.77675518      0.16207291
H      -2.91497440     -3.17283588     -1.97296073
O      -0.42601046      1.17367982     -0.59345626
H      -0.31532192      1.85167184      0.09179915
H      -0.10815829      1.60215002     -1.42986007
O       3.61362330     -1.19847331      1.19528009
H       3.41182448     -2.05834524      1.60717137
H       3.63176707     -0.58224412      1.94686732
O       2.73248080      0.38181219     -2.88485884
H       2.89084075     -0.31913186     -3.53696053
H       2.37710965     -0.10503338     -2.11635738
O       0.86025093      4.37936448     -0.72988501
H      -0.10502765      4.47404899     -0.83115091
H       0.96379889      3.93323547      0.11794036
O       3.35910042      0.30539097      3.69193559
H       2.64708108      0.98741670      3.74120715
H       4.14159505      0.72002300      4.06853634
O      -2.31689829      4.71425016      1.74639553
H      -2.32200276      4.81115784      0.77378779
H      -2.94571880      3.99672515      1.90764275
O       1.44116458     -3.65393089     -0.12759355
H       1.68741817     -3.69082179      0.81097395
H       1.20037712     -2.71985048     -0.27952176
O      -2.00382251      4.62874878     -1.06742342
H      -2.47763175      3.84017843     -1.44470118
H      -2.22960049      5.35676854     -1.65518428
O      -2.97196101      1.69426701      1.88060358
H      -3.32143576      1.00878928      2.46403717
H      -3.18775705      1.34622333      0.99112302
O      -0.38352375      2.75835441      1.91264348
H      -0.85322464      3.62562294      1.91691189
H      -1.15157274      2.15345835      1.99391795
O       1.51710470     -0.82421937     -0.58755071
H       0.88747015     -0.08445380     -0.44444614
H       2.20302402     -0.77116051      0.11180826
O       1.24088880      1.98038897      3.94958851
H       1.14387049      2.60665988      4.67210315
H       0.69191484      2.33830628      3.20991361
O      -4.31641195     -1.12892257      2.19336258
H      -5.03097366     -1.54779345      2.68424079
H      -3.59111662     -1.76782481      2.21272746
O       3.13714499     -2.25690312     -4.12915694
H       3.40249153     -2.54221987     -3.22397157
H       3.90529793     -2.45098152     -4.67465500
O      -3.42483688      2.58998817     -2.10727215
H      -4.00485613      2.15386333     -1.46901723
H      -2.91390427      1.84135009     -2.48571253
O      -4.03909763      0.32886043     -0.35265705
H      -4.36300263     -0.32980573      0.28031559
H      -3.39129093     -0.13928058     -0.90507382
O       3.84977870     -2.99709258     -1.53750866
H       4.08617631     -2.21782222     -1.01781248
H       3.05840811     -3.34587561     -1.07813879
O       0.72940413      2.34835505     -2.77835531
H       1.09041895      3.09132860     -2.26452317
H       1.48528840      1.75259047     -2.96796658
O       2.21860463     -2.08293462      4.76665688
H       1.27445742     -1.89059393      4.81261082
H       2.62532751     -1.23626591      4.49402815
O       2.66285162     -3.59069428      2.53047660
H       3.24288267     -4.32495459      2.75366310
H       2.46014040     -3.13833819      3.38497483
