83
charge=0
Cl      5.39828399     -0.85112211     -1.04247461
Cl      5.98018783      1.10887023      1.19658052
C       1.71091184      0.75558590      1.46295565
C       1.44274315     -0.07501029      0.43687695
C       0.73615756      1.30265904      2.45864915
C       0.10889033     -0.63155244      0.05381554
C       4.26541021     -1.51376214      1.77711914
C       3.15071710      1.15233426      1.61759175
C       2.62074154     -0.49270690     -0.39498022
P       4.14149266     -0.10581700      0.62654316
H       0.78574832      2.39911380      2.48916094
H       0.98519507      0.94473337      3.46626177
H      -0.29563349      1.01821310      2.24395804
H       0.15230314     -1.72892481      0.05420477
H      -0.15143816     -0.33440264     -0.97067416
H      -0.69818524     -0.31767986      0.71830550
H       4.48852904     -2.42430750      1.21697417
H       3.29674861     -1.61071640      2.28137281
H       5.05404887     -1.32899227      2.50891005
H       3.35147310      2.16319153      1.24211075
H       3.49431553      1.13267355      2.65969836
H       2.68244629      0.04646640     -1.34928013
H       2.60893356     -1.56330492     -0.63593131
O      -3.04918807      2.19561204      0.38690726
H      -3.56895280      2.82752682      0.91598452
H      -2.76860819      1.53358089      1.04888544
O       1.80975476     -4.10834912      0.85318872
H       2.52971225     -3.88238222      0.23375827
H       1.11434979     -4.40275246      0.24061022
O       0.87020201      1.56868239     -3.42864324
H       0.31025299      2.01589705     -4.07084106
H       0.59765169      0.61161515     -3.45821703
O       0.99514425     -2.59078644      2.90022884
H       1.26247316     -3.09626429      3.67462898
H       1.32192030     -3.12439773      2.12772224
O       3.08166818     -1.87200260     -3.69863525
H       3.42425927     -2.22638373     -4.52553030
H       3.41423286     -0.93658485     -3.66984615
O       0.37780268     -4.74360823     -1.56617646
H      -0.31405110     -4.10933662     -1.85972466
H       0.02745292     -5.61703008     -1.76499031
O      -1.67424033     -2.27820710      2.54925698
H      -2.10416051     -2.91762994      3.12620521
H      -0.70157443     -2.39387123      2.70507052
O      -2.52755608      2.43637621      4.24043222
H      -1.87192206      3.02913130      3.83664222
H      -3.36105033      2.87943140      4.02820098
O      -0.94460796      4.07033003      0.08382448
H      -1.60553350      3.35298525      0.00549342
H      -0.12135732      3.70644264     -0.29646364
O      -4.64478873     -0.34284840      0.30465024
H      -4.37404657     -0.17805574      1.22315319
H      -4.35254030      0.47147883     -0.13142100
O       1.36400161      2.78772279     -0.95252547
H       1.12720667      2.39887037     -1.82258219
H       1.35236828      2.02141139     -0.34879775
O      -1.29618684      4.59398406      2.65039179
H      -1.02854116      4.42589011      1.70041039
H      -0.81839403      5.38087939      2.92856776
O      -4.03200721      4.17453598      2.31453301
H      -4.63467025      4.90077425      2.12869072
H      -3.14511761      4.57917975      2.41116874
O      -2.89077897     -2.48059390     -0.10344418
H      -2.39526533     -2.44572844      0.73305823
H      -3.52251417     -1.72876362     -0.05049992
O      -2.84168261      0.29989980      2.49349988
H      -2.35574361     -0.52547666      2.67267923
H      -2.68131320      0.91496322      3.24068758
O       4.18010499      2.30391815     -1.41193567
H       4.89518223      2.59908252     -0.83658954
H       3.38145142      2.80490010     -1.17776145
O       0.37638835     -1.04748650     -3.63975747
H       1.25193395     -1.48349138     -3.64719924
H      -0.20716519     -1.59390880     -3.08429216
O      -1.45796414     -2.80575533     -2.28726780
H      -2.10703039     -3.02989961     -2.96242337
H      -1.99632385     -2.61803520     -1.46002508
O       3.23107305     -3.86021219     -1.56329410
H       3.45520794     -3.11748592     -2.14890482
H       2.38646374     -4.18250260     -1.91221007
O       3.67715928      0.76622395     -3.79069729
H       2.80990902      1.20315718     -3.82365291
H       4.11573778      1.18248738     -3.02924483
