108
charge=0
O      -1.20723026      1.02703954      1.90158766
O       0.65441881      1.65568224      3.45442704
O      -0.83570760      3.42466598      2.51421239
C      -2.29190517      2.50242239     -2.22901386
C      -4.46035616      0.08545734     -0.40862688
C      -4.95507420     -1.21495418     -0.44983486
C      -3.03735559      1.91979968     -1.20041929
C      -3.74531638      0.75332233     -1.40942533
N      -4.65813229     -2.21838781     -1.29081746
N      -1.29684094      3.36570608     -2.02170861
C      -2.21133095     -2.06876388     -1.74558494
C      -2.42726441      2.23102514     -3.70224649
C      -5.95055914     -1.71313476      0.56955295
C      -3.61403453     -2.24341466     -2.32596038
C      -5.41247911     -3.44935318     -0.98836313
C      -0.58647280      3.72775441     -3.25744906
C      -0.63308218      3.51728580     -0.72421942
C      -5.85953314     -3.23930331      0.45911134
C      -1.58279356      3.34049447     -4.35298052
C       0.23669428      2.27895493     -0.46770591
C       0.92751105      2.23079392      0.88473185
S      -0.21760285      2.08107385      2.28554734
H      -4.66620123      0.62701422      0.51295985
H      -2.99172758      2.33006881     -0.19263872
H      -3.70005411      0.31652687     -2.40316533
H      -1.48498962     -2.07806952     -2.55877090
H      -2.09247936     -1.11741706     -1.22074869
H      -1.96801653     -2.87969019     -1.05311641
H      -3.47088640      2.23157777     -4.02678155
H      -2.00785498      1.24021328     -3.91609372
H      -6.94563611     -1.34286044      0.28360929
H      -5.73636202     -1.31124430      1.56392035
H      -3.69025534     -3.21825008     -2.81493534
H      -3.81328451     -1.50098015     -3.10487868
H      -4.76800174     -4.32212659     -1.13088643
H      -6.26642643     -3.53893013     -1.67836548
H       0.34116665      3.14282682     -3.32403673
H      -0.33240584      4.79342382     -3.24376225
H      -1.38836214      3.64863181      0.05604831
H      -0.01784617      4.42252500     -0.75497072
H      -5.08870803     -3.61694865      1.13901636
H      -6.80058363     -3.74607064      0.68469865
H      -2.21600034      4.19799999     -4.60281978
H      -1.08263448      3.00306048     -5.26288103
H       1.02443913      2.22948175     -1.22990653
H      -0.37860163      1.37943316     -0.58363289
H       1.53936586      3.11368741      1.09333911
H       1.55997118      1.34070019      0.94310042
O       1.13505218     -3.76357929     -2.20421411
H       1.99464566     -4.16691825     -2.36635027
H       0.84701664     -4.12394831     -1.29957716
O       2.36426062      5.15690912     -0.23963681
H       1.98904994      5.30212084      0.66872795
H       2.76260396      5.99750459     -0.48306077
O      -3.71830395      3.36440338      1.76065259
H      -4.15465701      2.59881882      2.16613874
H      -2.84415667      3.39318017      2.17776634
O       1.27213116      5.45376499      2.21797244
H       0.41714547      4.99582369      2.29427055
H       1.80229100      5.02120856      2.91678786
O       3.74452965      2.79481298     -0.93474523
H       3.28455698      3.61177392     -0.64989862
H       4.68015141      3.00940644     -0.87665717
O       2.44062090      3.75701343      4.17680636
H       3.31369006      3.36592942      4.07557683
H       1.82215484      3.01422541      4.03088618
O      -0.92879691     -4.18922057     -3.97403057
H      -0.61889252     -4.71932019     -4.71559106
H      -0.13496831     -4.05146167     -3.40269122
O      -2.27328856     -4.92480377      0.68015690
H      -2.55267378     -4.96780225     -0.24998806
H      -2.48420775     -4.02746481      0.98806703
O       1.15076426     -0.96569212     -1.42748615
H       1.29859832     -1.88063864     -1.73343920
H       2.01809879     -0.63843517     -1.06467022
O       0.49572452     -4.54205274      0.19797584
H      -0.42408132     -4.83537266      0.36906737
H       0.53243554     -3.67678644      0.65964754
O      -2.76793388     -0.28459325      3.70737444
H      -2.22184638      0.26767999      3.10019805
H      -2.25965997     -0.22317965      4.54078386
O      -2.54623226     -2.09083665      1.61215830
H      -2.67232750     -1.68655116      2.49796337
H      -2.89865934     -1.42027321      1.00867821
O      -5.12130030      0.96197472      2.94727552
H      -4.36966112      0.52153544      3.39785512
H      -5.67243613      1.31123066      3.65405066
O      -2.73212178     -5.46990092     -2.15666914
H      -2.55904479     -6.41616862     -2.18249286
H      -2.10261189     -5.07954417     -2.79590631
O       3.38922074      0.00162098     -0.26314298
H       3.49934993      0.95812623     -0.41385459
H       3.23229611     -0.10175461      0.69828312
O      -1.62499617     -1.23487782     -5.01234689
H      -1.43399749     -2.16063829     -4.81109879
H      -0.88150798     -0.74691456     -4.61837023
O       2.46802349     -0.47734786      2.40122426
H       1.74095790     -1.07091226      2.13555764
H       2.00624009      0.21210072      2.90446263
O       0.40285345      0.42823842     -3.69070876
H       1.22559794      0.48513860     -4.18717548
H       0.65906619     -0.02839441     -2.85474734
O       0.32649629     -1.90932307      1.13743732
H      -0.60985477     -1.81181458      1.39426082
H       0.41205523     -1.43888725      0.28475485
O      -0.79783882      0.39490722      5.60323238
H      -0.98893050      1.11034868      6.21769375
H      -0.24691997      0.81554064      4.91532806
