104
charge=0
O       2.14785609     -2.74598856      2.33430959
O      -0.95374365     -1.68382398     -1.93972512
O       7.06272835      0.42498323      0.04627541
O      -7.85445487      0.45031830      1.16219564
O      -8.12008711     -1.13882643     -0.77778579
N      -1.08680479     -1.65713697      1.52644523
N       1.53707233     -0.07803829      0.41460326
N       1.60551340     -1.03638365     -0.37373041
O       0.64638686     -1.71001878      3.67228010
O       7.12526265      2.88182299     -0.81914870
O       6.36585838      1.01872541     -2.33214966
O      -7.28651045      1.19540576     -1.18333485
C       1.06636998     -2.20201070      2.51925558
C      -0.73202400     -1.77229544     -0.76221625
C       0.14113362     -2.01424841      1.38881541
C       3.05487159      3.23640962      0.75319643
C       2.14786574      2.18733078      0.78807844
C      -3.55696522     -0.29320127      1.12014528
C      -3.75823248     -1.64936898     -0.89302948
C       4.32779777      3.03715477      0.22524638
C       3.77354124      0.73211761     -0.28821188
C      -4.89585429      0.05249605      1.03295733
C      -5.09844092     -1.31319668     -0.97624723
C       2.50134094      0.94624926      0.24676961
C      -2.99561287     -1.14440258      0.16340410
C       4.69110441      1.78409850     -0.28009028
C      -5.65116873     -0.47050324     -0.01437518
N      -1.64723921     -1.52185563      0.28425386
C       0.58925355     -2.07570516     -0.03393799
P       6.39176074      1.45758015     -0.81051601
S      -7.37116414     -0.05402747     -0.13713606
H       1.44493423     -1.64280529      4.28985413
H       7.37592722      3.22358744      0.11749338
H       5.71635715      1.53354451     -2.92590399
H      -8.18213488      1.70615135     -1.18359885
H       2.78113776      4.20692117      1.15529238
H       1.16011622      2.30350393      1.22532211
H      -2.94934774      0.09483412      1.92964589
H      -3.32876604     -2.33186273     -1.61463708
H       5.04499843      3.85135924      0.22671910
H       4.04438522     -0.25627975     -0.65299251
H      -5.34099853      0.73028363      1.75260417
H      -5.71178094     -1.73305798     -1.76570388
H       0.96888610     -3.04956540     -0.34878694
O      -2.93939517     -2.06815661      3.79788470
H      -2.20026248     -1.91558597      3.18224824
H      -2.54745516     -2.54063824      4.53891348
O       6.35598291      4.16113470     -4.98814166
H       7.14129319      4.08345204     -4.39902310
H       6.11507195      5.09235726     -4.96545605
O      -7.44614775     -2.94836287     -3.13436657
H      -7.28209228     -2.06967565     -3.52226103
H      -7.91878591     -2.74005427     -2.31861633
O      -8.78226158      3.06444062      1.53187439
H      -8.46979263      2.14563176      1.64050255
H      -9.26014343      3.28211559      2.33822868
O      -3.88509577     -4.80089411      0.07446544
H      -4.35714939     -4.56401723     -0.74190994
H      -4.31687211     -4.29730091      0.79094470
O       7.55945061      3.68398299      1.58077304
H       8.46917377      3.88110021      1.82757399
H       7.30418475      2.87865624      2.12318213
O      -5.78164405      3.27070754      0.83067148
H      -5.93998253      2.85501701     -0.02434755
H      -6.66313570      3.54544451      1.11361857
O       4.72781415      2.37746927     -3.79382641
H       4.23681782      1.86914020     -4.44751736
H       5.24214088      3.05944159     -4.29854777
O      -6.78217419     -0.21262471     -3.89229537
H      -6.93319030      0.33799834     -3.11058199
H      -5.85201301     -0.08140153     -4.10444297
O       7.72282119     -1.77105119     -1.59045843
H       7.55785509     -1.28154918     -2.40499788
H       7.73744172     -1.05866122     -0.92181362
O      -9.45939688      2.58250775     -1.08723908
H     -10.27494587      2.08183432     -1.20362503
H      -9.45747659      2.88631590     -0.15281582
O       2.84190244     -1.23714497      5.06518632
H       3.26560438     -0.51569067      4.55174300
H       3.45742855     -1.97421362      4.97188255
O      -4.98726554     -4.16703244     -2.55797061
H      -5.88185673     -3.83254249     -2.77902002
H      -4.85627346     -4.92813228     -3.13080217
O       5.15727354     -2.33476397     -0.71238752
H       4.89425893     -3.24598106     -0.87189050
H       6.07297636     -2.25834687     -1.06505408
O       6.92577044      1.39784013      2.74319292
H       6.99429319      0.83006215      1.95279343
H       6.02456011      1.23941109      3.07807571
O       8.42841232      3.77416405     -3.20721449
H       9.00313112      3.04548726     -3.46343384
H       8.02022932      3.47815918     -2.37314710
O      -1.15802154     -4.47419886      0.07206208
H      -2.13817732     -4.58078327      0.05955532
H      -0.82757731     -5.37546122      0.11518923
O      -4.99054274     -3.31121342      2.25249734
H      -5.54669934     -2.56239039      2.01469873
H      -4.29190493     -2.92195751      2.81460037
O       4.17797948      0.56570817      3.27608840
H       4.38779200     -0.20320859      2.67417560
H       3.59630185      1.13722231      2.75908727
O       4.74628015     -1.69441013      2.00801333
H       5.02703505     -1.83487518      1.08112668
H       3.91381508     -2.18915437      2.08035312
