95
charge=0
S       5.01620187      0.40426959     -1.83490718
Br     -2.98323006     -3.60084040      1.53619655
N      -2.19217892     -1.43826056      3.12635536
N       0.49277816      0.76876957      4.39553324
N       1.33882296     -0.98034748      2.96000080
O       2.11916762     -2.63204563     -1.84569553
O      -0.73075137     -2.58457330     -0.92815564
O       1.57824339     -3.68322929      1.58981755
O       4.44122700      0.57155538      1.14768612
O       2.42520220      0.04412495     -0.31504885
O       4.23866521     -1.67177273      0.04471265
C      -1.79572118     -2.39348322      2.34048330
C       1.67666234     -2.91985639     -0.60865210
C       0.39677957     -2.90505446     -0.22969073
C       1.48441749      0.09232290      3.76218320
C      -0.76119921      0.32893180      4.24630486
C       0.08508844     -1.37494257      2.82026389
C      -1.02079331     -0.77910895      3.45793240
N       2.76142195      0.51811084      3.98517552
N      -0.42632401     -2.42899895      2.08712979
C       3.49923233     -2.31196380      1.10995289
C       2.53452149     -3.36165524      0.54219699
C       0.25223258     -3.39491656      1.17250095
P       4.00440150     -0.09393928     -0.21832404
H       3.08646550     -2.82159637     -1.98067042
H      -0.53394344     -2.18317915     -1.83988194
H       4.06291513      1.51872833      1.36465958
H       2.03483698      0.85731216     -0.80222278
H      -1.55294941      0.88060344      4.75206539
H       3.45529769      0.26420625      3.29551572
H       2.87174864      1.42708177      4.40613236
H       2.90550715     -1.59352806      1.67670129
H       4.22964043     -2.78577875      1.77603579
H       3.07304943     -4.29057536      0.29449162
H      -0.35661490     -4.30517022      1.26177708
O      -0.67611715     -1.49188017     -3.29654244
H       0.18772768     -1.19186545     -3.63844752
H      -1.01252780     -2.19502298     -3.89784871
O      -1.78920113     -3.66641719     -4.56480647
H      -2.60346770     -3.54550606     -5.06265749
H      -2.05402685     -4.14403360     -3.75192842
O      -4.47597252      0.28792089     -0.09485796
H      -5.09800207     -0.21988427     -0.62371102
H      -4.32174280      1.14546250     -0.57623372
O      -2.72083730      3.22275887      1.56026823
H      -3.17118552      2.49598384      2.04362790
H      -1.86089410      2.83011360      1.30105957
O      -0.22249545      2.12255163      0.94399306
H      -0.48037187      1.18431081      0.97384471
H       0.28577358      2.34849099      1.75676374
O       3.64083828      2.84667952      1.87319273
H       2.75305752      3.01767191      2.23462140
H       3.86567895      3.61636697      1.28812524
O      -2.35378426     -4.74041879     -2.01969795
H      -1.87229921     -4.09015334     -1.47793943
H      -1.94339886     -5.58602795     -1.81170649
O       1.73642138     -0.17348740     -3.41358032
H       2.50684182      0.23761822     -3.81995141
H       2.10298538     -0.71823024     -2.69969434
O       4.17600564      4.86731166      0.18014024
H       5.07913465      5.19749384      0.15437172
H       4.01979390      4.45878079     -0.70684861
O       1.26299708      2.08863175     -1.35227981
H       0.74548695      2.32011691     -0.54705324
H       0.57162960      1.78007214     -1.97483577
O      -4.05272452      0.95254335      2.65738350
H      -4.47382807      0.69166635      1.82143356
H      -3.57694174      0.14820025      2.92194506
O       1.99310786     -3.78067151      4.46598412
H       2.05288790     -2.88197826      4.80764997
H       2.02077814     -3.66134764      3.50289980
O       1.03588771      3.24808202      3.12031231
H       0.80952291      2.64362848      3.85331474
H       0.37064719      3.97289336      3.16844615
O      -0.63885178     -4.78625172      3.91266487
H      -0.97588981     -5.48573017      4.47900727
H       0.20745613     -4.52229985      4.31557279
O       4.67480527     -2.85169724     -2.63816612
H       5.29970579     -3.24547568     -2.01852153
H       4.87079521     -1.89654631     -2.56260404
O      -1.69459079     -0.13262902      0.10592407
H      -1.46058838     -1.04160158     -0.15434502
H      -2.67318272     -0.11801430      0.15034921
O      -1.16669256      4.91749032      3.19882930
H      -1.84229933      4.43211096      2.67847132
H      -1.18623155      5.81751858      2.86020860
O       3.61369373      3.53276860     -2.13523956
H       4.15942125      2.72976627     -2.13123409
H       2.71938169      3.18334973     -1.97179811
O      -1.28073616      1.28024457     -2.28991444
H      -1.40269761      0.77519111     -1.45658903
H      -1.29623610      0.58204046     -2.96128295
O      -3.72107768      2.63672253     -1.14893450
H      -3.39741155      3.04087031     -0.32179795
H      -2.92606490      2.44029781     -1.67154991
