96
charge=0
F       2.33668934     -1.42102877      6.42001763
F       2.78865237     -3.27364361      5.36791426
F       4.10833317     -1.56666853      5.16173158
F      -3.79772917      0.41697821      3.68583626
F      -2.52073975      1.73019078      4.88775693
F      -1.95104884     -0.09259498      0.87170775
F      -0.14963009      1.08997628      1.25021644
F      -2.71414201      3.71799806      3.31894849
F      -4.69122040      2.79630910      3.48497476
F      -2.17793903      2.07091637     -0.44993947
F      -1.33054961      3.32955399      1.12446185
F      -4.00730449      3.71303499      0.92400157
F      -4.36231042      1.54349216      1.09886296
F       0.43919705      1.96397019      4.09487424
F       0.37577461      0.51222348      5.73036618
F      -1.49605196     -2.19059292      2.89478232
F       0.20665667     -1.30035694      1.84434700
F       2.08670811      0.48888485      2.68638813
F       2.78079128      0.71209508      4.74065426
F       0.83071754     -3.41096799      3.36039227
F       0.14123371     -2.39211343      5.17367446
F      -1.58049879     -0.52242876      4.76865545
F       2.77883034     -1.84879678      2.95478365
N      -1.64220214      0.87496760      2.95069283
C       2.82350286     -1.93477375      5.28762608
C      -2.82195531      1.37123537      3.61542098
C      -1.47397136      0.99669125      1.52636819
C      -3.45845865      2.64810208      2.96590103
C      -2.12976853      2.26694333      0.87606996
C      -3.53741568      2.56347658      1.42932861
C       0.45441754      0.65427467      4.38807485
C      -0.39421830     -1.43567619      3.04134646
C       1.85270089      0.10229883      3.95385050
C       0.64002068     -2.20692790      3.92924271
C      -0.81679291     -0.07539656      3.72956378
C       2.02184296     -1.46507755      4.02929296
O      -7.27519613      1.87720899     -0.52546374
H      -7.27780624      0.98028229     -0.15015425
H      -7.31300661      2.45605407      0.26234096
O      -7.36288910      3.25295161      1.95671318
H      -8.21779146      3.63618815      2.17447626
H      -7.30404415      2.44227242      2.50703904
O       3.19670056     -0.50262630     -2.93178922
H       2.82896901     -1.32824783     -3.29430930
H       2.92403908     -0.54396786     -1.98833323
O       1.09846765      1.51601784     -2.91747373
H       1.84764916      0.93181066     -3.13864382
H       1.40615568      1.97552788     -2.11871710
O       4.13358014      3.33115503      2.97096946
H       3.23047473      3.59841288      2.67467801
H       3.99328183      2.85775772      3.79724604
O      -7.09651627     -0.69836879      0.86151982
H      -6.20522989     -1.09784796      0.67023506
H      -7.74111897     -1.38855514      0.67960922
O       4.94153385     -0.80807819      0.90200951
H       5.01777935      0.17092418      0.95417348
H       5.30292065     -1.14361659      1.72804956
O       2.24424810      2.14087568     -0.25828123
H       3.20978142      2.22787938     -0.18642918
H       2.11027498      1.17604616     -0.13869909
O      -3.75089674     -0.36338124     -1.82360121
H      -4.18103028      0.51851468     -1.90206880
H      -2.79760182     -0.17997781     -1.84309138
O       4.46277994     -4.15092945     -2.18638464
H       4.96493726     -3.31622403     -2.01213234
H       4.39464536     -4.58870612     -1.33265826
O       2.34115535     -0.63322050     -0.27191197
H       3.03200047     -0.98377079      0.31299798
H       1.64234820     -1.32618378     -0.40668269
O       1.66436513      3.78324581      1.92093287
H       1.32325542      4.62809199      1.61290727
H       1.70380219      3.20845842      1.12546390
O       5.63189116     -1.69825645     -1.81820108
H       5.51128475     -1.40476245     -0.89958099
H       4.99018145     -1.16530321     -2.32301204
O      -4.61975880     -1.59041908      0.39727030
H      -4.43890536     -2.52480269      0.25969101
H      -4.26180079     -1.13614687     -0.41494064
O      -7.15366423      0.78131704      3.25851665
H      -6.29701526      0.67159460      3.68391553
H      -7.12395796      0.18169765      2.48560794
O       4.98253651      1.95922447      0.82086208
H       4.73026323      2.43793929      1.65560895
H       5.79625498      2.37566863      0.51845213
O      -0.92224828     -0.27970375     -2.50638210
H      -1.17989429     -0.50005832     -3.40800952
H      -0.23655917      0.42856565     -2.61053311
O       0.43663443     -2.35526656     -1.08783222
H       0.90495230     -2.79051935     -1.82223120
H      -0.13832750     -1.70486116     -1.53797048
O      -4.97167972      2.12032832     -1.94198247
H      -5.81037477      2.07463141     -1.41649433
H      -5.24810988      2.41517181     -2.81455072
O       2.16378407     -3.21352016     -3.26280370
H       1.94048210     -3.73264400     -4.04116537
H       2.97404710     -3.63964642     -2.88300458
