88
charge=0
O       0.36642863      1.21040965      3.81355955
O      -0.81711762     -2.56448321      2.94999437
O       0.29362718     -2.21119810     -2.72659091
O       1.71435741      0.45132601      0.58908633
O      -1.90068177      1.79751845      2.59308712
O       1.10372819     -4.01202507      2.08742359
O       1.44986587     -2.87430767      4.28303468
O       1.53777943      0.00127739     -2.32572600
O      -0.90188826     -0.08592233     -1.77991817
C      -0.46687167      0.04344114      1.38070514
C       1.51447492     -1.26424780      2.17536221
C       0.66795336     -1.58238353     -0.11855925
N       0.85526209     -0.56937224      0.99646743
P      -0.34755205      1.48281304      2.52528940
P       0.66423921     -2.74159670      2.92401280
P       0.38041068     -1.01162116     -1.84318322
H      -2.16185690      2.76934054      2.77839419
H       2.10084056     -4.21033984      2.11685894
H       1.45063836     -2.03234228      4.88026708
H       2.45159431     -0.19910553     -1.97419476
H      -1.46774838     -0.10562624     -2.63256229
H      -1.07599786     -0.72197096      1.87620461
H      -0.95786163      0.36576576      0.45803488
H       2.51009091     -1.55670727      1.82288529
H       1.62778622     -0.49534573      2.94760687
H      -0.19824235     -2.21642409      0.12382917
H       1.55221594     -2.22764714     -0.13636319
H       0.23372011      2.54989142      1.80931293
O       1.48866978     -0.72752899      5.66939012
H       0.75150203     -0.17663390      5.35914238
H       2.26769007     -0.17775640      5.43220920
O       3.63437056     -4.48277898      1.89372471
H       3.85508541     -4.09338457      1.01121611
H       4.26505275     -4.13520808      2.53179692
O       1.23141916     -4.68884916     -0.92088549
H       1.00206801     -4.92336261     -0.01340700
H       0.36032043     -4.57106483     -1.34767871
O       3.66098720      2.00311079      1.95480085
H       2.91972309      1.44999021      1.65414328
H       3.31660837      2.90370244      1.83576161
O      -0.86682879      5.41809859      1.02559388
H      -1.17149026      4.87245869      0.26676389
H      -0.92113555      6.33191574      0.72695053
O      -2.19453593     -0.12180349     -4.02359275
H      -1.44076127      0.16565943     -4.57934966
H      -2.28818711     -1.08655825     -4.19968816
O      -4.12518792      2.65810638      0.80025242
H      -4.70794506      2.64963259      0.03127203
H      -3.99718240      1.71532021      1.00584392
O      -1.93965130     -2.87576656     -4.06272345
H      -1.05338989     -2.74292227     -3.64580364
H      -1.78539003     -3.42158172     -4.84045112
O      -3.82258261     -0.19376100      0.14923828
H      -3.70071439      0.27082050     -0.70787694
H      -4.70697383     -0.57368531      0.09605147
O      -2.71332510      4.22810592      2.82444547
H      -3.48137637      4.09474882      2.24729646
H      -2.10779222      4.79656793      2.30575972
O      -2.36467797     -2.76955418      0.57625088
H      -2.02519854     -2.81508651      1.48888629
H      -2.80136771     -1.90839337      0.48361836
O       0.81453223      2.53965592     -0.89381923
H       1.09533954      1.73805697     -0.38336454
H       0.96242559      2.27859881     -1.81058532
O      -3.68119437      1.53424230     -2.07845511
H      -2.99894327      2.20784791     -1.91387541
H      -3.43539731      1.12958046     -2.92386163
O      -1.81387100      3.43329738     -0.71753568
H      -0.96178827      2.94495296     -0.72047120
H      -2.38944042      3.03870480     -0.03477831
O       3.69772006     -0.50408420     -0.87163544
H       4.51227776      0.01088729     -0.84927535
H       3.10270713     -0.11626486     -0.16636372
O       3.09913742      1.35959030      4.73040119
H       3.58338170      1.50590627      3.89834173
H       2.22141281      1.70593419      4.50677561
O      -1.59024887     -4.59833072     -1.48624343
H      -1.95195490     -4.19881520     -2.28760569
H      -1.93779224     -4.03842038     -0.76897853
O       3.76323097     -3.53090663     -0.63343091
H       2.90708546     -3.87896840     -0.96106897
H       3.79137759     -2.58788774     -0.84869518
O       2.07233517      4.33932308      1.00609574
H       1.76875852      3.89906733      0.19625565
H       1.29282556      4.83307544      1.29352360
O       0.33458892      0.65276356     -5.03232488
H       0.70673099      0.30115406     -5.84741720
H       0.94366079      0.36278833     -4.33639198
