107
charge=0
N       2.49213895      1.34400010      0.58933782
N      -0.68329821      3.76765713      3.51314112
N       1.23372621      2.66023814      2.60769768
N       3.76457021     -1.90330803     -0.36648501
S      -3.06465148      3.61583304      2.20435213
C      -1.83048922      2.13036183      0.47132150
C      -3.06027496      2.65350820      0.71882621
C       3.17207036      0.29744435      0.26418639
C       0.60809083      3.43927481      3.49565310
C      -1.37213192      3.27591782      2.47569256
C       2.86144938     -1.13828538      0.28554208
C       0.51489127      2.13074169      1.60303877
C       3.66202790     -3.23861110     -0.31644675
C       1.84006974     -1.70582411      1.05222325
C       2.67404439     -3.86692599      0.44617196
C       1.76604800     -3.08795211      1.14836012
C      -0.85593436      2.45665257      1.46203551
N       1.13810418      1.24226572      0.77379231
N       4.18870784     -4.20477515     -2.55089310
C       3.16493709     -5.24449817     -2.69994300
C       4.64205912     -4.01260754     -1.16488856
C      -5.34401784      1.67026555      0.76282127
C      -4.93334854      3.85146437     -0.42448191
C      -4.03466984      1.71494023     -1.37225587
C      -4.33281128      2.47833463     -0.07442326
H      -1.63039542      1.51396937     -0.39171984
H       4.20232860      0.52642788     -0.01355565
H       1.22118262      3.82758896      4.30838143
H       1.14677949     -1.08285454      1.60062725
H       2.63659475     -4.95081551      0.49506315
H       0.99666007     -3.54729289      1.76018157
H       0.58054342      0.59759850      0.19095814
H       3.80525219     -3.33684793     -2.92639049
H       2.87321481     -5.29882559     -3.75159261
H       2.25122876     -5.06362547     -2.10916816
H       3.58599022     -6.21356892     -2.40587217
H       5.59898680     -3.47530926     -1.17463313
H       4.82364529     -5.00093585     -0.72525820
H      -4.93464574      0.68958329      1.02548310
H      -6.26822444      1.52095676      0.19298790
H      -5.59469087      2.18851735      1.69583107
H      -5.84828459      3.72204709     -1.01280139
H      -4.22734042      4.45114051     -1.00746095
H      -5.18754980      4.41806234      0.47930279
H      -3.63390595      0.71715366     -1.16640244
H      -4.96000166      1.59508914     -1.94476995
H      -3.31534777      2.25311685     -1.99837315
O       5.98673841     -0.83873370     -1.73666000
H       5.22842260     -1.20715837     -1.20921078
H       6.68421674     -0.64552261     -1.10220428
O       4.16180334      0.70737559     -3.40578952
H       4.93538878      0.42609407     -2.89127951
H       3.46275691      0.08241178     -3.13132497
O      -6.35353280      4.51998066      3.38397225
H      -6.84876245      4.39101167      2.56775924
H      -5.71986812      5.21733263      3.18036712
O      -1.75479936      0.26189324      5.66630710
H      -1.90210769      1.23732533      5.77107640
H      -1.76437530     -0.10172914      6.55689607
O      -2.38388093      2.89578476      5.78787599
H      -1.82254550      3.39167548      5.16343482
H      -3.26422469      2.86164143      5.37424135
O       0.08907990      1.31830129     -2.97211039
H      -0.39552696      1.04868618     -2.17992114
H       0.77471093      1.94993253     -2.66572449
O       0.17318165     -2.85862157     -1.76277314
H       0.03592122     -3.30440434     -2.62912830
H      -0.25573403     -3.39504700     -1.07339928
O       0.16193734     -3.99481047     -4.29213473
H       1.01211733     -3.62823339     -4.62561060
H      -0.49560867     -3.68599103     -4.92287010
O      -0.70614121     -0.44434955     -0.72093667
H      -0.47407006     -1.27980142     -1.18036871
H      -1.16869297     -0.71707055      0.10142325
O      -1.32634384     -3.75167798      0.56274492
H      -1.56354328     -2.93439282      1.04688161
H      -2.14893071     -4.24427876      0.48955799
O       4.74800653     -1.32928821     -5.73286029
H       4.62147670     -0.51705684     -5.21909074
H       5.42689654     -1.81942759     -5.22719252
O      -5.02479894      2.32395609      4.64816026
H      -5.63697276      1.99119706      5.31282564
H      -5.50074138      3.05017966      4.20339533
O       0.13803816     -0.79417436      3.80183908
H       1.02247258     -0.37865739      3.83434211
H      -0.37929857     -0.37756277      4.51348556
O       2.41822786      2.77384440     -2.25173978
H       2.62653740      2.69903531     -1.31126642
H       3.09582105      2.21989164     -2.68456724
O      -1.68626812     -1.20987977      1.76761444
H      -0.98730362     -1.06139264      2.44677288
H      -2.47651663     -0.79445372      2.17000542
O       2.66491439      0.52100503      3.80877123
H       3.37585398      0.13891057      3.28436950
H       2.42676455      1.35151410      3.34398342
O       1.85091076     -0.77150127     -2.84727859
H       1.15344968     -0.08187101     -2.97437284
H       1.47491537     -1.43703171     -2.24925778
O       2.51142064     -2.67994941     -4.74318683
H       3.24597259     -2.33820665     -5.29697851
H       2.23908161     -1.89912277     -4.22307478
O      -3.62730120     -0.09497704      3.47587132
H      -4.09308817      0.75096695      3.54533135
H      -3.06901055     -0.10966164      4.27361405
O       6.45045094     -2.80919050     -3.95202637
H       6.43854944     -2.18349829     -3.21027849
H       5.85153986     -3.52196812     -3.66336825
