22
charge=2
F       0.25156771      1.55952235     -1.17318878
F      -1.07860843      0.51413142      0.17808353
C      -0.42802719      0.23226460      3.84228036
C       0.26551797      0.77698591      2.94059242
C       1.27699109      0.60237418      0.77108274
C       0.17529496      0.53269111     -0.36976334
C       0.38620153     -0.69253887     -1.38739792
C       0.93477098      1.53738443      1.91367748
N      -0.61662933     -0.72300075     -2.45547984
N       1.99657603      2.15898696      2.59226513
H      -1.13252584     -0.19440327      4.52793481
H       2.19135376      0.89912677      0.19316443
H       1.41227426     -0.43286167      1.10764029
H       1.39548779     -0.58801388     -1.83165553
H       0.23278612     -1.59162975     -0.74122999
H       0.25716653      2.39878704      1.47064380
H      -0.23900566     -0.34017506     -3.29177484
H      -0.79065060     -1.73823969     -2.67049442
H      -1.51496643     -0.25393030     -2.26375393
H       2.50745909      2.71255906      1.98040146
H       2.57928269      1.51707983      3.03317280
H       1.57958168      2.75479807      3.27569730
