38
charge=0
O       2.63473200      3.37899318      0.37172613
Cl      2.81793314     -0.43351344     -2.75716797
O       1.69976105      2.21783164      2.09070698
S       2.56756820      0.33159280      0.25184073
C       2.41901417      3.23228091      1.54504080
C      -0.03694508     -1.18624668      3.87081752
C       0.47124988      0.13664516      3.44937621
C      -0.07539037     -1.94217175      2.75550283
C       0.74647002      0.04786243      2.11090938
C      -1.94771244      2.29685678     -1.41035969
C       0.03341680     -3.12133107     -1.52913761
C      -0.66715824      2.34041497     -1.91504259
C      -2.23681579      1.96699712     -0.11078058
C       0.94528272     -2.41495391     -2.32548907
C      -0.19772598     -2.71495066     -0.19967769
C       0.38250535      2.02597667     -1.06840364
C      -1.18893691      1.66362758      0.74501943
C       1.70866052     -1.35962948     -1.76975461
C       1.57194626     -1.01763615     -0.41115199
C       0.57720476     -1.63655974      0.33119509
C       0.16254800      1.65471460      0.29327177
N       0.41305612     -1.22114764      1.66551691
C       3.12324071      4.20721282      2.50375133
C       1.25056821      1.17245677      1.21805759
H      -0.29196747     -1.45335860      4.88472580
H       0.66710292      1.00138015      4.09730056
H      -0.36305653     -2.97641136      2.78111825
H      -2.76147854      2.59262471     -2.10611484
H      -0.48787032     -3.93947638     -1.98158401
H      -0.47505245      2.59202996     -2.95212321
H      -3.28327027      1.91414177      0.15894299
H       1.05532884     -2.65897524     -3.35869690
H      -0.94077060     -3.25012780      0.40872460
H       1.38413426      1.96072252     -1.48119617
H      -1.41972762      1.36861021      1.74475627
H       3.98243201      4.66906828      2.02756572
H       3.44333868      3.64313717      3.36494892
H       2.42511832      5.02004505      2.81459909
