43
charge=0
N      -0.31722202     -0.61734198     -0.95810450
C      -1.47641007     -0.75100265     -0.41012201
N      -2.59258080     -1.09687053     -1.07107053
N      -1.60578856     -0.66072177      0.91167685
C       1.84670697      1.15917998     -2.79456701
C       0.81011354      0.85853593      4.10082942
C      -0.51183230      0.40522943     -3.17555708
C       0.16143548     -1.07100922      2.58095640
C       2.25861419     -0.14495150     -2.17163381
C       1.25420910     -0.55331927     -4.31357881
C      -0.12968901      1.85056070      3.40212364
C      -1.44671004     -0.00566530      3.96222986
C      -0.13298079     -0.87132074     -2.39663995
C      -0.57377261      0.02042239      1.74993550
C       0.77670298      0.79982410     -3.85653305
C      -0.00508236     -0.48311926      4.00434573
C       1.30120935     -1.10050486     -2.88569799
C      -1.21433885      0.92650763      2.81055447
H      -2.43267867     -1.22841781     -2.08055493
H      -3.23637827     -1.66399573     -0.59208171
H      -2.54573422     -0.52897588      1.22616537
H       2.73643895      1.63593005     -3.29298099
H       1.48460643      1.86645884     -2.06474461
H       0.94444189      1.20117233      5.10890101
H       1.78771190      0.78389644      3.60135060
H      -0.82608643      1.22157307     -2.52113999
H      -1.21859177      0.15339534     -3.94263633
H       1.18512696     -1.19528052      2.23697956
H      -0.32293664     -2.04702464      2.50062394
H       3.30377547     -0.33713548     -2.44352791
H       2.15360675     -0.16023825     -1.06715486
H       2.19450083     -0.44394889     -4.85741597
H       0.56910486     -1.10295109     -4.95144574
H      -0.53945719      2.51612263      4.13676594
H       0.42574690      2.42931207      2.64396682
H      -2.17975055     -0.77000264      3.70776024
H      -1.75038856      0.46881066      4.89701686
H      -0.71325533     -1.71825870     -2.76349467
H       0.13959023      0.58840998      1.12644415
H       0.67113013      1.54563327     -4.62579799
H       0.23077158     -1.21020781      4.79883523
H       1.61615938     -2.16274872     -2.76686128
H      -2.08003866      1.49403832      2.49588011
