25
charge=0
F       4.92269864     -2.33715157     -0.28581229
F      -3.98723640      2.27234329      2.53609794
F       4.87639482     -0.29609262     -2.04097701
F      -2.83454210      4.17708521      1.03186076
F       3.01497744     -2.52354799      1.74425375
F      -2.89389321     -0.26539474      2.66907379
F       2.67364704      1.41318883     -2.07599997
F      -0.45937409      3.79293091     -0.17322032
O       0.81753657     -0.99595010      1.65299421
C       3.88236395     -1.46862389     -0.21859768
C      -2.83644341      1.96875208      1.88835616
C       3.81563896     -0.42364000     -1.16835651
C      -2.22575762      2.98244562      1.17119360
C       2.87184651     -1.59350722      0.75636413
C      -2.27262439      0.70248816      1.92363006
C       2.72937039      0.44944744     -1.15083853
C      -0.99650990      2.77501789      0.55755029
C       1.77807839     -0.74194598      0.73256524
C      -1.06452253      0.42265433      1.22957929
C       1.68403652      0.30044868     -0.22467575
C      -0.37563869      1.49942307      0.60335153
N      -0.53406190     -0.85360418      1.30233639
N       0.75363333      1.35181137     -0.18372462
H      -1.16837632     -1.56499339      1.69256961
H       1.05818832      2.18584461     -0.74014376
