40
charge=0
O       1.57423099      4.25552443      0.36773368
O       2.69652946      2.86428692     -0.85260854
F      -0.71732506      0.09084671     -3.79673707
F       0.28154493     -0.99780499     -2.20840126
F       1.14267662      0.97417649     -2.82936325
N       1.39548350      0.96571771      3.09048305
O       1.21312186     -2.51327406     -0.14845941
O      -0.71384711     -2.14245421      0.77250236
C       0.38236963     -1.67479513      0.59225904
C       1.08939307     -0.28068933      2.56776578
C       1.81010782      2.05605394      2.32284211
C       0.81660641     -0.41312907      1.19463241
C       1.59151847      2.05003987      0.93251368
C      -3.07321249      1.78214131     -0.99236416
C      -2.63241989      1.96349841      0.32511060
C      -2.18872421      1.34070425     -1.94101140
C      -1.34919810      1.69287013      0.70241663
C      -0.87059605      0.93621008     -1.58283347
C      -0.45040677      1.17101949     -0.23539458
N       1.97767363      3.12400452      0.10144012
C       2.66427369     -2.31529942     -0.20331708
C       1.09142699     -1.44082568      3.51675777
C       2.44050498      3.17872888      3.05529393
C      -0.01655225      0.28176168     -2.62899171
C       0.92580854      0.79961940      0.27741234
H      -0.74989675     -2.94548967      0.21004250
H      -4.10762016      2.00879442     -1.26574380
H      -3.26314356      2.34516158      1.13491352
H      -2.49622202      1.21017526     -2.93273483
H      -1.08505272      1.81147647      1.74847261
H       3.15886031     -2.91907285      0.57622546
H       3.01420278     -2.65036796     -1.18782703
H       2.90814614     -1.25297078     -0.06947170
H       0.77427423     -2.38368778      3.02674794
H       2.07643386     -1.60361624      3.85805006
H       0.47022046     -1.23394197      4.38556946
H       1.65054722      3.94404736      3.29216293
H       2.86829798      2.87157652      4.03398533
H       3.25944867      3.64825294      2.48509244
H       1.60760396      0.56781841     -0.52807793
