33
charge=0
O       1.94209214     -0.36953874      0.20469533
O      -2.49510999      0.56830239     -0.36338529
O      -2.07132528      1.08005769     -2.69899625
B      -1.80790913      0.44656623     -1.53535809
C       0.78932983     -0.32708812      0.51202637
N       1.63221724      0.51822142      2.61984218
C       2.17025330      1.90655543      2.51576205
C      -0.34946284     -3.00892729     -1.76502365
C       0.12991040     -2.57851989     -0.38015693
C       1.28579581      2.69532155      1.57967277
C      -0.82809480     -1.73236201     -2.55322846
C      -0.29872358     -1.08896512     -0.15944307
C      -0.02147470      1.90942772      1.39853166
C      -0.54150101     -0.53665802     -1.59291802
C       0.42509497      0.46865904      1.72714178
H      -3.18347120      1.26966553     -0.22560783
H      -2.80525627      1.70868639     -2.87715657
H       2.30077473     -0.11871509      2.22789941
H       2.13843886      2.32366042      3.52932362
H       3.21367930      1.86315242      2.14795529
H       0.42113769     -3.57237942     -2.26346249
H      -1.24453800     -3.67630613     -1.71216301
H       1.22172812     -2.65223042     -0.38356757
H      -0.21840604     -3.26345620      0.38956861
H       1.11852422      3.72016410      2.01220985
H       1.75727317      2.80477482      0.59866504
H      -1.89348517     -1.84730260     -2.76942143
H      -0.33353064     -1.63780563     -3.52321342
H      -1.19690705     -1.07797659      0.47146871
H      -0.42831863      2.01147531      0.37102617
H      -0.80554616      2.23300004      2.09455339
H       0.36297109     -0.01512889     -1.93373013
H      -0.38616040     -0.02433087      2.33648996
