13
charge=0
O      -0.19974810     -2.52809954     -0.83969757
O      -1.91192088     -1.57944416      0.66893686
S       1.90667276      1.75909160     -0.48040941
B      -0.74082222     -1.45556208     -0.11475953
C       0.46264488      2.24682881      0.40547400
C       1.34115340      0.14078169     -0.64912153
C      -0.39762634      1.19041040      0.40257102
C       0.10139844     -0.05620092     -0.14230173
H       0.64183143     -2.69546286     -1.23605727
H      -1.93085204     -0.92418511      1.41233494
H       0.16303096      3.20775557      0.77118203
H       1.93681261     -0.64476087     -1.02441724
H      -1.37257509      1.33884735      0.82626534
