50
charge=0
Cl     -5.80551976     -4.91961515     -1.17227736
Cl     -2.88999065     -6.04406676     -0.25814143
I      -4.31362222      5.66775794      0.65452527
O       1.44611606      2.90927886      1.19932476
C      -0.86745036     -1.41261717     -1.75263090
C       0.22032305     -1.25442245     -0.85618603
C      -4.45359446     -2.68160734     -1.84813365
C      -1.80346722      4.02817691     -0.23312593
C      -1.55996153      4.89891489      2.02184550
C      -0.53563595      3.46486053     -0.16433592
C      -0.27299707      4.28376284      2.09085611
C      -3.31588965     -1.88291867     -1.99305209
C      -1.95645711     -3.61055161     -0.97906301
C      -4.34567284     -3.92759157     -1.28750599
C      -3.09500231     -4.42383904     -0.87087330
C      -2.27970455      4.75116782      0.83434063
C       0.22995346      3.54207266      1.03708762
C      -2.04719054     -2.31433905     -1.59012522
N       1.69383063     -1.52825773      1.07588729
C       0.47718304     -2.04433718      0.40273848
C       1.90605253      2.04587388      0.12768174
C       3.94038301     -0.83258554      1.02939404
C       2.60036977     -0.93259342     -1.16972730
C       3.07991744     -0.05080638      2.01991012
C       1.27449364     -0.15796233     -1.06115959
C       2.89650458     -1.61434916      0.20047789
C       1.65700249     -0.12327379      1.44524173
C       1.17387449      0.71081422      0.23748211
H      -0.92061481     -0.71079220     -2.58139167
H      -5.40908600     -2.30006517     -2.08819161
H      -2.42969965      3.87876319     -1.08907980
H      -1.93014349      5.45388037      2.84693358
H      -0.23991372      2.88574719     -1.01592257
H       0.37192967      4.36955853      2.95298997
H      -3.41551032     -0.87670246     -2.44436414
H      -0.99828253     -4.04652872     -0.77865672
H      -0.39953456     -1.93659459      1.08660128
H       0.63966718     -3.08055230      0.16903730
H       1.75793011      2.47877583     -0.86192581
H       2.96279001      1.88284019      0.22164290
H       4.59415816     -1.55270410      1.55092567
H       4.57973793     -0.18399001      0.40908225
H       3.42117390     -0.26777508     -1.46162913
H       2.48741818     -1.67492950     -1.94875356
H       3.06037059     -0.58280753      3.00295738
H       3.42964188      0.99341133      2.16839059
H       1.06961736      0.42216304     -1.95723290
H       3.25812898     -2.62978984      0.03455163
H       0.93664794      0.04578511      2.24509756
H       0.11972456      0.88536191      0.39848234
