48
charge=0
O      -0.30685215     -0.38903711      0.34884731
O       1.08972299      2.69034204      2.11382520
O       2.93940218      1.93193921     -0.54036091
O       3.29699482     -1.32444629      1.89367517
O      -0.29931949      4.50265827      1.91239261
O      -0.12559924     -2.61073377      2.20106069
O      -2.75158589      3.81855970     -2.22564231
O       0.86851879      0.67279810     -2.70496338
C       0.73492971     -0.61639390      0.91776914
C       0.27617449      3.33544886      1.46325983
C       1.90032461      1.39401657     -0.22304914
C       3.11487290     -0.11919466      1.26253099
C       0.89810855     -1.78370715      1.78681234
C       1.92310597      0.22316502      0.67131868
C       2.21695000     -2.10870123      2.19507918
C       2.49375548     -3.29698549      3.02852132
C       3.74026103     -3.76936669      3.31423915
C      -0.93443973      2.17048267     -2.49874407
C      -1.14051275      3.59656942     -0.56168291
C      -1.62088870      3.18102510     -1.80875608
C       0.23768097      1.64401954     -2.00533508
C      -0.06012175      2.96561537      0.07583170
C       0.66933561      2.02676369     -0.70395957
C      -0.16026280      4.64199413      3.34644521
C      -1.31838655     -1.89055989      2.57923500
C      -3.53379922      3.28654856     -3.27804474
C       1.13814589      0.98152337     -4.09461197
C       3.89335879     -4.95707273      4.23358574
H       4.01398050      0.51272394      1.12241176
H       1.67915996     -3.81327866      3.52204840
H       4.62329890     -3.25361957      2.92405589
H      -1.30096307      1.75036585     -3.43533625
H      -1.68487236      4.41627061     -0.06377259
H      -0.64417647      5.54785563      3.71789488
H      -0.65132186      3.77755560      3.84334242
H       0.85995561      4.73473701      3.67617568
H      -1.79241321     -2.34861751      3.44849457
H      -1.11325857     -0.82076306      2.80757696
H      -1.98332737     -1.92708448      1.72937844
H      -3.66276982      2.21273783     -3.15410815
H      -2.95407802      3.40751318     -4.17790882
H      -4.52908746      3.75695174     -3.36982043
H       0.35489305      0.49378225     -4.71684621
H       2.07297465      0.47319138     -4.34184649
H       1.12310921      2.07271096     -4.24439965
H       4.24737615     -5.84412595      3.69423831
H       4.61020795     -4.74423072      5.02514769
H       2.95194355     -5.20144152      4.69450025
