36
charge=0
O       0.44286973     -1.06626816      3.45007290
Br     -0.61401877     -0.45663557     -2.58491901
N       4.91628286     -3.67466244     -1.41008490
N       5.56674818     -2.86170330     -0.57766722
N       2.54155839     -3.53522918      2.31781391
S       3.28625232     -4.15332645     -1.04989476
C       1.06502215     -1.78085038      2.73805361
C       2.46748173     -2.82903825      1.24355819
C       4.61858283     -2.42886519      0.36916607
C       3.37412066     -2.94522043      0.19050708
C       0.68909744      0.61173271      0.44223606
C       1.02159327      1.31175289      1.56849941
C       1.34784308     -0.78128456      0.34196422
C       1.57723563     -1.69456504      1.33914484
C      -2.11703687      1.94090921     -1.82001826
C      -1.55920983      3.34489917      0.03203338
C      -1.04892827      1.02005222     -1.57876917
C      -0.32873234      1.29761325     -0.34957772
C      -0.53596246      2.46266926      0.44217494
C      -2.33208072      3.12493915     -1.07403732
N       1.70860097     -2.90344723      3.25059537
N       0.44392454      2.52501378      1.51712664
C      -3.49611908      3.96982781     -1.32139661
C       0.62177279      3.63865249      2.48987235
H       4.86387616     -1.89951513      1.24239482
H       1.63709065      0.96869667      2.39289384
H       1.70517709     -0.92952248     -0.68638659
H      -2.89937687      1.64546565     -2.60240330
H      -1.83806841      4.22151067      0.61821025
H       1.29874281     -3.49274340      3.92962234
H      -4.44057971      3.49029124     -1.47940449
H      -3.26905745      4.55334054     -2.19353289
H      -3.65661798      4.61568960     -0.44111880
H      -0.11386750      3.60640530      3.30733814
H       0.54344434      4.50328758      1.86960794
H       1.56271724      3.63050799      3.12670371
