49
charge=1
C       0.88825829      0.54767297      1.34735962
C       1.68517415      1.33747769      0.90022877
N       3.27763798      3.23228621     -7.36916873
N      -2.29612527     -0.87091657      4.79586428
N       0.21525150     -1.57588767      1.77150592
N      -1.75662733     -3.07412744      4.42119259
O      -4.72972823     -1.94603368      6.56764675
O       4.00652410      2.00534177      0.83790551
C       1.99260723      3.50332390     -7.12530461
C      -2.58116735     -2.13122218      5.11401476
C      -0.21190117     -2.54385511      2.56640092
C      -1.15422961     -2.30197759      3.58029935
C      -0.00697110     -0.27092149      2.07018487
C      -5.47289707     -2.95062966      7.18560019
C      -4.76637987     -4.18038268      7.30875505
C      -3.56303963     -3.89329823      6.66709004
C      -3.63158317     -2.66004361      6.09409296
C      -0.75078937     -0.00991992      3.12787957
C       1.58698432      3.15416846     -5.81818932
C       1.68807394      3.34871140     -3.06965588
C       3.77321853      2.04692825     -3.15107614
C       1.52621599      3.13871417     -1.69160507
C       3.61117133      1.88210162     -1.76121206
C       2.74214567      2.75756160     -3.74292312
C       2.56134495      2.46577622     -1.03146908
N       0.16976207     -3.76031632      2.23203840
N      -1.48918296     -0.98172839      3.75327300
N       2.70072195      2.94113872     -5.13318740
C       3.92634203      3.03136611     -5.97811643
C       2.28248979      3.75979475      1.11627456
C       2.65671788      2.41141345      0.51155373
H       3.87272792      1.77860577      1.82472349
H       1.18080225      3.70037501     -7.90700091
H      -6.49761976     -2.83152598      7.64013627
H      -5.15308574     -5.07639367      7.73722480
H      -2.73794208     -4.63505704      6.45265128
H      -0.77920850      1.08085329      3.38680510
H       0.55721936      3.17625654     -5.46177884
H       0.94617408      3.96396009     -3.66457020
H       4.71963901      1.67643289     -3.66050968
H       0.68389052      3.66830647     -1.17717789
H       4.44338917      1.23899339     -1.37189960
H      -0.42679272     -4.51273790      2.64912397
H       0.49132325     -3.92283008      1.25304648
H       4.63069272      3.81544820     -5.68200457
H       4.59650939      2.17394239     -5.91611104
H       2.54915533      3.71920625      2.16319661
H       1.20697292      3.96307290      1.04886001
H       2.76581688      4.54025867      0.51771559
