48
charge=0
O      -2.04079609      0.17119090      2.53334198
O      -4.18236449     -5.85727191      3.47058845
O      -3.99770815     -1.49636949      1.66781262
O       1.19402744     -1.08032504      0.64644001
O       2.69604322      1.83303339     -1.54977138
O      -1.22881409      2.40505192     -0.22775491
C      -1.22907929     -0.23124474      1.80535176
C       2.10823404      3.40412816     -4.81864274
C       0.16052450     -1.95308243      1.02917583
C      -1.02562238     -1.59961250      1.63137130
C       2.67731872      3.09332935     -3.61470750
C      -2.07444157     -4.85773189      3.01091187
C      -4.09008060     -3.63701864      2.62087926
C      -1.30933581     -3.79342245      2.48066049
C      -3.44390668     -4.86499550      2.95374545
C      -3.36338547     -2.63755811      2.08304872
C      -1.97416585     -2.63585866      2.16875193
C       4.11442150      3.63786219     -3.32502026
C       2.10927983      1.87013442     -2.85194993
C       2.20082501      1.06788283      0.66488638
C       0.58779347      1.73214904     -2.65862853
C       1.16453382      0.18225181      1.28805544
C       1.64448597      1.82902208     -0.56791632
C      -0.68196776      1.06079194     -0.24176347
C      -0.21740725      0.79100455      1.26384967
C       0.52698912      1.07064460     -1.26404775
H      -5.05590234     -5.50107037      3.67026254
H      -3.70869236     -0.68462235      2.13606190
H      -1.82844083      2.59033228      0.50313245
H       1.16618028      2.89229242     -5.07854050
H       2.45629386      4.15615609     -5.51786807
H       0.38689595     -3.03213875      0.89788682
H      -1.66243746     -5.81106297      3.35966939
H      -5.12638505     -3.61148195      2.68761333
H      -0.31578418     -3.80205572      2.75874933
H       4.23807168      4.49589529     -3.99013291
H       4.88014093      2.85965664     -3.68001666
H       4.08151395      3.94726030     -2.24991280
H       2.39523775      0.91247908     -3.33923080
H       3.07795177      0.42826088      0.40586840
H       2.58356677      1.91403970      1.32639088
H       0.16434726      2.73983533     -2.61623586
H       0.06782935      1.05584675     -3.38563605
H       1.35796233      0.16599844      2.37533738
H       1.40628606      2.83341544     -0.35687877
H      -1.40408875      0.24173768     -0.55823146
H      -0.17427196      1.68739959      1.92099585
H       0.68832380      0.01784121     -1.46795205
