31
charge=1
O       0.39689414      1.10888920      2.68861837
O       1.77464505      0.35422345     -1.79624032
O       0.18207452     -1.38971911     -0.96748492
C       0.45550213      1.00529122      1.47071218
C      -0.58190652      1.64492869      0.68448155
C      -0.55948782      1.21893091     -0.62436543
C       2.25484083     -1.30255453      2.47780385
C       3.46263900     -1.04311235      0.47505907
C       2.33221420     -0.70213780      1.24993435
C       3.23949330     -2.17629538      2.93022110
C       4.41703063     -1.98610920      0.95794219
N       1.35671165      0.18821910      0.79023841
N       4.26622934     -2.53071344      2.16794876
C      -1.60373875      2.59957316      1.22183966
C      -1.45141312      1.75464110     -1.68695157
C      -2.74589002      2.87235092      0.25272520
C      -2.26782757      3.03377158     -1.17160061
S       0.74052907     -0.02495465     -0.78138480
H       1.40932766     -1.15920634      3.16976178
H       3.68425129     -0.60145198     -0.50137935
H       3.07213453     -2.67781960      3.90180810
H       5.28413504     -2.26551066      0.31930903
H       4.92901197     -3.23711432      2.45955827
H      -1.09792010      3.53728568      1.42313611
H      -2.03648324      2.21941073      2.12398986
H      -2.14922048      0.91634643     -1.93586208
H      -0.88269205      2.03952850     -2.59637031
H      -3.24606502      3.82529013      0.49947119
H      -3.52839605      2.09622483      0.29501393
H      -1.61169551      3.92597564     -1.21778860
H      -3.09043536      3.16031222     -1.87565089
