41
charge=0
O       4.37900480      2.05292932     -0.01187328
O      -1.84462637     -1.86781550     -1.48544455
O      -0.27433156      1.33476992      2.01733407
O       0.48865708      1.28684816     -1.50484845
C      -1.59375160     -0.67797739      0.60449806
C      -0.24328879     -0.41791151      0.36530307
C       1.75667186     -1.02470995      2.34083031
C       2.29325021      1.33373171      2.75561663
C       2.95277675      0.22995665      0.54307928
C      -3.88763087     -1.49235439     -0.29259511
C       1.84642600      0.36754731      1.63097249
C      -0.34934841      3.02858213     -0.08614228
C       2.10606740      2.50955167     -0.30565885
C       3.16734192      1.45147318     -0.38688456
C      -2.39251888     -1.73844837     -0.15683178
C       0.51733480      0.79793515      0.94347357
C       0.68926083      1.87880037     -0.19070986
H       4.66355484      2.69775579     -0.66262826
H      -0.88071043     -1.88987544     -1.40273399
H       0.20153821      2.06324235      2.43101934
H      -0.31720733      0.73462969     -1.44944330
H      -2.11591766     -0.10522816      1.36445519
H       0.35442071     -1.06367243     -0.27515504
H       0.92701942     -1.08110966      3.04451913
H       2.67241188     -1.22309778      2.94169007
H       1.72993357     -1.82033065      1.62136548
H       3.36193078      1.20534173      2.96015214
H       1.79117553      1.09984615      3.73629438
H       2.10736400      2.41279723      2.49191119
H       2.64671849     -0.62323637     -0.06574873
H       3.92323255     -0.04336736      1.02374061
H      -4.36785983     -2.43098023     -0.67190870
H      -4.25136349     -1.19542182      0.68506550
H      -4.09700306     -0.66741808     -0.97531305
H      -0.28016745      3.62054721     -0.98677647
H      -1.39020435      2.65785489      0.07098016
H      -0.08244757      3.62040414      0.80933939
H       2.11656855      3.12120339     -1.22203874
H       2.32918471      3.22155380      0.51765671
H       3.23610550      1.01832300     -1.41672147
H      -2.19330680     -2.68640467      0.34642522
