44
charge=0
F       5.45236739      3.02758921      6.12178734
Cl      4.70324303      5.63168364      5.09092997
N       1.92846561     -3.21160917     -5.76430143
O      -0.26197795      2.33256823      3.33844605
S      -0.72771953     -1.47578215     -4.83985724
C       1.93973397     -2.38287401     -4.82671027
C       0.80007460     -2.01391498     -4.06701525
C       0.88782914     -1.61533401     -2.75468250
C      -2.76253253     -0.22443704      2.93446355
C       3.84290211      1.76252734      4.99027953
C      -1.90381625      0.64330694      3.52062450
C      -2.47619473     -0.22420040     -2.87355606
C      -2.62320500     -0.48891162      1.58918907
C      -2.70474310      0.23418850     -1.51741480
C      -1.10473318      1.32325352      1.30444966
C      -0.50432058     -0.70468994     -0.95014761
C       2.63704260      1.70189010      4.26042420
C       2.86358316      4.03998097      3.74528469
C       4.41354594      2.99361961      5.22863224
C       3.91924042      4.12670272      4.63829748
C      -1.14742171      1.54104223      2.70568001
C      -1.36070353     -0.94317790     -3.26854194
C      -0.34811779     -1.10329400     -2.26789217
C      -1.89631721      0.29343099      0.72852302
C      -1.71204996     -0.13485870     -0.53868184
C       2.15192345      2.86961464      3.55832532
N       3.14931739     -2.07308630     -4.44619862
C       0.95265729      2.80544652      2.66462897
H       0.94427497     -3.36067695     -6.00973556
H       1.72327215     -1.76549387     -2.11379984
H      -3.44400383     -0.80923770      3.50901498
H       4.14630760      0.80722864      5.42659931
H      -1.96285106      0.73370332      4.52649652
H      -3.26721139      0.07496836     -3.54240927
H      -3.34563295     -1.19578669      1.26546384
H      -3.50940357      0.77691084     -1.15147239
H      -0.60500228      2.04912643      0.72100985
H       0.39105541     -0.71222733     -0.21675555
H       2.28024000      0.74553533      4.00419660
H       2.66549674      5.08798930      3.31658860
H       3.22173800     -1.34104868     -3.77163414
H       3.83107231     -2.39339169     -5.10058619
H       1.35051098      2.10133240      1.90957596
H       0.75586073      3.75418947      2.20627840
