46
charge=0
O      -1.98750232      3.83207356      0.40219287
O      -1.24247443      1.25763526      4.30099757
O       2.40331815     -4.90709850      4.35928965
O       1.46879724      0.89798151     -2.61085792
O       0.81756558      2.54466989     -5.02660970
O      -1.21830954      1.40749497     -4.28618320
N      -1.19370357      4.79945798     -2.11857281
O      -0.33650370     -1.56783502      5.45678571
C      -1.17402223      3.19610013     -0.32199727
C      -0.42208132      0.51950030      3.76211620
C       1.99468039     -3.93433336      3.73826559
C       0.65378973      1.50374942     -1.93798204
C      -0.72367687      3.68183496     -1.64102916
C       0.31108255     -2.78082857      5.42303134
C       0.09952800     -0.77525113      4.35979128
C       1.08187347     -2.86762223      4.33066821
C       0.91790218     -1.62386533      3.62769071
C      -0.66044270      1.80465217      1.60125581
C       1.05145808      0.09391918      0.22216174
C      -0.46225654      2.04102230      0.27911803
C       0.29500441      1.12410251     -0.42834667
C      -0.04507873      0.68282758      2.26885986
C       0.79602954     -0.19670187      1.61792898
C      -0.65763412      5.30560743     -3.45977151
C       2.45174533     -3.72094153      2.28584579
C       2.82675793     -0.62699434      2.78949363
C       1.67818079     -2.69186259      1.45473178
C       0.21377882      2.89658432     -2.47970138
C      -1.16191096      4.24567645     -4.43524543
C       1.55046731     -1.32919302      2.24295300
S      -0.42369293      2.60570355     -4.15128610
H       0.11683588     -3.56307117      6.11693147
H      -1.25210239      2.49823890      2.25668033
H       1.67529803     -0.61281503     -0.44545821
H      -1.17933974      6.22107771     -3.79276185
H       0.40846624      5.49767853     -3.42135204
H       2.30167176     -4.67870077      1.69481826
H       3.55933793     -3.42376584      2.20061255
H       3.46425872     -0.22499892      1.83553223
H       2.41912141      0.12413012      3.45224800
H       3.37730659     -1.26695625      3.36859511
H       0.66138011     -3.10788181      1.40838154
H       2.07753200     -2.63419983      0.50454740
H       1.13170172      3.48912370     -2.74072454
H      -2.23650214      4.04173518     -4.16195593
H      -1.08548458      4.56449106     -5.55953706
