42
charge=0
O      -1.32568864      3.44787510      1.70837829
F      -5.03523590     -3.21095361     -1.76979865
F      -5.89777412     -5.11224743     -0.63697083
F      -4.35453926     -5.27292750     -2.19514958
F      -5.16460568     -3.81054338      1.64037840
F      -4.33474538     -2.16140909      0.57625814
F      -3.04423097     -3.39067839      1.99525646
N      -0.15147179     -3.14615946     -1.09834642
N       3.49722177      4.77928157      1.37603178
O      -0.83648507      2.49087587     -0.16974772
O      -3.08978309     -5.71843213      0.36529039
S       5.69425879      3.42439541      1.96876381
S      -2.36907553     -2.44935172     -1.88515584
S       0.32941786     -1.34436003     -3.05442288
C      -0.52305032      3.14690611      0.85827250
C      -0.65723090     -2.37867598     -1.95527456
C       4.71021444      4.89252334      1.92244940
C      -1.00433665     -3.93073386     -0.41539170
C       4.25693446      2.73955246      1.15951091
C       0.84657839      3.62296379      1.20111013
C       3.26354325      3.56124783      0.87589709
C       1.87930137      3.15111399      0.48163830
C      -2.35770926     -3.81752186     -0.78174784
C       2.18316888      0.26715586     -1.96012222
C      -0.12651289      0.64539586     -1.43235125
C       2.52895621      1.41887651     -1.30734756
C       0.16567780      1.71927674     -0.75618913
C       0.80849377     -0.08141630     -2.03091000
C       1.51283852      2.11984885     -0.59076467
N       5.04144577      6.12640349      2.41773359
C      -4.85766023     -4.41570589     -1.16092825
C      -4.04004733     -3.40152460      1.03395940
C      -3.62240664     -4.36744298     -0.13751792
H      -3.88999445     -6.10145599      0.80938008
H      -0.77868952     -4.59914019      0.40064949
H       4.08160378      1.70987575      1.00043233
H       0.98967027      4.32410810      1.97278421
H       2.91374412     -0.43066339     -2.28847054
H      -1.17109191      0.45683318     -1.61756247
H       3.54652177      1.74798410     -1.38712956
H       6.01662926      6.39581415      2.39540126
H       4.36614499      6.95303647      2.47172367
