34
charge=0
O      -0.24912457      1.13981443      1.13280920
O       0.91231929      1.06369022     -1.02525416
O       0.55604457     -1.07824255      0.27937579
B       0.54377799      0.40285789      0.22514658
C      -2.70234721      1.47083103      1.04917448
C      -1.10075669      3.28161321      0.29136229
C       2.71184976     -0.50799907     -1.69447963
C       0.52945812     -0.32639462     -2.99668770
C      -0.42018968     -3.13892765      1.05872447
C       0.83884311     -1.42764818      2.50520375
C      -1.36257255      1.80934906      0.45768669
C       1.58810468      0.47236342     -2.17516948
C      -0.14180418     -1.66038979      1.36195800
H      -3.49487232      1.98754067      0.46355690
H      -2.99819690      0.42175149      0.96418505
H      -2.86485592      1.59322826      2.08950399
H      -1.85263133      3.79587309     -0.29051600
H      -0.17969017      3.57590777     -0.22839725
H      -1.02222492      3.81200640      1.24786927
H       3.29015513     -0.87664638     -2.51755411
H       3.32103115     -0.10677126     -0.91421379
H       2.14405525     -1.22720435     -1.15926135
H      -0.06493838      0.29081533     -3.71504833
H      -0.09794372     -0.71743754     -2.20840227
H       0.98795284     -1.10212950     -3.60215705
H      -0.96350256     -3.59924287      1.94927853
H       0.45085308     -3.71090934      0.75425331
H      -0.99426175     -3.15933595      0.13167589
H       0.85412739     -0.39518513      2.88628567
H       1.82083342     -1.71309197      2.26075094
H       0.44983360     -1.97985075      3.36711468
H      -1.42456645      1.38793463     -0.57329009
H       2.04469574      1.25404029     -2.77210018
H      -1.10945568     -1.03220974      1.39661571
