49
charge=0
O       0.04717844      4.08486340      0.64077189
O      -4.59239235      0.00544622      1.65599632
O      -2.81075532      1.89291187      2.97294181
O      -0.25556240      2.02654353      1.67761166
N       5.08323588      0.26478621     -0.76147056
N       4.46437708      0.93817051      1.42953410
O      -0.61239527      3.93084892      3.09090319
O      -2.33362095     -0.53469835      2.52507636
O      -4.55260625      2.58511507      1.43340221
O      -3.00502498     -1.28291621      0.08515247
O      -2.28705269      3.61154680      1.13138454
O      -2.65285519      1.16542631      0.56679180
S      -1.15354542     -0.43767123     -2.68448291
C       0.52248775     -0.56746673     -0.68422360
C      -0.51444503     -1.25279049     -1.27770115
C       0.00869282      0.85281299     -2.39155573
C       5.32378892      0.41024347      0.53175742
C       3.91172372      0.69182748     -1.21189351
C       3.32521783      1.36234671      0.97735807
C       2.96538978      1.27958682     -0.32965515
N       2.55879237      1.96982436      1.89325567
N       0.79683745      0.63945409     -1.35487203
C       1.20479455     -1.06201739      0.58296132
C       6.66629318     -0.03509758      0.99769175
C       1.59707405      1.76290205     -0.83653541
C      -2.14332829     -2.39112853      0.36244441
C      -1.13156206     -2.54788207     -0.83206486
P      -0.80871948      3.37905904      1.62370888
P      -3.16086483     -0.13361982      1.24041036
P      -3.01279578      2.31391135      1.57722238
H       0.34646045      3.86533613      3.09990889
H      -2.50126890      0.28610263      3.06480052
H      -4.88893317      1.72251490      1.74954855
H      -0.00046060      1.79528651     -2.90964625
H       3.68303354      0.55175532     -2.27123833
H       1.54984140      2.02615544      1.67032988
H       2.82626563      1.81145136      2.83795286
H       0.65306661     -1.91651242      0.97752758
H       2.22007159     -1.32355808      0.33833582
H       1.21034356     -0.27037810      1.34435233
H       6.67677906     -0.25595872      2.05854117
H       7.39687421      0.75622251      0.85464624
H       7.00728368     -0.91030859      0.43808067
H       1.07253872      2.11942090      0.04941484
H       1.68559782      2.59604657     -1.54816100
H      -1.60348364     -2.25396070      1.28769335
H      -2.75819344     -3.29137591      0.44787908
H      -1.70070401     -2.99369556     -1.63833085
H      -0.39378636     -3.30719935     -0.55387389
