22
charge=0
Cl      2.05874505     -0.73756393     -2.36325601
Cl      1.09073333      2.07651044     -2.49649882
Cl      0.11694192     -1.07474700      3.54232550
Cl     -0.95947989      1.69892684      3.50292547
Cl      3.66113774      1.54169324      0.07928988
Cl     -1.18920085     -0.57888232     -2.22444045
Cl      2.40776171      1.34374888      3.12250163
Cl     -2.55963415     -0.16385410      1.28723599
Cl      2.71684592     -1.52305075      0.98900392
Cl      1.04489052      3.57663550      0.98545520
Cl     -0.26964066     -2.40092151      0.43838050
Cl     -1.77212098      2.46687815     -0.30510435
C       1.25616858      0.65383609     -1.43133499
C      -0.15577798      0.46930668      2.42896183
C       1.88749659      1.03271926     -0.07797960
C      -0.07392261      0.16453623     -0.93565117
C       1.16836269      0.76055270      1.92366589
C      -0.80833410      0.20432295      1.17192750
C       1.48741992     -0.24239944      0.83832652
C       0.88310007      1.77943228      0.80436834
C       0.11593198     -0.69321619      0.26209180
C      -0.46552618      1.28743471      0.09970405
