27
charge=0
Cl     -1.91631561      2.89210418      1.73854690
Cl      0.65858591      2.30608226      2.40723862
Cl      0.84818315      3.28139116     -0.98875954
Cl     -1.93041689     -0.10692298      2.50840281
Cl     -3.31878439     -0.46380961     -0.24730873
Cl     -0.95253006      1.45529915     -2.71515707
O       1.18057793     -2.98797975     -1.06768841
C       1.01599808      0.59933996     -0.16514051
C      -0.50484225      1.97806475      1.22141258
C       0.71896345     -0.51713842     -1.23844482
C       0.01039107      1.88959271     -0.21056044
C       1.20261453     -2.40959288      0.23942719
C       0.46371180     -0.21719937      1.04303829
C      -0.60156849     -1.01535867     -0.72422500
C      -0.91750318      0.49878207      1.15038698
C       0.03022451     -1.56956173      0.52867416
C      -1.53351317      0.08360430     -0.23716060
C       1.72414824     -1.65029451     -1.03007842
C      -1.34274006      1.42259638     -0.93384057
H       2.07286778      0.88336117     -0.01307676
H       0.85490936     -0.21920019     -2.29328023
H       2.05443018     -2.54543748      0.89941071
H       1.04932531     -0.29172161      1.96614121
H      -0.99501723     -1.69855049     -1.40232243
H      -0.49216436     -2.16309012      1.24252035
H       2.82710337     -1.46641321     -0.92788984
H      -2.20663923      2.03205230     -0.75026641
