14
charge=0
S       2.82664034      3.65918873     -0.60305283
S      -1.72558351      0.07615050     -2.72982332
S       2.69642020     -2.71240337      1.44487686
S      -1.56006360      1.14241849      3.97707123
S       0.32988206      2.10170585     -1.48732442
S       2.92996599      0.34846077      0.23937630
S       0.42555677     -1.37798444     -0.88300595
S       0.85745412      2.34841539      1.93040957
S      -1.88534950      0.60458997      0.73003802
S       0.36907394     -0.97295104      2.60579363
P       1.73859749      2.15992387     -0.01175759
P      -0.71908494      0.34650830     -1.02699657
P       1.59009153     -1.10846251      0.94422198
P      -0.46512006      0.79291975      2.27865359
