17
charge=0
N      -1.26064380     -0.74095614     -2.99852367
Cl     -1.31377028     -0.56428792      3.88677445
Cl     -1.89344252      2.12045319      2.55081567
Cl     -0.20116870     -2.98649680      2.02568939
Cl     -0.57453611      2.78967430     -0.11936490
Cl      1.04343432     -2.52188639     -0.58457397
C      -0.37667296     -0.08895862     -2.45288713
O       1.95205758      0.04557151     -2.07518469
C      -0.70594693     -0.36262918      2.30264703
C      -0.85175440      0.88583781      1.78299406
C       0.00267642     -1.34100806      1.51392872
C      -0.29749653      1.27537907      0.56751606
C       0.49546407     -1.06159234      0.23106334
C       0.37070444      0.26505886     -0.20877444
C       0.73156349      0.52973284     -1.63260255
H       2.10063634      0.13200593     -3.01214678
H       0.77889542      1.62410227     -1.77737048
