37
charge=0
C      -2.48797911     -0.55467416     -3.99343820
C      -1.15423529     -0.48100920     -4.27501956
C      -2.91789951     -0.31454507     -2.62989783
C       0.63282679      1.17591560      1.28614378
C       0.51400020      1.41746484      2.71385302
C       3.02753748      0.71790176      1.53097004
C       2.60048912      1.08816195      5.73422908
C       3.82131364      0.71350792      5.16788599
C      -2.59558203      0.40147975     -0.36976104
C      -1.74889060      0.78456424      0.63890331
C      -0.68856799      0.09183219     -1.87480735
C       0.14778494      0.55593134     -0.84254487
C       1.49692840      1.31094946      4.90902026
C       3.94208700      0.58686451      3.77400984
C      -2.08391788      0.10208043     -1.63529342
C      -0.38998726      0.87014664      0.39180875
C       1.62325494      1.21192707      3.50103601
C       2.85398044      0.83223064      2.93887077
C      -0.12428031     -0.31984791     -3.19992093
C       1.97432040      1.20573789      0.58100721
C       1.64401601      0.61785446     -0.78204856
H      -3.24571402     -0.71585763     -4.75206914
H      -0.82031543     -0.62840557     -5.27166079
H      -3.98525812     -0.44498383     -2.42625709
H      -0.43413257      1.64543360      3.12127883
H       3.97441771      0.46731080      1.09378742
H       2.47710136      1.22534252      6.80372696
H       4.59445238      0.50467751      5.88587720
H      -3.67793569      0.27883170     -0.17260430
H      -2.15085886      0.99134751      1.61461360
H       0.56182327      1.53923680      5.37493547
H       4.89984095      0.24435717      3.38451267
H       0.40399764     -1.22484215     -3.06500339
H       0.63772398      0.44290480     -3.54506910
H       2.14930122      2.29794483      0.39672113
H       2.06666952     -0.37670283     -0.89271257
H       2.04124385      1.31848749     -1.53552627
