41
charge=0
O       0.10765918     -1.46100260     -4.39736090
O       1.43736533      4.41641141      4.07653546
O      -0.51815531     -0.14111010      3.43969779
O       0.36135566      0.63388810     -3.42729520
O       0.19002773      2.73128710      3.00758337
O       1.40176895     -0.17210009      2.21016960
S      -2.89228232     -1.33402719     -3.38818889
S      -1.26941900      2.27144272      5.64180919
S       2.30305176     -2.80687144      3.57570414
C      -0.31850087     -0.38652657     -4.05904662
C       0.43923278      3.63659851      3.97698266
C       0.49825145     -0.72547088      3.06914339
C      -1.79108406     -0.00446711     -4.15133757
C      -0.74811005      3.83293098      4.96400982
C       0.63275709     -2.22955975      3.58354584
C       1.76923784      0.53138328     -3.17148924
C       1.27207656      2.26406077      2.24441172
C       2.15657493     -0.40148710     -2.01116557
C       1.26790754     -0.31920096     -0.91347036
C       1.63913037      0.91917551     -0.04596905
C       1.00513578      0.91463355      1.39145705
H      -2.47333884     -2.62105488     -3.50453862
H      -1.62427827      1.56717530      4.51634170
H       3.04393725     -1.66266960      3.56735197
H      -2.01705575      0.05708759     -5.17365226
H      -2.09575146      0.93625159     -3.59090812
H      -1.52484748      4.46880146      4.51822308
H      -0.24160114      4.36777101      5.75701107
H       0.11361196     -2.85318989      2.89852223
H       0.32179424     -2.38147509      4.64436857
H       2.20052474      1.51488758     -2.87969149
H       2.27279597      0.24565227     -4.11791931
H       2.13650348      2.07879618      2.85617270
H       1.70375016      3.14576330      1.63567481
H       3.17461109     -0.10159263     -1.66746781
H       2.31698298     -1.40670089     -2.47201536
H       0.16025224     -0.15778832     -1.09721231
H       1.30148073     -1.29411329     -0.34737215
H       2.78801850      0.92673100      0.02884223
H       1.30110236      1.83452012     -0.62327189
H      -0.10620902      0.86142569      1.13207896
