18
charge=0
F      -0.23321680      3.74495414     -0.25388263
F      -2.17052986      2.86167756     -1.38565368
F       0.22912380     -2.02283880     -0.44506249
F      -0.49496051     -1.68641234      1.92900308
F       3.03840211     -1.14121537     -0.30286071
F       2.68574330      1.21058177     -0.49102329
F       2.52354748      1.23568079      2.59566858
F       2.53246513     -1.20777117      2.73325654
F      -0.42134290      1.45096977      2.23149084
F      -0.20382616      0.90386348     -1.37509437
F      -1.86271374      0.54379729      0.03214397
N      -1.17940244      2.68872838     -0.39224540
N       0.40579850     -1.33280376      0.83181108
N       2.16100183     -0.02889685     -0.11027107
N       1.89926696     -0.00599930      2.24188462
N       0.19930272      1.09395636      0.93361555
C      -0.74563967      1.27684184     -0.21045891
C       1.16217035     -0.05992404      0.96286776
