17
charge=0
Si     -1.50095611     -3.72411308      1.52919464
Si      1.04871328      3.63992601     -1.37600137
Si     -1.03424612     -1.47576461      0.84970478
Si      1.37530797      1.38420567     -1.21402394
Si      0.72063508      0.05921306      0.59949332
H      -2.00185795     -4.40786848      0.35006749
H      -2.88476512     -3.69238241      2.14884475
H      -0.96223693     -4.92469508      2.20752693
H       1.60008663      4.53624761     -0.23426077
H      -0.18215400      4.37298620     -1.55372730
H       1.85108606      4.45289298     -2.33501155
H      -2.32089664     -0.85081238      0.88834882
H      -1.37543943     -1.49671619     -0.59433213
H       2.69053937      0.94548976     -1.49232550
H       0.70937990      0.83615591     -2.43423934
H       1.94564118     -0.59086933      0.96624527
H       0.32116300      0.93610373      1.69449628
