29
charge=0
N      -0.30877142      0.96422612      4.54887024
C       0.25850226      0.60674677      3.58835805
N       0.16711773      0.70795738      1.08106563
N       0.84069440      0.88097443      0.03158494
C       0.66443231     -2.09347392      2.14373202
C       2.20467054      1.37919223      2.23777945
C      -1.15710392      0.21887561     -1.27638196
C      -0.68915498      2.62461073     -0.79334114
C       0.82268419      1.18280021     -2.34217726
C       1.68142691     -0.96616743      2.03723443
C       0.97210100      0.37828252      2.27850043
C      -0.00337920      1.25448061     -1.08933516
H       1.16761264     -3.05530529      1.95039926
H       0.21396944     -1.94196963      3.08091187
H      -0.02724162     -1.83631685      1.29598861
H       1.77606744      2.33565802      2.23398035
H       2.88361802      1.11892997      1.47359141
H       2.86864291      1.38267150      3.12882657
H      -1.71769424      0.52651310     -2.12990073
H      -1.86899755      0.12017097     -0.36302253
H      -0.72943520     -0.75253960     -1.39367769
H      -0.79705281      3.21197253     -1.69805983
H      -1.56660365      2.41743004     -0.22525814
H      -0.08938375      3.34672908     -0.11213456
H       1.55185766      2.06774886     -2.30874486
H       1.37394109      0.21220638     -2.56962067
H       0.25764823      1.31756875     -3.21649683
H       2.05926069     -1.01523945      0.95123396
H       2.53671060     -1.24859448      2.80223334
