10
charge=0
O       0.97813431      1.43567723     -1.54231095
O       2.40260506      0.74193809      0.32807294
O      -1.30939119     -1.20961874      1.24517198
O       0.34500437     -1.28140575     -0.46763441
F      -0.46634882      1.67747931      1.97839454
F       1.39838203      2.95336216      0.29723022
F       0.98204942     -0.86533904      2.03041076
N      -0.22437845      1.04169784      0.72663981
S       1.20287960      1.44266366     -0.10712251
S      -0.01716415     -0.64468284      0.80291970
