18
charge=0
O       2.26299139     -1.33182522     -1.65180775
O       3.14490588      1.60743969     -1.52222727
O      -1.54666468     -1.16967746     -1.63623713
O       2.87634911      2.73936069      1.99786897
O      -0.92306267     -2.02849771      2.40556062
O      -1.17841507      2.80742127      2.66234336
N       1.37524135     -0.50213798     -1.85512058
N       2.24878008      2.04127199     -0.80957198
N      -1.02284358     -1.45574161     -0.45252487
N       1.64049649      2.67425264      1.81003212
N      -1.40757130     -0.93996736      2.06047831
N      -0.57107280      1.71491430      2.89021043
C       0.91399250      0.02649041     -0.65073380
C       1.36863203      1.24709462     -0.10264031
C      -0.15308652     -0.55140268      0.04830255
C       1.04137549      1.64669955      1.19233392
C      -0.52680990     -0.09043125      1.33431825
C      -0.01804791      1.08992625      1.80460523
