44
charge=0
O       0.88885127      1.88492786     -2.99252701
C       1.67005156      1.82863815     -2.04684750
C       1.55385599      0.76015471     -1.03632495
C       0.50354280      0.81634550     -0.14110139
C       2.93051103      2.71288205     -2.12280239
C      -2.22174202      3.33570447      1.20640127
C       1.48925664     -2.05245594      2.41860363
C       0.69232716     -2.50726252      0.17200293
C       2.59779422     -0.37011077     -0.96979867
C      -0.45722672      1.99492755     -0.19089899
C      -1.18458444     -0.46596830      1.13726159
C       0.59967285      0.77531188      2.31323838
C      -2.07585375      0.81667826      1.27581119
C      -0.19183835      2.09959220      2.28894468
C       2.68316852     -0.98456188      0.45086857
C       0.33481712     -0.10390488      1.03795520
C      -1.22348725      2.10468008      1.14084735
C       1.27902892     -1.38589970      1.03965724
H       2.70561314      3.71310462     -2.53546232
H       3.41328905      2.81612418     -1.11604115
H       3.60764525      2.19699134     -2.80339154
H      -2.93485012      3.26396692      2.01433852
H      -2.80706649      3.38590201      0.29339396
H      -1.64388606      4.26667496      1.28999549
H       0.52049086     -2.13171928      2.86595786
H       2.13795262     -1.48281853      3.05139920
H       1.91205196     -3.06658778      2.35524423
H       0.37971002     -2.10266534     -0.80433680
H      -0.15185402     -3.00077143      0.68197596
H       1.45440539     -3.28829570     -0.00139109
H       2.30110427     -1.15599707     -1.71199824
H       3.56686699      0.08629467     -1.28501245
H       0.05561915      2.91840846     -0.39724557
H      -1.19801869      1.76208084     -0.99631485
H      -1.44344298     -0.94853735      0.16067743
H      -1.41991182     -1.11426575      1.95958286
H       1.65173142      1.01610545      2.33368050
H       0.38542221      0.23255452      3.23784129
H      -2.82875589      0.83140918      0.48818847
H      -2.59028711      0.80553966      2.25518198
H      -0.65132066      2.28715640      3.27000268
H       0.51096277      2.91849249      2.11236508
H       3.30628667     -1.87923930      0.45146552
H       3.17589369     -0.30579059      1.13240901
