10
charge=0
S       2.14040654     -0.50560035     -1.40106658
S      -0.65308522      1.86259931     -1.65842615
S      -1.31525903     -1.74869945     -1.46909007
S       1.32229100      1.75590251      1.47299363
S       0.67583705     -1.86692174      1.69009045
S      -2.15588228      0.50253212      1.35066907
P       1.04936751      1.18990069     -0.57164212
P       0.56289265     -1.55278598     -0.44458221
P      -1.56742499      0.21452703     -0.68279383
P      -0.05914339      0.14854588      1.71384795
