27
charge=0
Cl      3.85105746     -2.58618294      2.58123043
Cl      1.16601159     -1.41722184      4.26745567
Cl      3.69865764      1.84143716      2.85991629
Cl      2.18428066      2.65543124      0.51366318
Cl      4.50803141     -0.20901546      0.28825063
Cl      0.06090410      1.56978996      3.33533253
Br     -2.46666417      4.28177951      0.00096585
Br     -3.74199909      2.76549793     -2.70421118
Br     -2.37996817     -0.01767395     -3.72018428
Br     -0.75649319     -1.72527024     -1.43611137
C       2.83131705     -1.17938755      2.16067304
C       1.79519920     -0.63461122      2.93537774
C      -0.92385600      1.90945762      0.40196045
C      -1.79547525      2.51501944     -0.48907422
C      -2.26462599      1.94182050     -1.68858100
C      -1.74137453      0.74007658     -2.06375786
C      -0.94954655      0.09651353     -1.03840441
C      -0.47025011      0.60538853      0.17430216
C       1.75550635     -0.46750424      0.13477327
C       2.45531910      1.19428520      1.69651670
C       2.93345725     -0.16257260      1.09299220
C       1.12123691      0.56334925      2.22470944
C       0.44399756     -0.19042430      1.01397489
H      -0.64480995      2.52515963      1.28469805
H       1.83296942      0.23525362     -0.65561566
H       1.87717207     -1.49272961     -0.22141275
H      -0.09226987     -1.06988117      1.33834571
