12
charge=0
O       1.69682328      1.54266068      1.04295331
Cl     -0.27757045      0.93668863     -2.94269762
Cl     -0.57140556     -2.15390829     -1.00728943
Cl     -1.38645395      1.84268632      1.06418706
Cl      1.63299619     -1.16667586      2.61131035
C      -1.04632919      1.37801750     -1.47869582
C       0.17118137     -2.06631638      0.48020471
C      -0.46575196      1.13584147     -0.24289128
C       0.82516877     -0.94685904      1.01223336
S       1.18702777      0.60877495      0.05085550
H      -2.03158864      1.86928886     -1.54983560
H       0.26590234     -2.98019911      0.95966567
