34
charge=0
Cl      1.03481556     -4.28163720     -4.34409678
Cl     -1.46633650     -2.16912967     -4.10936503
N       3.15977249     -1.39038741     -0.51684710
O       2.63613269      3.30507422      3.13931220
O       0.84957527      3.03464540      4.46912798
O      -1.38291184      1.21124060      3.03074512
O       1.49374183      1.92864439      1.00588369
O      -1.77784246      0.91159857     -0.04890690
S      -0.59309054      3.75201286      4.83978457
C       2.70726263     -0.28775143      0.02238002
C       2.16286580     -2.77272949     -2.40254854
C       0.02755412     -0.95988413     -2.25626171
C       1.04309298     -2.94890447     -3.21170556
C      -0.03699676     -2.03806157     -3.14706407
C       2.18513732     -1.74325339     -1.43585008
C       1.12949420     -0.80886362     -1.36666940
N       1.46330487      0.09479838     -0.41965215
P      -1.87251807      2.26997163      4.16575932
C       1.21837969      3.22434610      3.08569380
C       0.86308963      1.93833543      2.27624610
C      -0.60942300      1.78275485      1.95092575
C       0.69109578      1.25118251      0.02543022
C      -0.59464345      0.82214029      0.74181779
H       2.96620658      2.84186980      3.94095101
H      -2.56644381      0.66941869      0.48589803
H       3.31260707      0.28277949      0.74542493
H       2.98858686     -3.46463873     -2.48130595
H      -0.73525894     -0.21411024     -2.15884212
H      -3.20876741      2.21449633      4.64641498
H       0.73442108      4.07008158      2.61967867
H       1.22092584      1.03928713      2.83916430
H      -1.02680789      2.72973602      1.56957081
H       0.51218030      1.92685561     -0.78415773
H      -0.53717656     -0.22989355      1.07508878
