12
charge=0
F      -1.06481915      2.68867817      1.83466547
F      -2.47248319      1.46381988      3.03625301
F      -0.52873872      0.56361192      2.72851498
F       2.56981648     -1.32002355      0.79962104
F       2.74826975     -1.06176481     -1.41390861
F       4.15660903     -0.24904023     -0.08637969
S      -1.96892240      0.62385358      0.44899589
S       1.89574480      1.10644613     -0.04175088
P      -0.07352296      0.82788120     -0.71202560
C      -1.50851482      1.35249746      2.12862620
C       2.85415834     -0.46529805     -0.19598780
H      -0.25747059      0.81946469     -2.17649724
