38
charge=0
N      -1.73690259     -1.02429713      0.52090983
N       0.44756461      1.72663447     -0.55509164
N       1.69483592     -0.30668801     -0.10815167
O      -1.92831560      1.86217022     -0.34297645
C      -1.14916494     -2.17313064      0.76909841
C       1.52209202      0.92840238     -0.46993968
C      -0.73126485      1.17512845     -0.24083285
C       0.52861685     -0.84838054      0.30634301
C      -0.70720550     -0.16217852      0.23632644
N       0.22953795     -2.11534613      0.69809501
C      -1.55638852      4.34969399      0.96468486
C      -3.67506264      3.98000231     -1.25491664
C      -0.63460075      3.81618122     -1.92801129
C       3.16828009     -2.69019468      1.27597520
C       1.21310748     -4.69984715      1.81747085
C       1.60647288     -4.05466741     -1.17674060
Si     -1.93408957      3.49439314     -0.68124931
Si      1.54084137     -3.33758459      0.58083020
H      -1.65951950     -3.11809164      0.92422062
H       2.45836272      1.38023726     -0.79323996
H      -0.49206665      4.08455228      1.11427029
H      -1.75661370      5.42303084      1.03378851
H      -2.10515711      3.86526220      1.79437522
H      -4.01072895      3.17155031     -1.88422738
H      -3.70164802      4.90343011     -1.83181652
H      -4.30084416      4.09170940     -0.36493908
H      -0.60181376      4.89179259     -1.96477244
H      -0.76098084      3.36748838     -2.91740368
H       0.32826083      3.41866597     -1.65244198
H       3.67576059     -1.89145516      0.78582488
H       3.85649166     -3.54347588      1.32406111
H       2.89104540     -2.33545691      2.26529997
H       1.33491224     -4.23334627      2.79935777
H       0.23344178     -5.12909004      1.76128663
H       1.88471514     -5.53740205      1.73215812
H       0.61118850     -4.10792750     -1.62733198
H       1.92730956     -5.08332319     -1.06219642
H       2.28952983     -3.53844262     -1.84809757
