10
charge=0
N      -0.75883174     -0.27159837      3.36895922
N       1.35800346      1.59200837     -1.93846576
C      -0.38774012      0.19917534      2.34291406
C       1.28422745      0.87154626     -1.04071160
N      -0.66056180      1.87343605      0.74170235
N       1.67854591     -0.91690062      0.65960899
C      -0.02647374      0.79154076      1.07195331
C       0.98350026      0.13020291      0.16391273
H      -0.61245047      2.30271288     -0.19338134
H       2.43355275     -1.28035164      0.11528035
