26
charge=0
F       2.65718924     -2.03359569     -0.45863265
F      -1.13116299      1.28706643     -2.84867644
F      -0.10072105     -0.06449148      0.09943073
F       0.62768516      2.52827087      2.18567630
C       0.75590116     -0.45421117     -1.94954626
C       0.04409023     -2.30597200      0.57275339
C      -2.15031635     -0.46582024     -0.86457681
C       1.96876116      0.23077690      0.93145099
C      -0.11840359      2.15355401     -0.36833237
C      -1.13628545      0.38440247      2.07606154
Si      1.31806294     -1.13330150     -0.24467059
Si     -0.73368906      0.65522455     -1.43262819
Si     -1.43182880     -1.05415159      0.81347428
Si      0.36396707      1.25291376      1.25861115
H       1.57727234      0.10326283     -2.39086207
H       0.39554530     -1.22855508     -2.64599758
H       0.29732147     -2.72109972      1.52596316
H      -0.16315184     -3.06652066     -0.12286431
H      -3.04217043      0.09170951     -0.68238846
H      -2.34411566     -1.17293607     -1.68554319
H       2.73556891      0.85103109      0.45251036
H       2.41548683     -0.22040242      1.81466644
H       0.77250173      2.47780158     -0.89837754
H      -0.82729838      2.99815804     -0.39228890
H      -0.77348235     -0.12026753      2.95572928
H      -1.97672764      1.02715321      2.29905786
