37
charge=0
O      -1.74027790     -2.24216017      2.28620865
O       0.90939269      3.86803835     -2.51971331
O      -0.40312587     -3.87702361      1.03702782
O      -0.02884470     -1.43829668      0.57059387
O       1.48788774      1.32164339     -2.14918515
O      -0.86264994      2.37545270     -1.40119350
C       0.80718663     -3.89925199      1.75886601
C       1.14530667      1.25737636      2.73843817
C      -0.58389817     -0.21637127      0.63846829
C       0.92916360      0.44996639     -1.18640602
C      -0.34800528      2.27765688     -0.00850011
C       1.57258819      1.14645516      1.21750877
C       0.43546440      0.96636822      0.13476061
C      -2.46741461     -2.48555597     -0.06730881
C      -0.19159902      2.11901591     -4.22539456
P      -1.09341498     -2.52403045      1.03807379
P       0.43562378      2.44927324     -2.53292058
H       0.74407231     -3.30630661      2.68948185
H       1.01545765     -4.96178779      2.08459211
H       1.64839522     -3.51534472      1.13037711
H       0.39632163      2.15373695      2.76878480
H       0.65716005      0.34302234      3.05151577
H       1.96287125      1.44065270      3.40088746
H      -1.55781432     -0.19546147      0.05696504
H      -0.84827034      0.09244532      1.73387839
H       0.16450341     -0.05777285     -1.74184588
H       1.71227202     -0.22001463     -0.95744131
H      -1.20654472      2.26187886      0.70019769
H       0.35937972      3.13004457      0.24400357
H       2.30338737      0.36914715      1.09373897
H       2.11520533      2.06143213      1.03076817
H      -3.06208619     -3.39233823     -0.06867937
H      -2.27234455     -2.22345611     -1.17197746
H      -3.10159068     -1.68196626      0.26013223
H      -0.10446466      2.95723242     -4.87719774
H      -1.24456411      1.90403035     -4.11658095
H       0.31527034      1.29226963     -4.64092374
