29
charge=0
O      -0.90452906      2.07097795     -4.16457891
O      -0.32790665     -0.57360551      4.88716735
O       2.57091815      0.69899590      1.41401484
C      -0.18739305      0.85982408     -4.02902802
C       0.74549659     -1.12374962      5.63289029
C      -0.39223840      0.97708183     -0.71422132
C      -0.92882725      2.00334747     -1.68679803
C       1.14752151      1.08896045     -0.55488776
C       1.42509357     -0.74566364      3.04200162
C      -0.13826511      2.03881138     -3.01663828
C       0.92909270     -0.19611643      4.38174764
C       1.66207410      0.11665868      0.49281068
C       1.35733251      0.34535978      2.00849982
H       0.59677098      0.64009539     -4.74998741
H      -0.84940324      0.00038966     -3.93016611
H       0.87327909     -0.70789992      6.61575322
H       0.94979888     -2.18705050      5.57563328
H      -0.65805362     -0.03977183     -1.07788563
H      -0.79232955      1.12325998      0.30756486
H      -0.88212179      3.02155849     -1.24998230
H      -1.99068586      1.81391147     -1.84287999
H       1.45998393      2.15146370     -0.42551283
H       1.61010898      0.71740511     -1.46286303
H       2.44154257     -1.08382942      3.08526459
H       0.84044876     -1.60715910      2.74284740
H       0.70864600      2.74357866     -2.99962661
H       1.34575630      0.81709480      4.66216500
H       1.99696992     -0.80179853      0.08473783
H       0.73705851      1.18400825      2.31809702
