23
charge=0
Cl     -1.33602603      3.23340328      2.44295108
Cl      2.78721685      3.06963342      2.51973022
Br      2.60846960     -0.73764606     -2.43325803
O       1.07449517     -0.48182903      0.30055702
N       0.32163069      0.80375852      0.36945108
C      -1.72637053      2.00942461      1.22058544
C       1.83264215      1.77102914      1.98358778
C       1.79153813     -2.01226473     -1.25676168
C       0.55386279     -1.41743368     -0.65729638
C      -0.92875861      0.65976821      1.26580966
C       1.23823880      1.92214875      0.64323508
H      -2.77879453      1.69839278      1.49420120
H      -1.57561541      2.40335449      0.20051568
H       1.11474846      1.44554755      2.76132639
H       2.57513335      0.97975472      1.90994512
H       1.66399649     -2.84503580     -1.90777469
H       2.48565438     -2.24655048     -0.42619589
H      -0.01905749     -0.92868563     -1.51068109
H       0.03236642     -2.16401063     -0.18328820
H      -1.58382627     -0.04656634      0.78308450
H      -0.71782064      0.34014018      2.32800607
H       2.05039288      1.87189330     -0.14510248
H       0.70695897      2.84284935      0.46844799
