31
charge=0
P       2.22343946     -0.73761471     -0.99333128
P       2.46821450      0.86744468      0.38437692
P       1.46827933      1.19214089     -1.58612905
P      -0.99824076     -0.17190919      0.49937142
C      -0.32964404     -2.92226106     -1.34513658
C       1.19136711     -2.86314259      1.21637883
C       0.06497228      2.74737019      1.85630124
C       0.62410364      0.26122984      3.32058932
C      -1.32355480      2.65332781     -1.73355087
C      -1.32847236     -0.14274860     -2.91923939
Si      0.44458779     -1.78066302     -0.10221512
Si      0.59283934      0.98619743      1.60931704
Si     -0.76846909      0.87789524     -1.43885371
H      -1.32626131     -2.62810679     -1.69503577
H      -0.41462489     -3.85761227     -0.82870204
H       0.35311039     -2.99712298     -2.19094321
H       1.49444306     -2.30503231      2.10307576
H       0.50299720     -3.64964808      1.50699314
H       2.09585138     -3.29896881      0.78690474
H       0.78547004      3.29180563      2.45434132
H      -0.89153166      2.77435602      2.37641130
H      -0.05694991      3.21832775      0.87809016
H       1.56885053      0.44059004      3.86562555
H       0.48537356     -0.79855671      3.23029103
H      -0.21327884      0.65771707      3.89525607
H      -1.66417552      3.10211225     -0.79968507
H      -2.15016394      2.66618788     -2.44656724
H      -0.52817230      3.23965858     -2.16552411
H      -2.40593458     -0.35422979     -2.82859667
H      -1.22021565      0.55948511     -3.73808517
H      -0.74421052     -1.02823009     -3.17172845
