18
charge=0
O       1.49592967      2.34073392     -1.01996429
N       0.73438638     -0.86697086      0.35418005
O       3.26169543      2.08255441     -1.98263649
S       1.17612440      1.40058147      1.65770927
C       1.54595108      0.14830299      0.53096296
C       2.55466524      0.42150824     -0.44938098
N       2.40691715      1.51300821     -1.07753274
C      -0.54417011     -1.12206872      1.03155115
C      -0.64848585      1.04488113      2.19929589
C      -1.28979034      0.23257946      1.23008811
H       2.71078669      2.90204250     -2.14634390
H       3.36486363     -0.20826099     -0.70228075
H      -1.33169602     -1.63226027      0.43023288
H      -0.50418959     -1.63114446      2.02092764
H      -0.41667613      0.35677547      3.01527645
H      -1.20516547      1.84640821      2.51727200
H      -2.30358620      0.00092783      1.62987309
H      -1.48237039      0.69559151      0.28595937
