37
charge=0
S      -0.82371402     -2.23756648     -1.93309085
N       3.35355565      1.69628531     -0.44728963
O       2.83504928     -1.48623725      1.50775291
S       1.27328661     -2.09057514      3.51451202
S       0.38174735      1.00244669      3.62711817
S       1.66516150      3.83134583      2.26104011
S       4.63291777     -1.23711214     -0.41058491
C      -0.64836858     -0.93449701     -0.92859958
C       3.01838214      2.83353176      0.10319187
C       1.94063328     -0.93985924      2.41009451
C       1.55564805      0.40527718      2.44156982
C       2.15055304      1.27564667      1.44210348
C       2.82658962      0.73588409      0.40145301
N       2.26629617      2.61713920      1.25084842
N       0.50030451     -0.71000669     -0.22709999
N      -1.80391410     -0.22902999     -0.69656797
C      -3.37119816      1.13163448      0.58504470
C      -1.65946461      2.22477833     -0.96081327
C       2.96205876     -0.77423070      0.25806734
C       1.80918025     -1.24152604     -0.65449758
C      -1.93948934      1.07785143     -0.01640580
H       2.09593188     -3.04892332      3.13386109
H       0.76497134      0.23842164      4.64391286
H       1.15062998      3.11575126      3.28718620
H       5.03152865     -0.02145610     -0.88800022
H       3.23280046      3.83415479     -0.31454561
H       0.50510259      0.14961680      0.30606084
H      -2.61447004     -0.55225443     -1.27179319
H      -3.60133369      2.06422241      1.07273592
H      -4.14462707      0.95290344     -0.16515015
H      -3.43140391      0.35128117      1.34741021
H      -2.14864642      2.05947870     -1.95172526
H      -0.57750567      2.37057463     -1.10791533
H      -2.11008073      3.14927222     -0.56623434
H       1.75201660     -2.33041508     -0.59343194
H       1.98501635     -0.94601940     -1.68963764
H      -1.23558944      1.24176677      0.80897641
