46
charge=0
Br      2.89470824      4.76497337      4.91638884
Br     -1.30580657      5.05389429     -3.45574405
Br      0.18285083      2.88018733      4.49058724
Br     -2.07977624      5.32454440     -0.11814049
Br      5.80035807      3.47921415      3.70428892
Br     -2.17437236      2.34001276     -5.10021526
Br      0.44973570     -0.36846819      4.16566621
Br     -2.98447007      2.48646007      1.57544774
Br      3.86421351     -0.80391515      5.56475577
Br     -4.24938471      0.02342721     -0.11647699
O       3.21027030     -1.13277766      2.95153881
O      -1.60229150      0.50604035     -1.20162009
C       3.07681603      2.89361817      4.32700537
C      -2.07523251      3.57426156     -2.46016967
C       1.89571982      2.01947926      4.28823920
C      -2.30335103      3.64707708     -0.99695968
C       4.26299698      2.37853997      3.89261971
C      -2.53114644      2.49388543     -3.17760828
C       1.98722337      0.66678883      4.03139262
C      -2.70509283      2.48975804     -0.29590372
C       2.78094515     -0.90122472      1.59207397
C      -1.62907887     -0.86382921     -1.59985158
C       4.44671893      0.95269565      3.45892140
C      -3.45960674      1.48741614     -2.47650030
C       3.32743532     -0.00372884      3.84151908
C      -2.91062505      1.15348776     -1.04548868
C       2.50931372     -2.25671742      0.90019212
C      -0.20124517     -1.42350540     -1.82072832
C       1.90585420     -2.05617379     -0.53063020
C       0.52016087     -1.46680609     -0.47254942
H       1.90955893     -0.21781437      1.56154339
H       3.55853476     -0.41081693      1.01505562
H      -2.23862627     -1.00733346     -2.49270906
H      -2.07271474     -1.51834767     -0.82583726
H       4.55656130      1.05265280      2.34619841
H       5.38231213      0.57382567      3.89100050
H      -4.48578790      1.84342742     -2.42751875
H      -3.55047025      0.58767317     -3.06899023
H       3.47446779     -2.77375800      0.82589031
H       1.85458236     -2.89760702      1.49824595
H       0.35652468     -0.76129840     -2.51410752
H      -0.24544822     -2.42610822     -2.23252111
H       1.77480641     -3.02877239     -1.01653573
H       2.59618939     -1.47426173     -1.13611323
H      -0.01795445     -2.08545205      0.23231919
H       0.58577501     -0.45247229     -0.14581857
