49
charge=0
O       2.04862833      1.88423180     -1.68450497
O      -2.45984694     -3.25858393      1.86621698
O       1.68894335      1.25221493      0.77795000
O      -1.76126858     -2.83976132     -0.56484305
C       4.52886641      5.13752851     -0.08745466
C       4.18170439      8.59188070      0.88107423
C       5.25810707      8.28198852      0.05971184
C       3.93590539      6.28087015      0.68617046
C       3.88829955      3.91519756     -0.25749216
C       2.59408142      6.24864289      1.05434052
C       1.28760869     -0.88320719     -0.36714487
C      -0.50429724      0.25926527      0.83026264
C       0.45423350     -1.96498174     -0.73003467
C      -1.39933004     -0.75856780      0.41078526
C       0.86953834      0.21009850      0.44229836
C      -0.91402530     -1.83480337     -0.31035968
N       4.78578818      7.33835504      1.02029364
N       0.11457076      2.94388005     -0.64744183
N       2.48157166      3.89698479      0.03758481
N      -0.43034283     -4.66371482      1.04481615
N      -3.08199665     -4.98679433      0.09533795
C       1.83887864      4.94317331      0.87561466
C       0.25036259     -3.80433755      1.95475110
C      -0.32242869     -5.11573566      2.44558643
C      -4.48331001     -4.54811375      0.33534787
C      -3.75392351     -5.57795826      1.27748679
P       1.62187506      2.38952320     -0.36781847
P      -1.91512725     -3.89314027      0.62497923
H       5.63028471      5.34052303     -0.24018827
H       3.22436326      9.11801378      0.93907594
H       5.12017417      8.39290127     -1.06748566
H       4.37431850      3.20935484     -0.87246759
H       2.13099382      7.07014144      1.63882025
H       2.39847162     -0.90276981     -0.62882696
H      -0.83143851      1.13832504      1.34947592
H       0.76821493     -2.84528359     -1.30090466
H      -2.43767534     -0.64915118      0.89862438
H       0.16879638      3.55929352     -1.43068284
H      -0.52509307      2.13552671     -0.87523554
H       0.87171148      5.09596348      0.44085486
H       1.70648871      4.40584075      1.84864740
H       1.24790283     -3.77252437      1.77939594
H      -0.03182934     -2.89712557      2.28354201
H      -1.28297197     -5.23167737      3.00350065
H       0.27079971     -6.09927383      2.69172154
H      -5.20508821     -5.00606538     -0.38672348
H      -4.80797719     -3.60417974      0.72752196
H      -3.58386933     -5.38366765      2.35732824
H      -4.07996035     -6.58861700      1.07017451
