17
charge=0
O       1.50625229      1.54339825     -1.84816305
N      -0.01995966     -0.71684620      2.58182215
N      -0.70049424     -0.87497103      0.30425519
N       1.98553969      1.95634003      0.34773794
C       1.12753182      1.59494551     -0.70431668
C      -0.18621151     -0.12286625      1.43337256
C      -0.55369089      0.01065590     -0.60625321
C       1.42650373      1.59630153      1.43700954
N      -0.90092110     -0.36660721     -1.90308953
N       2.07396694      1.77300830      2.69305032
N      -0.07211099      1.29115849     -0.19801960
N       0.17079319      1.16598346      1.16012067
H      -0.27017532     -1.64826552      2.71350278
H      -1.20176796     -1.35247879     -1.92251463
H      -0.27423444     -0.08745620     -2.64410157
H       3.11272102      1.98919130      2.67160947
H       1.77227048      1.24452109      3.47999006
