39
charge=0
N      -2.14213425     -0.60139993      3.30488876
N      -1.85079512      0.48859760      2.55533442
N      -1.01855016     -2.02148366      1.76938381
O      -2.01603229     -2.89465777      3.70976148
C      -1.72275310     -1.83793593      2.89071938
C      -1.14401839      0.37675182      1.43758814
C      -0.73541936     -0.93066340      1.01635488
C      -1.05803364      1.69166500     -0.72316357
C      -0.74948356      2.85779140      1.37937693
C       1.28174009     -0.40324396     -0.38445266
C       0.14744563     -2.48879767     -0.75379539
C      -0.89968070      2.88629374     -1.44366831
C      -0.59234931      4.02893668      0.63185242
C       2.19235375     -0.74812746     -1.30384028
C       1.12442474     -2.81889806     -1.69629212
C      -0.97640205      1.63866759      0.68431406
C       0.19135358     -1.23157674     -0.08459186
C      -0.63956373      4.05438531     -0.76152828
C       2.17744803     -1.95152517     -1.96935856
C      -1.40515990     -4.16581761      3.40713191
C      -0.47036675      5.29183771     -1.55444153
C       3.23807595     -2.28504489     -2.97228751
H      -1.34514049      0.78224594     -1.26506225
H      -0.67462611      2.93963533      2.45842278
H       1.39576068      0.50873462      0.18414822
H      -0.60403913     -3.23849482     -0.49852229
H      -0.88201297      2.88389281     -2.52823631
H      -0.38895469      4.93197383      1.18968911
H       3.07808929     -0.08961998     -1.46835074
H       1.06265617     -3.78170242     -2.12449377
H      -1.62072002     -4.45139312      2.39056659
H      -0.33597482     -4.11308994      3.49800274
H      -1.80220998     -4.94570873      4.01841648
H       0.37843316      5.11937125     -2.22666627
H      -0.28146125      6.16039101     -0.91447508
H      -1.35430895      5.48698372     -2.17133631
H       4.11453076     -2.60620367     -2.42623590
H       2.85055050     -3.10486493     -3.63792704
H       3.47732822     -1.41790629     -3.61722628
