29
charge=0
O       3.39702705     -1.79967430      3.33958356
O       3.03642384      1.01876193      3.10207995
Cl      1.48373223     -3.77900449      2.25278761
S      -0.44763526      3.13269885     -0.87787007
C       2.72623744     -1.28121146      2.41398748
C       2.59649900      0.23136134      2.31675639
C       1.96298820     -2.16736764      1.61946656
C       1.21088797     -0.17613415      0.46981796
C       0.43499008      1.77817807     -0.13873134
C       1.88558808      0.72973106      1.19457172
C       1.19682024     -1.63497182      0.61030477
C       0.29719966      0.44987155     -0.42289701
N       1.39076906      2.02716136      0.83709035
N       0.33645403     -2.31883408     -0.18063394
C      -1.92005352      3.42080019      0.23057320
C       1.72722240      3.33964841      1.44012811
C      -0.47932313     -0.28605245     -1.50186350
C      -0.74329324     -1.67002102     -1.02589679
H       0.08262833     -3.27553051      0.20088393
H      -2.84559219      2.96201435     -0.18491815
H      -1.76588360      3.13946587      1.26109623
H      -2.17495449      4.49738606      0.14399000
H       1.80707379      4.04611590      0.67876801
H       0.90600848      3.76498521      2.18035817
H       2.76276997      3.28871003      1.87325248
H      -1.32466960      0.23562013     -1.89815254
H       0.24718877     -0.32453046     -2.25626600
H      -1.61646319     -1.77678608     -0.41416215
H      -0.82450135     -2.22625345     -1.91796610
