20
charge=0
C      -0.16184792     -0.79445664     -4.37144748
C      -0.05170717     -0.83048697     -3.15275667
S      -0.71889248      1.67035322      0.81228176
N       0.39131219     -0.74799120      1.16766020
C      -0.21999241     -0.57883615     -1.72608817
C      -1.03114660      0.83226508      2.50335088
C      -0.13615341     -0.38769615      2.58537699
C       0.69902996      0.51183924      0.38883414
C       0.71884056      0.50354520     -1.16062382
H      -0.27210761     -0.56446613     -5.44112653
H       1.28431627     -1.28175586      1.16108583
H       0.03982060     -1.54191971     -1.16664028
H      -1.26100729     -0.36376476     -1.52315105
H      -2.11007631      0.60385569      2.46751680
H      -0.91141071      1.30890091      3.51921447
H      -0.61001806     -1.25123916      3.04158704
H       0.64892636     -0.06212761      3.26230607
H       1.66178253      1.06640064      0.60640644
H       1.69140169      0.37130133     -1.47481433
H       0.34893005      1.53627910     -1.49897254
