32
charge=0
O       0.19741989     -1.94683975     -4.00561369
O      -4.07957151     -1.88467805     -5.49905273
O       3.64942275      1.78820685      4.80025787
O      -1.84654056     -2.20232840     -5.06118364
C      -1.02224593     -1.82004261     -4.04429533
C      -3.07862600     -1.74149628     -4.81402053
C       2.69313005      1.77424889      4.02642472
C      -1.83631546     -1.14680438     -3.01282480
C      -3.10924843     -1.10506752     -3.49643273
C      -1.43239554     -0.66721931     -1.67505642
C      -0.20731604     -0.92140334     -1.02406783
C       0.11806563     -0.15158732      0.23437918
C       1.37490575     -0.08528867      0.86187585
C       1.58095550      0.77780251      2.01793070
C       2.67429251      0.80585381      2.86761037
C       1.63213057      2.90430793      4.23608735
C      -4.37335157     -0.62750481     -2.81916881
C       3.86513628     -0.18697099      2.74132433
H      -2.10267543      0.02117103     -1.17441991
H       0.55311254     -1.58536940     -1.43046091
H      -0.68759248      0.49768364      0.64680053
H       2.17308724     -0.68610278      0.42349510
H       0.72914148      1.44994165      2.18754229
H       0.63235266      2.52214048      4.27118866
H       1.75401961      3.59340090      3.37701591
H       1.87908563      3.48476972      5.09878858
H      -5.21112953     -1.34924024     -2.99402233
H      -4.71213216      0.32730493     -3.18952160
H      -4.23407324     -0.58908774     -1.72676038
H       3.96378447     -0.79741573      3.64798850
H       4.75155742      0.39130042      2.65071567
H       3.71161385     -0.84368535      1.87747575
