42
charge=1
C      -0.22169224      2.47813162     -1.95558909
C       0.12410404      1.73319155      0.44990653
C       0.17042067      1.40780332     -1.00845514
C      -0.09759770      3.77257357     -1.59021808
C      -0.06678299      0.58446667      1.40924022
C       0.28035585      3.10459140      0.75419458
C       0.67654396     -0.50372228      1.07622137
C       0.66210644      0.23461457     -1.35613621
C       0.70546877     -3.46149241      3.58485519
C       1.20229117     -4.39608915      2.63414659
C       0.61631063     -2.16886498      3.13505562
C       1.50837163     -4.02149341      1.29676579
C       0.80989193     -1.81385545      1.76406416
C       1.21372102     -2.68320990      0.79607509
N       0.44002854      4.05990985     -0.30815718
C      -1.00150991      0.64767088      2.51733357
C       0.32090426      3.58249514      2.17892391
C       0.94628990     -0.03206174     -2.82964712
C       0.71429412      5.49274041     -0.14269969
C       1.31005949     -0.59648370     -0.30901574
N       1.28339917     -2.08519745     -0.52859136
H      -0.46307942      2.21508224     -2.98994339
H      -0.32342373      4.56675195     -2.25109926
H       0.27137257     -3.70219407      4.52866758
H       1.54704115     -5.38911852      3.04084342
H       0.20109969     -1.44895340      3.85877047
H       1.68810940     -4.83493173      0.61717733
H      -1.76607108     -0.14489679      2.49043177
H      -1.53539556      1.62231147      2.51895732
H      -0.46308103      0.65457984      3.41868263
H      -0.72029336      3.91789044      2.38307462
H       0.98061044      4.34006452      2.23503358
H       0.53424844      2.80291589      2.90599376
H       1.96824616     -0.28785375     -2.94513615
H       0.38382536     -0.83654115     -3.25069908
H       1.06731067      0.90283586     -3.44212093
H      -0.00984482      5.79719888      0.58974872
H       1.68373372      5.64270648      0.34458446
H       0.61040495      5.89964541     -1.09695304
H       2.36304178     -0.20179710     -0.23533794
H       2.11529995     -2.34743004     -1.04049371
H       0.49530851     -2.27853954     -1.02301251
