40
charge=0
O      -1.05247832      3.73913412      2.67597531
O      -0.76921953     -1.54384235      1.64386650
I       0.80152324      2.42783744      5.27004839
I      -0.18403135     -1.30454012      4.86583677
C      -1.40075823      1.93629255      1.46259418
C      -1.36045069      0.59469990      1.12189713
C       0.66495085     -0.58361575     -3.26439260
C       3.76004254      1.51007436     -0.55902347
C       0.35962369      0.71877868     -2.82008301
C      -0.00219295     -1.60464739     -2.52016523
C       3.48104456      2.40189500      0.51203871
C       3.25683073      0.14867785     -0.45543097
C      -0.58279296      0.93593971     -1.82166245
C      -0.97533211     -1.34978641     -1.56254742
C       2.78429182      1.92041132      1.67242082
C       2.50240691     -0.17352812      0.66443843
N      -0.92993151      2.43555399      2.65706862
N      -0.73046919     -0.37497042      2.01574564
N      -1.23733230     -0.03463987     -1.33164934
N       2.21622631      0.67197872      1.65635690
C      -2.13205236      0.18700524     -0.16577730
C      -0.60087836      1.55064962      3.73794664
C       1.52360197      0.09338333      2.80237439
C       0.03469428      0.13967952      3.22416367
H      -1.66882030      2.54726259      0.64621379
H       1.17008851     -0.93372960     -4.14058447
H       4.49345171      1.72384734     -1.28980183
H       0.76112373      1.66117971     -3.22958349
H       0.25473027     -2.68558383     -2.61550410
H       3.85110817      3.35845896      0.53532791
H       3.43826581     -0.65046406     -1.14881799
H      -0.75166149      1.91344698     -1.44130460
H      -1.52410625     -2.07088522     -1.00780867
H       2.70235630      2.53531521      2.57463171
H       2.18486909     -1.21768515      0.74454240
H      -2.63073557     -0.80073817      0.06668540
H      -2.95971208      0.87142678     -0.40433381
H      -1.50117009      1.17425753      4.16378987
H       1.67490931     -0.91861439      2.57136478
H       2.24507485      0.21717270      3.66023111
