45
charge=0
O      -0.74828504      0.63109151     -2.31733750
O       2.12973822      2.68734561      1.66870966
O       3.25768336     -2.77508551      4.60333646
O      -0.91899825     -1.70407011     -1.09752483
O       1.01429081      4.33686547     -0.26283227
C      -0.19123981      1.04472600     -1.25274760
C       1.41703928      2.03845937      0.84903906
C       2.77957297     -2.10755136      3.71029289
C       2.70888588     -0.66827878      3.96364064
C       0.77962662      2.93993359     -0.16151629
C       2.10164352      0.22672190      3.06175563
C      -0.04363213      2.43491912     -1.18213885
C       0.52506926     -2.04625250      0.66368269
C      -0.04227135     -1.21267612     -0.22880874
C       0.30662726      0.11211403     -0.19536481
C       1.05140774      0.61873283      0.88544139
C       1.55411678     -0.30064609      1.81976896
C       1.36456168     -1.61336733      1.60951966
C       0.42025478      5.04089266      0.93079878
C      -2.41840101      3.09179896     -2.03360893
C      -0.47101281      3.33533733     -3.64895669
C       0.58557308     -3.10982804      3.42703126
C       2.54452833     -3.88870630      1.91835116
C      -0.91613075      3.38064670     -2.14251250
C       1.85131644     -2.70229347      2.62475128
H      -1.01446687     -1.21579960     -1.94158432
H       2.83483505     -0.30632560      4.94163257
H       1.81378820      1.18340644      3.38784547
H       0.31727757     -3.10833121      0.58401373
H       1.05078499      5.25349596      1.81818823
H      -0.55985402      4.53069582      1.21647484
H       0.23628756      5.93762683      0.55828584
H      -2.88668637      4.00144442     -2.58039370
H      -2.72527606      2.15755851     -2.54302267
H      -2.81860838      3.02663716     -0.98826945
H      -0.84718222      4.26106412     -4.10068079
H       0.56618955      3.33498583     -3.72884127
H      -0.85645338      2.55574597     -4.28229376
H       0.07169371     -2.23344843      3.86344970
H      -0.19981258     -3.35259856      2.70920028
H       0.71157531     -3.92876921      4.14421754
H       3.34438618     -3.45341907      1.27606730
H       1.79860454     -4.53001755      1.34994892
H       3.04855719     -4.50197950      2.74631772
H      -0.71463035      4.41017176     -1.83035186
