18
charge=0
O      -1.35386522      2.80143446     -3.07529927
N       1.60114604      0.62721759     -0.38233724
O       0.42282664      1.85486585     -1.94903604
C      -0.87404037      2.32609492     -2.06911347
C      -1.59636399      2.03719482     -0.84820744
C       1.30051064     -1.57980184      2.35696286
C       2.05170639     -0.43834612      2.94425527
C      -0.75308609      1.37034764     -0.02727465
C       1.09313439     -1.23764506      1.05564899
C       2.26661335      0.49669967      1.98134783
C       0.50721407      1.22803023     -0.72129272
N       1.62731634      0.03510436      0.82835761
H      -2.64169660      2.34565741     -0.69607718
H       1.03742694     -2.51137300      2.83645981
H       2.45304535     -0.39438924      3.95421884
H      -0.94129538      0.93266186      0.96886586
H       0.52595705     -1.79650161      0.28538326
H       2.79863989      1.42793760      2.08232756
