32
charge=0
O      -2.06804422     -0.62184003     -2.04872169
O       1.80104042      0.25356953      1.99794795
B      -1.09233677     -0.44685754     -0.99494336
B       0.96683504      0.15114858      0.90149276
N      -1.24025530      0.62837012      0.03751715
N      -0.00129573     -1.38929621     -0.85703519
N      -0.07134545      1.16341485      0.58733719
N       0.78624098     -1.26754103      0.39197541
C      -2.43800387      0.57310551     -2.64138017
C       2.86339770      1.08943231      1.94524098
C      -2.26261995      0.46383888      1.03269869
C       0.45506926     -2.08932067     -2.07189303
C      -0.20292101      2.59730596      0.84272504
C       1.56647622     -2.42990959      0.93663116
H      -3.49194073      0.74493585     -2.85619667
H      -1.95210515      0.48205553     -3.61145950
H      -1.95314122      1.44022172     -2.01481555
H       2.66626080      1.99840240      1.41982060
H       3.69928645      0.59379788      1.39337502
H       3.20055882      1.31444766      2.89788837
H      -2.04166903     -0.53643805      1.49783351
H      -2.27820520      1.25819644      1.84068420
H      -3.30801035      0.28699159      0.60126071
H       0.92655595     -3.05518139     -1.82443532
H       1.17374732     -1.41873962     -2.54932036
H      -0.32279874     -2.24511194     -2.80682526
H      -1.06280025      2.75651973      1.44401842
H      -0.28705174      3.17319702     -0.10818329
H       0.61303481      2.91029702      1.43559964
H       0.97064038     -3.16729297      1.43471484
H       1.98130834     -2.97613405      0.15496607
H       2.40409180     -2.23558593      1.59148201
