35
charge=0
O      -0.11453640      3.53736719      3.90384492
O       3.54234644      2.30659500     -0.24492556
O      -1.09901863     -0.93120452     -1.05831708
C      -0.90454502      1.29213703      3.15012662
C       1.56021714      1.92212579      2.87827465
C      -4.67540129     -1.47532959     -0.05322896
C      -4.66123036     -0.74411224      1.14096342
C       2.45493430     -1.21621696     -3.63512414
C       3.80471075     -0.88109972     -3.45290683
C      -3.56209364     -1.54056709     -0.89985109
C      -3.46763516     -0.20106772      1.59075592
C       1.54381762     -1.02464251     -2.60939137
C       4.25106624     -0.30464971     -2.26555583
C      -2.35828861     -0.94705081     -0.45677697
C      -0.29535098     -0.20965679     -0.20674328
C      -2.33737337     -0.29790969      0.79634262
C       1.93225210     -0.33204435     -1.47106671
C       1.06429556      0.05965614     -0.35787226
C       3.28920409     -0.00223134     -1.28589283
C      -1.00903134      0.21983575      0.91059763
C       1.73906771      0.74727301      0.69467977
C      -0.36132396      0.87100785      1.94621258
C       1.03366134      1.20489144      1.82909765
S       0.29451760      2.15933922      4.14397555
S       3.49147896      0.92150926      0.25516770
H      -1.94591319      1.15111420      3.47239716
H       2.57880225      2.31006431      2.95357992
H      -5.61391093     -1.91301864     -0.39211041
H      -5.57518009     -0.72330613      1.68870364
H       2.10570164     -1.72206197     -4.52830977
H       4.52875135     -1.15670763     -4.20833645
H      -3.58931944     -2.06791199     -1.85825340
H      -3.44932852      0.25876600      2.54135880
H       0.49971551     -1.22774572     -2.74401747
H       5.30494027     -0.04314675     -2.16739792
