36
charge=0
F       2.09303120     -3.72727454      2.21064575
F       1.77388805     -3.55378286      0.09259371
F       1.96705944     -1.67372323      1.39044999
O       0.63828579     -0.95695607     -1.35385185
O      -2.12238907     -0.58103383     -0.97920558
O      -0.69916729      0.21762971      1.15331542
N      -0.21299662      1.81473280     -1.18415939
C       0.12482730      1.96831428      2.71488707
C       1.54954441     -3.00523947      1.28896711
C       1.61855085      0.06131580     -1.35648783
C      -1.98217396      0.19186024     -2.21408856
C       1.07374890      1.44867381     -1.77461817
C      -1.50121803      1.60197962     -1.96747150
C      -0.15338026      2.32179595      0.23262660
C       0.02025153     -2.93269420      1.57668391
C       0.20670933      1.33314731      1.31623366
C      -0.81036007     -2.64408365      0.36642197
Si     -0.65937073     -0.83482839     -0.22932639
H       0.07276999      1.24990294      3.54050039
H       0.86567092      2.71712298      2.91527980
H      -0.82510121      2.49430531      2.70204921
H       2.03282418      0.02437791     -0.34368934
H       2.39940525     -0.34309160     -2.01672835
H      -3.01148795      0.15321527     -2.59866729
H      -1.26590781     -0.27552632     -2.87470366
H       0.84978559      1.44389491     -2.92117326
H       1.83626487      2.26877280     -1.64437861
H      -1.46313934      2.24075090     -2.91293237
H      -2.21748141      2.11597557     -1.28390585
H       0.51287806      3.21753770      0.25974195
H      -1.14293501      2.72007879      0.41506931
H      -0.28208772     -3.85284169      1.99829428
H      -0.07157622     -2.10832602      2.29756255
H       1.25305809      0.92979191      1.06008680
H      -0.56954203     -3.27625924     -0.48300830
H      -1.89823960     -2.76951454      0.60698617
