13
charge=0
F       2.08346356     -1.01950195      0.55467990
F       1.68481445      1.09966144      0.56187090
F      -0.04124794      1.03731592     -2.05160104
F      -2.03752953      0.45445780     -1.27082462
F      -0.92493403      0.17572972      1.81777706
F      -1.81910016     -1.38989991      0.67365029
N      -0.00727559     -0.31596740     -0.25250791
C       1.45297543     -0.07194219     -0.13679564
C      -0.74993447      0.77973979     -0.92698296
C      -0.64671606     -0.84791682      0.97143971
H       1.82970753     -0.00487642     -1.15076636
H      -0.79290398      1.67226475     -0.30468699
H      -0.03131944     -1.56906476      1.51474779
