47
charge=0
N       5.68474539      0.54534667     -1.33996694
O       5.72424080     -2.28156752      0.71743842
O       2.16799645      0.09098663     -1.00784014
O       3.97879163     -3.81967879      2.20970254
O      -0.62458250     -4.15063105      2.92232464
N       4.87352884     -0.18812367     -0.79483450
C       4.52268632     -2.05186460      0.66414717
C       2.55723549     -0.77037943     -0.24967103
C       3.59483666     -2.92306877      1.43802518
C      -0.01752708     -3.38160809      2.18348152
C       4.04739749     -1.00028522     -0.16488258
C       1.60771360     -1.64262717      0.56374131
C       0.14937450     -1.32214667      0.72838096
C       2.12918991     -2.74234855      1.26903054
C      -0.64629984     -2.16189357      1.55078007
C      -0.46350656     -0.11803261      0.03722634
C      -0.50461099      1.02767187      0.81183703
N       1.31061677     -3.62050633      1.99674799
C      -2.10014581     -1.83532759      1.89578037
C      -1.02123982     -0.14480499     -1.38963168
C      -2.60220951      2.27808534      0.02320345
C       1.78863342      3.23308812      0.99146712
C       0.44245080      5.28596848      0.63131672
C      -0.27650413      3.14765427     -0.58097813
C      -1.10049098      2.38351998      0.49319220
C       0.91495306      3.98038989     -0.07064215
H      -0.12938748      0.97000905      1.84419438
H       1.72707655     -4.32395266      2.63549580
H      -2.16745596     -1.51361898      2.94947878
H      -2.76633138     -2.67857457      1.82000388
H      -2.51288598     -1.06427878      1.21947026
H      -1.96033279     -0.67279955     -1.40460868
H      -0.32535337     -0.64891229     -2.06169644
H      -1.19645373      0.84322478     -1.77808849
H      -3.02755944      1.35350212      0.53025107
H      -3.16530738      3.13632005      0.37128386
H      -2.67196298      2.18896796     -1.07183977
H       2.00268396      2.19616874      0.71957680
H       1.28897847      3.20881990      1.96353740
H       2.78044427      3.73455783      1.09066141
H       1.31195980      5.89335025      0.92297404
H      -0.12198101      5.86434829     -0.10693607
H      -0.12440549      5.11010312      1.52069511
H       0.18509536      2.40231892     -1.20956071
H      -0.92493415      3.83487847     -1.12292034
H      -1.04219436      2.94435040      1.41497584
H       1.57436208      4.27472887     -0.90499575
