12
charge=0
O       1.86471334     -0.37054327      0.39806202
N      -0.13875542     -0.04732559     -0.73498630
C       0.73971783      1.82771513      0.74792131
C       0.09999906      0.80670840      1.66667688
C       0.69622909      0.36963453      0.36837003
H       1.65644156     -1.29910945      0.62245989
H      -0.60630355     -0.91808651     -0.51985713
H       0.45098543     -0.11298082     -1.57166188
H       0.14934100      2.48741868      0.07994567
H       1.73880277      2.22465065      0.94485552
H       0.68078988      0.63330925      2.64304379
H      -0.98183462      0.74873546      1.70529682
