39
charge=0
O       0.54251974      3.57025631      2.43612905
O       2.48855341      1.92187535     -1.21770092
O      -1.04633197      4.18012101      0.50704409
O       1.26937951     -0.59985434     -2.15176070
O      -1.57529205     -2.03989981      1.60348793
C       0.90425453     -0.10819993      1.78978998
C       0.71482774      1.22238229      1.53845053
N       0.74651626      1.72301401      0.19801484
N       1.14981684     -1.24907428      0.91572860
C       0.40503718      2.16071165      2.71344878
C       1.86018752      2.61461185     -0.19601593
C      -1.09798167      3.40105804     -0.69919392
C       1.65653189     -1.70991297     -1.35399719
C      -0.48769794     -2.53911910      2.31762718
C      -0.56354827      1.99177580     -0.47657344
C       2.23579688     -1.18711962     -0.05968658
C       0.85832959     -2.53796343      1.60772950
H       0.17880752      3.70394827      1.47325202
H       2.14749377      1.00266533     -1.34583566
H      -1.46716907      5.05461141      0.27790807
H       0.31849283     -0.53849120     -2.20371396
H      -1.46305216     -1.10505364      1.45896881
H       0.70942267     -0.30777619      2.81009018
H      -0.62577375      1.85752845      3.02123551
H       1.13108237      1.83024462      3.41362137
H       2.55253228      2.89713390      0.56446670
H       1.52549660      3.53303541     -0.76151068
H      -0.45542542      3.90439501     -1.41560213
H      -2.16055268      3.34447576     -1.13520206
H       2.37508480     -2.38858225     -1.82912414
H       0.74267944     -2.28055693     -1.07242038
H      -0.34925189     -2.07233070      3.26899639
H      -0.67543275     -3.52815482      2.54086700
H      -1.33547998      1.53602588      0.26122867
H      -0.61642690      1.42722830     -1.48313786
H       2.52691636     -0.12636791     -0.06054304
H       3.08770085     -1.82180187      0.17913106
H       0.81456221     -3.25881961      0.83305204
H       1.61530473     -2.84010903      2.36966144
