42
charge=0
O      -1.71253936      4.63355869     -1.32061010
O       0.73710424      4.01506375     -1.85518884
O       5.63976127     -0.89701558      1.48164191
O       3.69058178     -2.57587167      2.87831200
O      -3.25487088      3.07788995      0.00022312
O       1.85009881      1.38686045     -0.79329358
O      -2.81308989     -0.71572421      0.14893686
O      -0.10280875     -1.41044549     -0.60173534
C      -4.18520826      2.40653109      0.66290457
C      -3.90483759      1.16659196      1.21159702
C      -1.25197597      3.42982533     -0.85888623
C       0.08118634      3.04556277     -1.08783127
C       4.23686554     -0.71832044      1.24957024
C       3.33893784     -1.60008638      1.96593972
C      -2.02743098      2.65062256     -0.07871292
C       2.38818862      0.41496472      0.12962438
C       0.57407201      1.76020526     -0.65597195
C       3.81941107      0.32226862      0.34822664
C       1.93177986     -1.42776993      1.66050460
C      -1.64801735      1.42046291      0.37648687
C       1.49425041     -0.50561735      0.77245107
C      -0.33225243      0.93379874      0.12460032
C       4.70781527      1.39396383     -0.26834194
C       1.00477974     -2.34880802      2.52237540
C      -2.64241347      0.45957851      0.97541380
C       0.11079218     -0.50277244      0.43392307
H      -2.58823111      4.87671276     -1.07362678
H       0.41905631      4.96410722     -1.75383137
H       5.83386111     -1.28777561      2.41442073
H       3.91896361     -3.41948403      2.36747095
H      -2.13239426     -0.65974248     -0.55740495
H       0.73222131     -1.58851913     -1.12496902
H      -5.18069988      2.79031775      0.61503390
H      -4.74839217      0.59077880      1.54473144
H       4.15196235      2.21271134     -0.44844042
H       5.11341219      1.05389011     -1.24779458
H       5.47649935      1.57472872      0.42771474
H       0.30555848     -2.93571435      1.97639166
H       1.50717406     -3.06531376      3.12935596
H       0.42349472     -1.88962551      3.26254099
H      -2.33428988      0.10068929      1.99186399
H      -0.40293460     -0.90763640      1.27982628
