36
charge=0
N      -0.13147941      2.71716966      1.11420759
O      -1.24054889      3.23465257     -2.26096264
C      -0.13593874      2.21068259     -0.15900741
C       0.01101573     -1.28960147     -3.73064695
C      -0.06260989     -0.32642840     -4.72365209
C       0.08674949     -0.90022265     -2.43635741
C      -0.03601048      1.02414460     -4.32383255
C       1.81641005     -1.75805514      5.22940336
C       1.96517087     -2.22338167      3.97511617
C       0.10684433      0.44192298     -1.96121305
C       0.20012971      0.81647968     -0.51076399
C      -0.00857774      1.42253001     -2.95686628
C       0.33272261      2.50970711      3.37728994
C       1.28017475     -0.41873821      5.44771894
C       0.66059372      1.68058210      4.43766831
C       0.37013402      0.04440882      0.64239640
C       1.51797548     -1.48420573      2.83242882
C       0.25713160      1.94210185      2.09865882
C       0.90291736      0.33087435      4.30833840
C       0.58997468      0.62730231      1.93631223
C       0.98811319     -0.21991108      2.99120404
C      -0.27517365      3.33139087     -1.13911888
C       0.06377577      2.91060108     -2.60019414
H       0.28639801     -2.32380602     -3.94908238
H      -0.33311830     -0.56583522     -5.76894231
H       0.07533070     -1.66168349     -1.70278360
H       0.06820014      1.79724700     -5.06692417
H       1.94401515     -2.35909557      6.06372993
H       2.45566581     -3.20055151      3.93718673
H       0.41250376      3.59594162      3.52879726
H       1.27061329     -0.02759180      6.45180042
H       0.80929845      2.15079351      5.40757807
H       0.49954178     -1.05528008      0.68901052
H       1.71204643     -1.83193209      1.82855817
H      -0.00630323      4.28472018     -0.75815650
H       0.59669288      3.62344725     -3.19851973
