21
charge=0
O       0.16663619      3.23486226     -0.44027709
O      -0.71022401      2.81126251      1.94183539
Cl     -4.36060732     -0.71930977     -1.88303423
Cl     -1.29162505     -1.12666241     -2.38068302
Cl     -3.63484329      1.32042173      0.60997769
C      -2.56765072     -0.28096907     -1.48341227
C      -2.33935947      0.54714465     -0.41033504
C      -0.18127791     -0.41728226      0.40295416
C      -0.97133707      0.72249817      0.20965930
C       3.37457082     -0.39903747      1.46363858
C       3.56604692      0.95762223      1.75569900
C       2.17722194     -0.86713324      1.01387162
C       2.50993547      1.87358266      1.57972311
C       1.13105866     -0.02653966      0.86686066
C       1.26158992      1.37419632      1.14648859
S      -0.18785563      2.30700983      0.62371599
H      -0.45531866     -1.37245877      0.26222431
H       4.30213054     -1.02673383      1.52923539
H       4.60761903      1.23083110      2.02945342
H       2.09387525     -1.96741132      0.77057896
H       2.62213587      2.93682739      1.50454654
