11
charge=0
O      -1.38800641      1.87556043     -0.85545705
N       0.96422795     -0.47417557     -1.62811295
N      -0.07021598      0.31216306     -1.77053255
N       1.77385260     -0.04334555      1.90828794
N       1.67520542     -0.64194674     -0.43868213
N      -0.07945249      1.27306040      1.82600684
C      -0.49812790      1.03898969     -0.69738836
C       0.94524771      0.74032784      2.59310237
C       1.29818427      0.00359341      0.62994662
C       0.10884174      0.81548549      0.60175641
H       1.09119232      0.92123706      3.65202227
