19
charge=0
O       1.16153662     -2.96740743      2.10557649
Br      3.77787682      0.81093103      1.25450723
N      -1.20211731      2.32845321     -0.66433894
N       1.11234349      2.37853518     -0.13435897
O       3.26134191     -2.08286427      2.48010410
O       0.05513220      4.15049226     -1.16545697
O      -2.42495178      0.50549531     -0.20435087
C       1.96443810     -2.06239502      2.00244311
C       1.98870203      0.31757712      1.01813697
C       1.41171105     -0.87795043      1.36438719
C      -0.00716791      2.92874017     -0.58713816
C      -1.21053559      1.12461626     -0.19166574
C       0.99994097      1.17116281      0.38247264
C      -0.13538358      0.44399768      0.36812436
N       0.10885139     -0.78330107      0.93973257
H       3.57311144     -1.17999050      2.31153439
H      -0.86447928      4.34434457     -1.45822241
H      -2.96854039      1.07688475     -0.73016355
H      -0.54744323     -1.57295369      0.96304363
