47
charge=0
O       0.62257047     -1.14810086      2.83824329
O       3.01488735     -1.51220277     -2.65513803
N       1.06324713     -0.90372545      0.15472074
N       2.95528215      1.43233409      0.02749994
O       0.52050367      0.15578922      0.92953062
O       3.33047036      2.80918885     -0.14337692
S      -0.00308959      2.49931383      2.34340258
S      -1.94883468      3.08293734      2.64888324
C       0.41516905     -0.06034610      2.26466485
C       2.60508786     -1.72350379     -1.53958098
C       1.96817891     -0.62720573     -0.76399860
C       2.36959407      0.79144292     -0.99295518
N       0.02014878      0.99639717      3.04268872
N       2.84165052     -3.02452238     -1.07526466
C       4.00904767      3.31188590      1.00412583
C       1.98009513      1.55031654     -2.25026354
C      -0.28164169      0.85373981      4.48216896
C       2.69388604     -3.42977032      0.29844750
C       3.39472679     -4.02029786     -2.01046207
C      -2.18527080      2.72208735     -0.06609790
C      -3.18756805      0.95033982      1.39512569
C      -4.28182342      3.10367216      1.15598268
C      -2.90552190      2.43497918      1.22354870
H       3.27929024      3.59550509      1.80522332
H       4.61203130      4.19213072      0.72420431
H       4.71176375      2.55397562      1.37254456
H       1.32216622      2.40963880     -1.99103609
H       2.84668781      1.91687919     -2.81314869
H       1.38631605      0.90297849     -2.89441881
H       0.45776012      0.22992925      4.97928798
H      -0.34651391      1.81875572      4.99157753
H      -1.29565541      0.37438791      4.61028920
H       1.65493514     -3.25653273      0.67033162
H       3.31427195     -2.75565171      0.96467249
H       3.04333822     -4.45013752      0.43600597
H       3.91245523     -4.88322796     -1.55160520
H       4.08611446     -3.54056069     -2.71811868
H       2.53749586     -4.38760577     -2.63583645
H      -1.99549933      3.80816340     -0.17993954
H      -2.72738807      2.32454737     -0.95866726
H      -1.19458572      2.20158075     -0.06204770
H      -3.60207025      0.78739685      2.38910231
H      -2.31383439      0.30917338      1.29029539
H      -3.94294594      0.61521350      0.62599896
H      -4.88282423      2.90910021      2.08690649
H      -4.87758381      2.74802701      0.33286537
H      -4.12519176      4.20291183      1.08494523
