21
charge=0
C       0.39725074     -1.05605789      2.61926737
C       0.92383519      1.87659095      2.76941563
C      -0.66319153      0.03529703     -1.94173496
C       0.55788129     -0.25913284      1.49729706
C       0.88865376      1.23298349      1.57339313
C       0.13445569      0.22355320     -0.88167200
C       0.29586350     -0.96874960      0.12472417
C       1.12596181      2.11438601      0.36099726
C       1.10765467      1.28203936     -0.94724990
H       0.39981806     -0.61081063      3.58045150
H       0.28631241     -2.16055116      2.44239267
H       0.63607815      1.43115621      3.75351246
H       1.07874658      2.90310961      2.99335138
H      -0.72998976      0.70213471     -2.85449141
H      -1.33056205     -0.81379935     -1.93191309
H      -0.66987800     -1.50914187      0.12345152
H       1.19603373     -1.65581250     -0.09112422
H       2.06625443      2.63623690      0.47705082
H       0.34819769      2.91978493      0.38643759
H       2.07599265      0.83018411     -1.16887543
H       0.98735216      1.95932082     -1.77196100
