14
charge=0
N      -0.74012395     -1.41353907      3.22586766
N       3.22939197      0.55798285     -1.56236322
C      -1.09983921     -1.23185078      2.16642216
C       2.11666367      0.89627202     -1.43483937
C      -1.73009721     -0.86958905      0.92099084
C      -1.12488764     -0.27672984     -0.18784385
C       0.80186950      1.28372342     -0.86411353
C       0.36617418      0.00159540     -0.17443597
H      -2.80407712     -1.24015273      0.79897406
H      -1.50107748     -0.37987193     -1.14396275
H       0.79905620      2.21327302     -0.31510733
H       0.09218518      1.41215516     -1.65445331
H       0.82160011     -0.95464232     -0.61347500
H       0.77316195      0.00137382      0.83833965
