31
charge=0
F      -1.47302530     -2.28709332      5.07912187
F      -2.51999365     -2.19493182      3.16964167
F      -2.18560237     -0.35472152      4.38955881
F       2.25577698     -2.10348151      3.03437768
F       3.94244380     -0.63169944      2.97175434
F       2.11140408     -0.10355852      4.10247285
Cl      4.53252926      2.53335611     -3.62728067
N      -0.40278169     -1.29655939      3.32874997
N      -1.48520559      1.33664411     -0.87090755
N       2.07710556     -0.16479537      1.75430651
S      -1.87550681      0.19344239      1.57123822
C      -0.39992003     -0.45412585      2.30212823
C      -0.95347819      0.81996305      0.20113673
C       0.80377315     -0.01502661      1.51778371
C       3.47035302      2.36840332     -1.11676989
C       2.13684816      1.40959727     -2.88118252
C       2.52557143      1.91542374     -0.19730059
C       1.20106635      0.93832563     -1.94949314
C       3.28683192      2.09639819     -2.49100784
C       1.37365974      1.20484880     -0.59213849
N       0.43601357      0.68230178      0.33000330
C      -2.92914819      1.51024531     -1.04613767
C      -1.68037822     -1.52775812      3.98181733
C       2.59470417     -0.76429982      2.99562261
H       4.40417334      2.83877849     -0.75980126
H       1.98215908      1.19202267     -3.92324163
H       2.75868675      2.16476333      0.84744742
H       0.36273125      0.39565674     -2.36143846
H      -3.11155928      2.15814417     -1.89490743
H      -3.43965868      0.56065548     -1.29670170
H      -3.39508031      1.98357440     -0.16435918
