27
charge=0
O      -2.49479155      3.09252315      1.33413531
Cl     -3.01300194      0.92456102     -0.94338399
Br      2.39199554     -3.76921176      0.00713010
Br      0.76472115     -1.87977828      3.30532857
N      -1.73423973      2.11198104      1.41856526
C       1.12203894      1.02984142     -0.82453479
C       0.24342846     -1.89255041     -0.86342618
C      -1.24598978      1.59541421     -0.91402347
C       0.85045843     -2.52816868      0.41241267
C       0.94591563     -1.36608626      1.37866549
C      -0.63592170      2.13884385      0.39471235
C      -0.24729523      0.45912227     -1.25366785
C       0.54662813      1.10089206      0.64521576
C      -0.60206760     -0.75155829     -0.48155717
C      -0.02717628     -0.30349353      0.89443152
H       1.31884529      2.11417354     -1.23454189
H       1.96264844      0.37346574     -1.00421389
H      -0.22858657     -2.59287502     -1.56792700
H       1.06929639     -1.60558758     -1.52672255
H      -1.16379587      2.41164029     -1.62789935
H       0.11409648     -3.25882264      0.87653044
H       1.84132638     -0.95628178      1.20032967
H      -0.26006861      3.14045526      0.19876737
H      -0.22814213      0.19991272     -2.36286616
H       1.26501595      1.49221195      1.41456858
H      -1.73470011     -1.00729038     -0.47149474
H      -0.82063816     -0.27333397      1.59546543
