16
charge=1
O       1.06238188      2.01491724      0.92142290
F       0.95763813      3.87633021     -0.85375469
F       0.06539570      2.42316250     -2.32253477
F      -1.12771350      3.28060767     -0.68045711
O      -0.18627254      0.45657489     -0.23149147
C       0.41996135      1.64957083     -0.09860435
S       0.09809411     -0.85047508      0.85977425
C       0.10592012      2.86315042     -1.04715999
C      -1.45535643     -1.73405149      1.16807011
C       1.12148142     -1.90706690     -0.19831795
H      -2.09917572     -1.71291811      0.23120033
H      -1.31879520     -2.78515479      1.40167066
H      -1.89932992     -1.20981985      1.96979812
H       2.12382004     -1.35811739     -0.32441984
H       0.66516003     -2.25080252     -1.08770321
H       1.46679045     -2.75590732      0.29250677
