13
charge=0
N       1.72381655     -1.12857117     -1.90577598
O       1.78711350      2.45688659      0.12356891
O       1.07958823      1.76509721      2.39026581
O      -1.82127979     -0.14490734     -0.38197132
O      -1.18380613     -0.66778762      1.89871032
N       1.29747699     -0.65416715     -0.83811223
O       2.94820299      0.54233156      1.30165446
O      -1.13603021      1.75433225      0.91243889
C       0.81383177     -0.07122449      0.20639612
S       1.58813735      1.31602751      1.02766948
S      -0.90010866      0.10350456      0.69375763
H       2.62760566     -0.34628331      1.04413385
H      -1.94524476      1.95406539      0.40656811
