50
charge=0
Cl     -3.80164013     -3.47469943     -1.65130826
C      -3.82630097     -2.03467958     -0.63774574
C      -3.60880573     -0.95623561     -0.11442605
N       6.67905054     -1.83277361      1.12233922
O       6.55118768     -0.84839284      0.02512702
O      -4.27701751      0.53374895      1.63319490
C       5.57050540     -1.77892206      1.81997045
C       2.35910390      1.69544656     -1.52061575
C       4.44249743      0.50414089     -0.75733302
C       4.63953239     -0.75582799      1.30621825
C       3.32281210     -0.41943572      1.66702055
C       3.21427581      1.01380065     -0.52091847
C       0.98797757      1.86228541     -1.44560559
C       5.38909278      0.06009745      0.29754778
C      -3.56826440      1.46481229     -0.61815032
C       2.71185607      1.95225062      1.76423171
C      -1.76144168      1.71756820      2.02943941
C      -1.06589446     -0.59783853      1.59493705
C       0.38528330     -0.39635929      1.81582464
C      -2.15240944      1.95285634     -0.87817715
C      -3.30740702      0.35393750      0.49968914
C       2.62319415      0.72522347      0.90307929
C      -1.84526969      0.59320755      0.96960223
C       1.07852995      0.40132779      0.61621696
C      -1.15769576      1.02138479     -0.28210703
C       0.30496241      1.46941633     -0.07345883
H      -5.15781847      0.22983020      1.43683405
H       5.42708328     -2.59029897      2.46986626
H       2.90649691      1.97967185     -2.42843648
H       4.81035567      0.71063052     -1.71554639
H       2.74396675     -0.94999501      2.33789494
H       0.41341683      2.28400302     -2.27284997
H       6.00662735      0.92519979      0.74805776
H      -3.94752828      0.94524601     -1.49619311
H      -4.01120712      2.34684614     -0.21466420
H       3.74209270      1.98677245      2.17332115
H       2.41869472      2.82748969      1.14650323
H       1.99700121      1.99854207      2.57286514
H      -2.23162912      1.18631746      2.90869370
H      -0.83976481      2.20745502      2.22008521
H      -2.43390601      2.44536640      1.74045188
H      -1.11628983     -1.47549891      0.86851110
H      -1.56941601     -0.86065829      2.44788769
H       0.36720783      0.12266549      2.78247857
H       0.72985192     -1.43081720      1.97790767
H      -2.03793617      2.93465582     -0.34408866
H      -1.94790308      2.22399055     -1.96622322
H       1.10199740     -0.38146411     -0.09234194
H      -1.11315423      0.15387155     -0.90676232
H       0.31290489      2.41269933      0.50001644
