50
charge=0
C       1.82395173      5.80469110      2.30508328
O       2.18213660      0.15929188     -1.69620419
C       2.09931312      6.96786094      1.71179133
C       1.60654556      4.67496829      2.88837876
C       3.57329034     -3.33653237      1.80163416
C       2.51036014     -3.96551319      1.29571673
C       1.48727231     -3.34404806      0.46778455
C       1.62488916     -2.10504432     -0.02545665
N       0.43895288      0.65290007      0.42340120
C       0.45510130      3.77514609      2.47689697
C      -0.79958912      0.73084163     -2.33212589
C       0.22113615     -0.19894568     -2.99157295
C      -1.42959844      0.12319155     -1.09665605
C      -1.10747097     -1.14747508      1.07152738
C      -1.87242244     -0.14918838      1.93366200
C       1.22719551     -0.85867307     -2.10997816
C      -0.38720272     -0.44408026     -0.13995854
C       0.98724177      2.58720387      1.70107115
C      -0.94540012      0.99509691      2.41441215
C       0.54447839     -1.43306661     -0.87897894
C      -0.18556051      1.68461423      1.24517185
H       1.64503050      0.76815286     -1.15318080
H       2.29578487      7.01859266      0.64240555
H       2.25648351      7.87933176      2.28971984
H       2.22991074      4.34725243      3.71165750
H       4.31875413     -3.83644873      2.42987149
H       3.76764428     -2.29697588      1.56268027
H       2.34539726     -5.00085474      1.56450602
H       0.57685087     -3.92677024      0.26759889
H       2.53432557     -1.55165024      0.17348703
H       1.19387491      0.23642560      0.97644627
H      -0.25942633      4.30126000      1.84683162
H      -0.00672058      3.45330905      3.39186233
H      -0.29650925      1.65516274     -2.05217459
H      -1.58438796      0.99479348     -3.06171905
H       0.76918862      0.35669851     -3.75311050
H      -0.35046135     -0.97804662     -3.51401367
H      -2.05588677      0.87692426     -0.59260726
H      -2.09896843     -0.68975256     -1.38923691
H      -0.35957477     -1.61692357      1.71510847
H      -1.78739876     -1.93451828      0.74549874
H      -2.29482046     -0.69588970      2.81127387
H      -2.66939677      0.27154415      1.30690182
H       1.77710124     -1.60507396     -2.65857075
H       1.63523147      2.02368626      2.37970574
H       1.59920751      2.93209668      0.84785481
H      -1.55140586      1.72569112      2.94412355
H      -0.23450098      0.54015482      3.12608625
H      -0.09160057     -2.26329141     -1.20209876
H      -0.89948628      2.30074066      0.63635180
