20
charge=0
N       0.84895958      4.82335427      1.70413067
C       1.18063104      3.73191391      1.49941525
N       1.57857021      2.45329970      1.43340436
O       0.12158080      2.11385661     -0.40377073
O       0.95099897     -2.21964641      0.30594196
C       0.93515338      1.62037231      0.60776606
C       1.27169200      0.17798593      0.73780175
C       0.64428150     -0.88762463      0.13731795
N      -0.39673804     -0.64170249     -0.67846035
C      -1.16548914      2.64492593     -0.05257336
C       1.86695997     -2.58255214      1.33670934
H       2.08354821      0.07320481      1.44030247
H      -0.37311014      0.29874910     -1.07952452
H      -0.70228182     -1.40281612     -1.29981774
H      -1.79009340      2.72116558     -0.93488238
H      -1.08221601      3.69292594      0.31736374
H      -1.67278329      1.99861524      0.67911162
H       1.47275253     -2.23570200      2.27958015
H       2.86217894     -2.12891588      1.15703655
H       1.94894911     -3.66786565      1.39669128
