49
charge=0
C      -1.21705381      2.61870694      2.59046727
C      -1.25928424      3.30405556      3.60086309
O       1.54714284     -1.32856674     -1.42755014
O      -0.43224519     -0.82014094     -2.51379462
O      -0.42568748     -2.66484699     -1.10215019
C       0.12579929      0.81188825      1.76721376
C      -1.81601339      1.36736558      0.47509282
C       0.46621063     -0.15511121      0.84693393
C      -1.49860539      0.34097899     -0.43275642
C      -1.00093541      1.62657953      1.57252978
C      -0.35754366     -0.42300977     -0.21078066
C       0.12346725     -1.32026100     -1.31918102
C       2.23598159     -3.14707770     -5.38946270
C      -0.09907696     -4.23580323     -5.18277404
C       1.98578773     -2.26518541     -2.43284673
C       0.01077646     -1.57266717     -3.66143523
C      -0.04528600     -3.53534677     -2.20915750
C       1.17571273     -3.76521836     -4.45273905
C       0.79392996     -2.80567968     -3.23556702
C       0.41800692      3.37664195      6.17378173
C      -0.17845192      5.86633010      4.86320698
C      -2.51687761      4.28903202      6.17925379
Si     -0.96186360      4.16928666      5.16764577
H       0.69465391      0.85881009      2.71060249
H      -2.69625745      1.96295401      0.34482641
H       1.38983216     -0.73430053      0.88781539
H      -2.14242191      0.10887093     -1.25205381
H       1.93005530     -2.18025320     -5.79503943
H       2.44917181     -3.84036794     -6.19349688
H       3.15041125     -3.01431128     -4.79800052
H       0.17416112     -4.95133118     -5.96766940
H      -0.65803287     -3.48871896     -5.73198788
H      -0.70782018     -4.73587856     -4.45883740
H       2.51376056     -3.05818136     -1.90992456
H       2.67932576     -1.74074988     -3.06023837
H      -0.92340578     -1.85131845     -4.16253352
H       0.61162289     -0.95331184     -4.36144405
H      -0.97795313     -3.90669778     -2.64887971
H       0.51173181     -4.37871008     -1.79026335
H       1.57134634     -4.68468103     -3.99040947
H       0.00858368      2.43430798      6.53805535
H       1.22966786      3.16194203      5.48268147
H       0.80070524      3.91828206      7.00882290
H       0.43208556      5.85964534      3.97080458
H      -1.04471509      6.49927202      4.71858023
H       0.47397105      6.05553169      5.73254502
H      -3.12243653      3.41926602      5.92420078
H      -2.43547854      4.28035737      7.25778967
H      -2.98645491      5.22762241      5.87726059
