44
charge=0
O       1.96764157     -2.03470733     -2.77846902
O      -2.74759325      3.52710512      0.91912050
O      -2.48080533      4.63311711      3.08768041
O       1.94030222     -1.37139367      2.78661150
O       1.53415068      2.41685800     -1.18884342
O       0.74325312     -3.30360868     -1.35958204
C       1.28928013     -2.21180446     -1.75378179
C       1.29615074      0.72759274      2.01482463
C      -0.48190902      1.94427203      3.23286556
C       1.21763657      1.72487483      0.95897258
C       1.81382996     -0.49689577      1.80316909
C       1.82501543      1.52601224     -0.27021550
C      -0.51643356      2.98600652      2.28522935
C      -1.63615349      1.42714048      3.97315379
C       0.87278729      1.19634157      3.29670086
C       0.32566724     -4.36235699     -3.51284689
C       0.98303326     -4.52189753     -2.11816050
C       0.74266455      3.17118367      1.40278546
C       0.27361951      4.30909993      0.47703382
C       1.25862982     -0.95792433     -0.72035297
C       2.27546438     -0.91831941      0.45475570
C       2.27142506      0.13942047     -0.64475582
C      -0.63359363      5.24603806      1.27765623
S      -1.84908053      4.12243806      1.83747026
H       2.16758793     -2.25266801      2.45985451
H       1.74507812      2.13863089     -2.04657296
H      -1.92501044      0.44715069      3.63605751
H      -2.56015774      2.04927922      3.96633529
H      -1.18937546      1.25083505      4.93103112
H       1.59887809      1.90380817      3.55377327
H       0.91275361      0.39370804      3.99654616
H      -0.21843198     -5.22096591     -3.69224313
H      -0.45094153     -3.51225668     -3.57110364
H       1.02895492     -4.33375624     -4.31720027
H       1.95674716     -4.91624501     -2.24181221
H       0.33256891     -5.30792989     -1.64406874
H       1.54301634      3.54698934      2.05732152
H      -0.26425562      3.86868659     -0.39918218
H       1.07735586      4.81265239     -0.01625541
H       0.24434270     -0.68815038     -0.49229668
H       3.23372803     -1.58502081      0.28531113
H       3.06686913      0.13412867     -1.47228622
H      -0.14602629      5.65207050      2.18863514
H      -1.15486662      5.98425666      0.64093130
