14
charge=0
F       2.84535904      0.85076898     -1.13922132
F       3.54682356     -1.33158361     -1.56165720
F      -1.89979863      1.21222457     -1.22741063
F      -2.87829307      2.52562518      0.41812612
F       1.17988074     -2.27331300     -0.45341926
F      -1.72407318      1.00895633      2.31041429
F      -0.24633860     -1.09610395      1.77041522
F      -1.30167704     -1.29842109     -0.18530735
O       0.57694688      0.03724968     -0.03393732
C       2.60143889     -0.49250148     -1.06940426
C      -2.07059037      1.49191344      0.06602572
C       1.43784009     -0.93095427     -0.50763344
C      -1.46259556      0.72040123      1.01168101
C      -0.60492292     -0.42426196      0.60132821
