26
charge=0
O      -0.17231812     -4.10744453      1.19495968
O       1.47510035     -3.87382027     -0.74415400
Cl      1.83679401      3.66304536      2.09528061
N       0.79721916     -1.67703621      0.56999591
N      -0.79432031      1.44302525     -0.01060157
S      -2.25157415     -2.28278653     -2.99644521
C      -0.11019111     -0.88077289      0.16822599
C      -0.26831879      2.59780431      0.29115058
C      -1.83218455     -0.94807963     -1.91735445
C      -1.53488143     -3.53179571     -2.04498126
C       0.85837867      2.46590163      1.21334997
C      -1.02292376     -1.44971228     -0.90988076
C       1.06348419      1.11249388      1.26502983
C      -0.87591557     -2.88737145     -1.01797295
N      -0.06028743      0.49374472      0.65526719
C      -0.65803640      3.78927311     -0.42026138
C       2.07742489      0.50808644      2.08076941
S       0.40342195     -3.28062558      0.13119128
H      -2.11439660      0.07074110     -2.11984683
H      -1.55587553     -4.58957128     -2.30926240
H       0.01096663      4.11433141     -1.16423077
H      -1.53064883      3.59205471     -1.03014352
H      -0.99300968      4.61454956      0.09489317
H       2.81952106     -0.17704681      1.49925376
H       2.82221495      1.27072595      2.46252543
H       1.61035664     -0.04971413      2.96324219
