48
charge=1
S       1.82182332     -2.62757008      1.02948563
S       0.27611523      1.63383052      3.76587342
C       0.04274954     -0.77620992     -4.21126223
C       0.14057993      5.51657865      0.78789608
C       0.74529561     -1.77969496     -3.56581629
C      -0.86033890      4.75022309      0.24800381
C      -0.27437982      2.21058216      2.17794184
C       0.93539404     -0.37949192     -0.27964960
C       1.54662556     -1.59724904     -0.38777677
C       0.08744892      1.55765446      0.94243422
C       0.56362233      0.27332936      0.94820201
C       3.37080250     -6.07313886     -0.60608144
C      -1.26843554      4.64583613      6.11719844
C       3.49332779     -5.63864395     -1.96170901
C      -1.99829529      5.34978864      5.15580386
C       2.89196338     -5.16807726      0.36844267
C      -0.62472614      3.40899008      5.82733784
C       3.04985039     -4.32459964     -2.28719375
C      -1.97022027      4.91334269      3.82358362
C       2.49139441     -3.88496448     -0.00732026
C      -0.61839401      2.98066037      4.49265787
C       2.54976496     -3.46158274     -1.33096388
C      -1.26691638      3.74120828      3.52284804
N       2.03947286     -2.17649270     -1.61251281
N      -1.04441614      3.24736074      2.23472144
C       2.07315140     -1.54371051     -2.92490372
C      -1.74977275      3.81168342      1.05239934
H       0.44274795      0.24176585     -4.37409242
H      -0.92867156     -0.93655319     -4.62531301
H       0.39551322      5.49907241      1.81334183
H       0.71110042      6.20370318      0.21361625
H       0.26196578     -2.76166905     -3.49859521
H      -1.00433942      4.86769646     -0.79378543
H       0.78317496      0.15483935     -1.23373973
H      -0.14927409      2.06196089      0.02096286
H       0.72744941     -0.29457768      1.88466051
H       3.63761086     -7.07394811     -0.28531763
H      -1.27014711      5.05474969      7.13055108
H       3.91381226     -6.23964324     -2.76449390
H      -2.48159033      6.30866848      5.36017459
H       2.84211607     -5.38431413      1.43977156
H      -0.09640387      2.80708138      6.57468529
H       3.13659282     -4.06675055     -3.33312009
H      -2.43974874      5.48276020      3.03638220
H       2.31707760     -0.50142369     -2.81698589
H       2.90281262     -1.97588107     -3.48820875
H      -2.07451122      3.01815858      0.42829595
H      -2.67026807      4.32516638      1.39207589
