29
charge=0
O      -1.57205199      0.57683655     -0.36126438
Br      0.91337687      1.25158258     -4.29587525
Br      2.93678727      2.13707829      2.77881901
O       0.13691624     -1.29623741     -0.30559775
N       0.70691790      1.28686759     -1.15510407
N       0.20563231      0.68604455      1.50446680
C       2.37099097      1.47806941     -2.88416836
C       1.01658109      2.54159195      3.05940365
C      -0.60406840     -2.07124277      0.65558834
C       2.00781928      0.79464235     -1.55673673
C       0.16518240      2.14553820      1.81062775
C      -0.52830705     -0.16233139      2.43663346
C      -0.25138888     -1.63387960      2.07861968
P      -0.16972247      0.28186476     -0.09651600
H       0.09918558      1.37811023     -1.94469594
H       3.33877004      1.09134738     -3.23918697
H       2.58693035      2.54064218     -2.66607483
H       0.93170427      3.62022448      3.26747205
H       0.61381836      1.97827557      3.94083216
H      -1.69174284     -1.99314407      0.53148484
H      -0.41965531     -3.12320009      0.54161469
H       2.78881738      0.94499115     -0.82750107
H       1.90331272     -0.27286466     -1.74731277
H       0.54861083      2.69305183      0.96162168
H      -0.87390562      2.47878870      1.99312552
H      -0.16817484     -0.02583811      3.47199722
H      -1.61456465      0.09430220      2.40574608
H      -0.86333931     -2.28049057      2.75152786
H       0.83170705     -1.79448220      2.23659147
