16
charge=0
O       0.72107464     -0.18643406     -1.93591973
O      -0.07640473      2.15783936     -2.18771262
S       2.04133330      1.74893614     -0.16906116
C       2.18338866      0.34068364      1.00346163
C       0.96714452      0.41032387      1.94156464
C      -0.28865657     -0.08184931      1.19088907
C      -0.79210945      0.84820631      0.05089822
S       0.38295154      1.09222435     -1.29091549
H       3.11064685      0.41170949      1.58869034
H       2.26577132     -0.55454774      0.36176892
H       0.79654260      1.45082304      2.26621113
H       1.10141212     -0.19786164      2.86590209
H      -0.08823368     -1.08158632      0.76706581
H      -1.11090180     -0.19212894      1.92947153
H      -1.71914628      0.44876621     -0.37619934
H      -1.02797745      1.85173102      0.46072063
