16
charge=0
O      -1.40109055      1.18183782      1.68698009
N       0.82320374     -1.18885402      2.07946108
N       1.86563586     -1.20311553     -0.04446695
N       1.38050864      0.69802524     -1.36942751
C       0.02351889     -0.32635674      2.62694631
C       1.93479598     -0.51385054     -1.21659053
C       1.13261579     -0.64126059      0.87627079
C       0.70370503      1.22932292     -0.40707057
C       0.54427508      0.59210972      0.78546165
N       0.12319898      2.40363533     -0.68296958
N      -0.22398076      0.93731782      1.92806441
H      -0.46179793     -0.57247948      3.57025732
H       2.49950005     -0.89413711     -2.04849863
H      -0.70421657      2.52584446     -0.10762797
H       0.00901934      2.53285574     -1.64785573
H       0.21794399      1.70594052      2.43790143
