25
charge=0
N       0.05775264      2.47407817      2.45624415
N       0.97084054     -0.85829994     -0.97951279
N      -1.24947663      0.78649236      1.40433314
N       1.09962763      2.04528733      1.85816748
C      -1.10184815      1.86192331      2.23578628
C       2.15052452     -0.24979046     -0.74045703
C      -0.20022331     -0.52467631     -0.33522353
C       2.19591566      0.85434086      0.09949656
C      -0.19193850      0.52008871      0.57069291
C       1.03205840      1.22963758      0.82042248
N       3.39417595      1.45583800      0.37341190
C      -2.25063194      2.19792951      3.21650364
C       3.34129437     -0.82054782     -1.54627899
C      -1.46209582     -1.32483791     -0.48998438
H       3.16103944      2.33714123      0.86706000
H       3.90753047      1.55460971     -0.53221377
H      -3.18287696      2.16040077      2.71643916
H      -2.08068993      3.21986999      3.70063668
H      -2.16450949      1.44215281      4.00389103
H       3.71865869     -1.68550256     -0.96413742
H       4.18291457     -0.14961311     -1.44016091
H       3.08373925     -0.91668677     -2.57601701
H      -1.64977067     -1.66674614      0.53998034
H      -2.31220609     -0.63307578     -0.77218783
H      -1.22037424     -2.08058382     -1.25746190
