46
charge=0
O       1.21489941     -0.10629443      3.09256681
O       5.36936450      1.44542341      2.17791131
O       7.06115390      0.12881487      2.48813732
Br     -6.73287888      3.42079388      4.85659186
N       1.57702645     -0.28383669     -0.39646051
N      -1.32985956      0.43326452      1.60712529
C       1.05120650     -0.15343842      1.88359353
C       0.28362089     -0.01778523     -0.21447984
C       2.11247106     -0.33227047      0.89424101
C       3.44739970     -0.53868575      1.15028996
C      -1.39548640      1.31915339      2.60994751
C      -2.21932292      0.34725084     -3.74918069
C      -0.83895382      0.69998031     -3.80142968
C      -2.78029161      0.01774123     -2.52825851
C       5.43222176     -1.25506425     -2.01377127
C       6.68121555     -0.76029646     -1.63773800
C      -3.85585781      3.43557470      4.52863427
C      -5.06677328      1.56307555      3.49927171
C      -0.01975051      0.57061797     -2.66362722
C      -1.94866840     -0.12939046     -1.38755298
C       4.40082137     -1.26121357     -1.05067623
C      -2.64431479      2.89101890      4.07429375
C      -3.87397192      1.04337868      3.00059783
C       6.87043177     -0.23982641     -0.36576181
C      -5.06772053      2.76069354      4.23807572
C      -0.54982946      0.14462518     -1.41675402
C       4.56591421     -0.69853874      0.21965878
C      -2.66005900      1.73064376      3.24300474
C       5.82609435     -0.16050957      0.57094436
N      -0.08998207      0.09647514      1.11176679
N       6.11619063      0.52626010      1.80016824
H       3.68911169     -0.56296999      2.20532610
H      -0.48163067      1.80555488      2.97368795
H      -2.78772201      0.34070824     -4.67849790
H      -0.43032221      1.01099940     -4.73119377
H      -3.85423380     -0.17745922     -2.40502341
H       5.29216726     -1.67584155     -2.99262315
H       7.48367266     -0.78049356     -2.36570892
H      -3.86545750      4.30980242      5.15001386
H      -6.01110875      1.06821351      3.33887527
H       1.00812042      0.80614727     -2.76864425
H      -2.37000940     -0.44378667     -0.46192280
H       3.46957483     -1.71230886     -1.33625489
H      -1.68077248      3.39368567      4.20031257
H      -3.87229240      0.14333039      2.43674272
H       7.81674400      0.17893417     -0.04406677
