39
charge=0
O       0.24850105     -0.56133520     -3.30451354
O       2.48036753     -1.44253081      3.82594620
N      -0.27856480      4.32220401      1.71922652
N      -1.76079458      3.46956777      3.22381292
C       0.64931659     -0.94006728     -2.20229283
C       1.90159787     -1.14922412      2.80560272
C      -1.14752895      4.59305598      2.67258700
C      -1.21075512      2.45321920      2.66062119
C      -1.44633457      1.01417738      2.82704458
C      -0.23322270      2.92954157      1.70582987
C       0.75039384      0.02166774     -1.12882123
C       0.88449313      3.48767179     -2.23096070
C       0.97725708      3.62111344     -0.88112470
C       0.83645934      1.40514274     -1.35563975
C       1.18865871     -1.82460754      0.47456372
C      -0.66180415      0.12776013      2.18172378
C       0.84954896     -0.48763249      0.23613690
C       0.48006577      1.99049951      0.95175729
N       0.86092803      2.10473017     -2.53529830
N       0.94320149      2.34136525     -0.31980464
C       1.47642976     -2.32103239      1.91264847
C       0.49553889     -2.39898310     -1.84086916
C       1.45995492     -2.72565456     -0.70405073
C       1.71446276      0.32723128      2.45655603
C       0.58889887      0.50222387      1.40596824
H      -1.42610088      5.58264607      3.00187614
H      -2.29415330      0.70476810      3.43428478
H       0.75152182      4.29336354     -2.91974632
H       0.94888034      4.54263664     -0.30424844
H      -0.89837129     -0.90236160      2.30517009
H       0.45708548      1.71547814     -3.40947985
H       2.32646736     -3.01362090      1.87338811
H       0.60614168     -2.83788624      2.35376784
H       0.69545739     -3.10512660     -2.66879824
H      -0.52601846     -2.51482918     -1.50858825
H       2.45872154     -2.51840245     -1.03089629
H       1.35226141     -3.77775343     -0.41982077
H       2.65303006      0.69309059      2.00553493
H       1.48591817      0.91580417      3.36881741
