12
charge=0
N      -1.32911972      1.99796511      1.07126104
N       1.40911469     -1.21166111      2.39727280
N       1.69071182      0.41167400     -1.77014510
O       0.18446444      0.55257350      1.88646367
O       0.11255234      1.22333661     -0.37282642
O       1.83614905     -0.26950345      0.38169448
C      -0.30192015      1.26541690      0.86470449
C       1.18519307     -0.26422058      1.54827770
C       1.18631127      0.40263322     -0.59000370
H      -1.61796784      2.52931603      0.24261974
H       0.79312042     -1.23803592      3.19110548
H       1.20151752      0.95063208     -2.50029767
