22
charge=0
N       3.96234744     -2.04440304      0.00214823
N       2.64074960     -1.35201564     -4.05443527
Br     -1.47898890      4.76907224      2.72339518
Br      0.21260398      2.30341815     -2.05716154
C       3.07041539     -1.82603687     -0.67060181
C       2.30876101     -1.49869964     -2.93790560
N       0.66299269     -0.33013007      0.09813734
N       1.25734053     -0.33074945     -1.04611515
C      -0.37957796      3.27316717      0.50292929
C      -0.75951789      2.03911884      2.53909539
C      -0.81583793      3.24509632      1.81976076
C       0.03682574      2.09897373     -0.13657162
C       0.14914887      0.86966173      0.60825073
C      -0.25177774      0.86030515      1.96732224
C       1.88722180     -1.58852165     -1.52542569
C      -0.13263271     -0.38964936      2.78271879
H      -0.49071810      4.17929639     -0.06903861
H      -1.08137310      2.01880503      3.58632654
H       1.21787957     -2.44508152     -1.44750527
H      -0.22119871     -0.24574194      3.87265172
H      -0.96828115     -1.04891988      2.51317263
H       0.81551590     -0.91506718      2.57075035
