46
charge=0
O      -4.46449568      1.05364182     -0.33530699
O       1.88070433     -1.83609770      1.84626035
O       3.02263241      3.55029261      3.52794463
S      -0.08250806      1.88030199     -0.32533769
S       2.93744888      2.38030579      0.88821439
C      -3.38071332      1.00111513     -0.81808375
C       2.33129748     -1.53760977      0.81503968
N      -2.36921103      0.46443876     -0.00834075
N       2.99161710     -0.36037002      0.51454502
C      -3.11305561      1.73197367     -2.16300281
C       1.89963650     -2.50309174     -0.24711005
C      -1.06347258      0.24062982     -0.53256388
C       3.27749339      0.70859774      1.48674695
C      -3.67971311     -0.99141022      1.41180971
C       5.05578324      0.18990417     -0.79595826
C       1.75023981      2.90479544      3.40391014
C       0.27273938      1.81675360      1.43413132
C      -2.73204409      0.11720052      1.35322708
C       3.54155892     -0.04049829     -0.80636523
C       1.43509599      2.67251105      1.86685815
H       3.48401677      3.40335754      2.69383936
H      -3.89331968      2.36331631     -2.40732164
H      -2.92367083      1.05834281     -3.03052761
H      -2.24225808      2.42621470     -2.17795320
H       2.76122192     -3.14535377     -0.49922321
H       1.34286522     -3.28079363      0.20921444
H       1.38013809     -2.18532430     -1.16346116
H      -0.89816451     -0.10707805     -1.66545370
H      -0.52404533     -0.46010163      0.18685593
H       2.70913215      0.35267272      2.31896605
H       4.32362160      0.74159952      1.82188223
H      -3.88035439     -1.58691405      2.36065699
H      -3.31963752     -1.65990493      0.56102092
H      -4.67177933     -0.67103941      1.11852107
H       5.30807473      0.86009105     -0.06197671
H       5.23240913      0.75858098     -1.72608829
H       5.63084186     -0.79502236     -0.78461824
H       0.93316470      3.55351311      3.84687607
H       1.66406916      1.97857685      3.93593264
H      -0.64950331      2.11770000      2.05294559
H       0.48627167      0.73585848      1.73324315
H      -3.09497960      0.98627900      1.87521285
H      -1.94466327     -0.28886626      1.92832683
H       3.54740392     -0.79440579     -1.61631911
H       3.00697475      0.82845362     -1.15511782
H       1.06328662      3.70901559      1.47010015
