26
charge=0
Cl      0.53025246     -2.43337637     -1.51604035
Cl      3.43830114     -1.64497083      0.16867664
Cl      1.60177940      2.69074401     -1.76045393
Cl     -0.88341839      3.72694727      1.28063450
Cl     -0.51402124      0.76279233      3.74822940
Cl      2.44736007      0.24783816      2.84154328
C      -1.05166695     -0.74799045      0.00061228
C       0.16164996     -1.01491570     -0.45363097
C       2.56143554     -0.06477842     -0.29085163
C       0.14389341      1.84728532     -1.11362571
C       0.57721877      2.58020420      1.23108848
C      -0.40739409     -0.19872293      2.26369489
C       1.08132604     -0.49250113      1.89506312
C      -0.84456321      0.50979816      0.87309413
C       1.13442034     -0.10138485      0.38348440
C       0.34967250      1.25613161      0.33690677
H      -1.90555329     -1.40614891     -0.20332894
H       3.08283514      0.83211286      0.03165274
H       2.38769178     -0.02264784     -1.44758008
H      -0.81735678      2.37077523     -1.20625365
H      -0.09845671      0.97308062     -1.79590750
H       0.78889027      2.39221557      2.21468507
H       1.48607537      3.16499827      0.89088128
H      -0.95679925     -1.15909040      2.44974662
H       1.15218787     -1.53513452      2.00515857
H      -1.68715256      1.22534630      0.93112813
