49
charge=0
C       1.87518736     -3.87331838     -2.37224758
C       1.29876123     -2.73323837     -2.89426287
C      -1.52765126      0.68966437     -0.51498042
C      -0.17317242      0.46215220     -0.47005033
C      -3.47070528      4.21153828     -1.94300949
C      -2.08656584      4.10636986     -2.11160380
C      -4.16394556      3.15909044     -1.32855601
C      -1.39723808      2.97303870     -1.65354757
C      -3.51450319      2.00199106     -0.90841225
C      -2.12630475      1.89063887     -1.06243626
N       1.15057989     -0.40181829      1.44566653
C       2.20879212      0.61132223      1.40239990
C       0.52603285     -0.64040695      2.78591128
C       0.36729286     -0.79465080      0.24814707
C       1.58758071      1.91939165      1.88329136
C       0.02018827      0.67449528      3.41992687
C       1.06533567      1.77425482      3.32122216
C      -0.13026226     -3.55678333     -1.22773285
C       1.79978747     -2.90329659     -0.07961010
C       1.28906363     -4.03662875     -1.00288341
C       0.28187718     -2.24888404     -1.90743316
C       1.17342295     -1.64097453     -0.76971586
H       2.63472695     -4.47397577     -2.86029529
H       1.46340378     -2.31305670     -3.86479337
H      -2.19541579     -0.03729515     -0.09811057
H       0.50201071      1.15288305     -0.95752565
H      -3.97068321      5.04377782     -2.35853236
H      -1.52302905      4.90657618     -2.54805517
H      -5.22107239      3.31947805     -1.14440421
H      -0.31414393      2.90718981     -1.78356698
H      -4.08305393      1.21571103     -0.43771905
H       3.01262344      0.29820085      2.06338769
H       2.62012983      0.69156815      0.40433678
H       1.28375723     -1.06700548      3.45437313
H      -0.26769203     -1.34081868      2.68786566
H      -0.47448552     -1.39187743      0.57624073
H       2.36972982      2.68054200      1.91993568
H       0.79114567      2.26041836      1.18180653
H      -0.20794138      0.44299397      4.46506241
H      -0.85111159      1.01294380      2.83868967
H       1.88658870      1.50307683      3.98260006
H       0.62084219      2.72651551      3.66264542
H      -0.73815482     -4.16958138     -1.87298728
H      -0.67522004     -3.42226649     -0.25072907
H       1.41875842     -3.04097993      0.93772641
H       2.89754949     -2.84170074     -0.06298708
H       1.47100652     -5.06689238     -0.62821014
H      -0.46234517     -1.61984153     -2.38052102
H       1.95852181     -1.02053178     -1.18631632
