50
charge=0
O      -0.08811043     -2.59725802      4.02467783
O       2.70438580      0.64944414      1.00388296
N      -2.26143400      3.07187715     -3.53606263
N      -2.17441349      2.77005150     -5.81444018
S      -1.12812051      1.50187132     -5.25128907
S       4.51041998     -3.22398072      2.41134204
C       0.94686692     -1.96404067      3.76895867
C       1.62395465      1.12151410      1.25350245
C      -1.37607972      2.12612433     -3.57895795
C      -2.74961443      3.36501225     -4.78393809
N       2.00522961     -2.62236978      3.06496251
N       0.86810200      1.58760922      0.07383560
N      -0.74376150      1.88444489     -2.32834445
N       2.15986230      0.32006258      4.51135765
C      -3.86347090      4.44523320     -4.81922209
C       3.30732703     -1.91065480      2.69655646
C       3.33051073     -4.56151254      2.73995846
C       1.91571935     -3.90538061      2.50496404
C       1.53928335      1.57712296     -1.26872105
C      -0.58496244      1.76234339      0.13003685
C       0.55612248      1.21367257     -2.36548283
C      -1.16302223      2.56646829     -1.11046842
C       2.18888873      1.56991979      3.78031434
C       0.20176961      0.46240056      3.27258479
C       0.95875860     -0.41517838      4.24943568
C       1.12912769      1.45813460      2.68374459
H       2.37930958      0.43454961      5.43658608
H      -3.97275409      4.89045826     -5.81037209
H      -4.78108574      3.81959552     -4.59527044
H      -3.72239294      5.25834628     -4.08478922
H       3.65903531     -1.17330284      3.44921926
H       3.16724579     -1.36172661      1.81256490
H       3.33194372     -5.38521798      2.02046386
H       3.55648633     -4.91824600      3.82214659
H       1.75257198     -4.05438228      1.44885890
H       1.26777658     -4.49637472      3.14119939
H       1.89906106      2.52692847     -1.48771313
H       2.40137823      0.89419704     -1.39372853
H      -1.04151055      0.74994255      0.26558468
H      -0.75096234      2.42501184      1.04954566
H       0.28249347      0.18402805     -2.18525642
H       1.05439269      1.24925836     -3.32401875
H      -2.28181076      2.54277009     -1.03457642
H      -0.84456535      3.60469702     -1.12936034
H       1.95558291      2.35409991      4.45463709
H       3.14333234      1.67134564      3.35920939
H      -0.20849274     -0.11286965      2.57510887
H      -0.63794799      1.01088383      3.65356477
H       0.34589964     -0.33201628      5.15869457
H       0.69053409      2.42395432      2.54337392
