28
charge=0
Br     -4.87560805      2.12407894      0.81047059
C       5.67419996      0.22368400      0.02879085
C       4.50853305      0.56379474      0.17765321
N       3.03869759      2.55674319     -0.09169135
N      -0.57477235     -2.92193227     -0.76082087
N      -1.38045767     -1.83720152     -0.39982585
C       1.74524138      2.65598587      0.11612599
C       0.62862642     -2.69100139     -0.24906871
C      -0.56962258     -0.90027425      0.11870166
C       3.22482704      1.22031759      0.27547027
C       2.06528447      0.58071362      0.66575471
C      -2.24580560      2.78669074      1.49069228
C      -2.48469325      0.58613143      0.48044531
C      -0.80545664      2.63144538      1.36692400
C      -3.04531372      1.78102663      0.98414736
C      -1.05366812      0.36480509      0.48528512
C      -0.26467648      1.44385630      0.84751851
N       1.06549124      1.54680144      0.50216233
N       0.73314031     -1.40217596      0.33558011
C       1.83926294     -0.88500328      1.18417895
H       6.52611301     -0.09413622     -0.34915326
H       1.26479364      3.55542150     -0.22016040
H       1.41066249     -3.43932737     -0.19942889
H      -2.66787572      3.63676555      1.99310332
H      -3.11850067     -0.19358245      0.16599574
H      -0.09930882      3.37092867      1.80231381
H       2.73064945     -1.56940011      1.02367419
H       1.54719810     -0.87819393      2.23212268
