41
charge=0
O       6.53473417      2.35069924      0.28675314
Br     -3.96932642     -3.63845668      3.66511599
O       5.63133694      3.86871131     -1.13764564
C       5.61638782      2.69461654     -0.42324825
C       4.38568704      1.87623075     -0.36910962
C      -2.68528810     -2.47513897      3.06842601
C      -2.79515872     -1.15111799      3.34393350
C      -1.15992763      1.23447326      0.86674276
C       0.19754167      0.74324920      0.64126558
C       3.36965187      1.74178886     -1.30851283
C      -1.41846167     -3.05200227      2.56901835
C      -1.65899780      2.60779613      0.40882225
C       1.04766882      1.15585955     -2.23504695
C       2.32578228     -0.59187051     -0.96490811
C      -1.96999544      0.02467044      2.95982613
C      -2.09783029      0.25477924      1.49062907
C       1.41795297      1.52659172      0.15542602
C       2.06770534      0.95972465     -1.05362005
H       6.33468839      4.39209878     -0.94234653
H       4.36739958      1.17880025      0.49790045
H      -3.76550855     -0.73592768      3.63763055
H       0.30481451     -0.27426766      0.98223185
H       3.62502054      2.34175687     -2.20913782
H      -1.18841143     -3.97259336      3.17198987
H      -1.48884673     -3.37480523      1.51009126
H      -0.57132519     -2.37635402      2.74003139
H      -0.89591214      3.18574622     -0.06301925
H      -2.43458705      2.47140826     -0.31507497
H      -2.04411223      3.22352224      1.26553651
H       0.78537996      2.21111761     -2.44568307
H       1.57455499      0.82494457     -3.14332679
H       0.06620156      0.55417555     -2.13779441
H       1.47604647     -1.20767302     -1.13090612
H       2.63952579     -0.79964526      0.06029727
H       3.14879784     -0.85716779     -1.62725351
H      -2.27662838      0.84194243      3.39709013
H      -0.91553033     -0.12207720      3.23256226
H      -1.92857664     -0.75116408      0.92706326
H      -3.15800390      0.55246323      1.35706163
H       2.12116703      1.76835014      1.03701507
H       1.08064840      2.49100961     -0.06956123
