23
charge=0
N       1.52026577      0.18585091      0.32761243
C       1.20126468      1.02297624      1.29000167
C       0.90646432     -1.30892804     -1.35757916
C       0.51506725     -0.34760269     -0.46538781
N      -0.03985450     -1.93586157     -2.16976151
N       2.38292801      3.10976066      2.00076574
C       2.36975859      1.62848716      2.07531401
C      -0.18903790      1.46426764      1.64074882
C      -0.95185885      0.04955169     -0.24990283
C      -1.22860365      0.40180984      1.19443925
H       1.94587774     -1.51972717     -1.44545192
H       0.29152895     -2.68635899     -2.75275040
H      -1.01760852     -1.87263553     -1.84939998
H       3.04675706      3.52953861      2.66808415
H       2.61147108      3.41080610      1.03474725
H       3.30349109      1.20620344      1.63021853
H       2.35150771      1.30541029      3.14641331
H      -0.41262536      2.38933016      1.12824466
H      -0.26887619      1.69631067      2.70827246
H      -1.17253423      0.92875407     -0.91377398
H      -1.61248897     -0.78363881     -0.53443201
H      -2.24764686      0.79325182      1.25839023
H      -1.13417141     -0.49648115      1.80626318
