48
charge=-3
O      -0.08364795      0.33800930      6.19075455
O       0.97961814      3.16402049      5.27186215
O       1.19906435     -4.79324054     -2.38753281
O      -3.65942996      4.00144795     -0.92971097
O      -4.48477454      1.97201472     -2.03991835
O       1.89620681     -0.39398428      5.53637960
O      -0.60725377     -3.54499516     -2.47711624
O      -3.63043406      3.82225787     -3.33424928
Cl      2.66331029      1.34479606     -1.80242799
Cl     -2.39969038      1.25841673      0.35260979
O       2.84037221     -4.52410946     -0.45595198
C       0.89298692      0.34589996      5.40264348
C       0.63481283      2.55725895      4.25477854
C       0.55773986     -3.77008331     -2.06697509
C       0.80320850      1.11428442      4.17562220
C       0.76083632      0.51347753      2.92231102
C       0.06232193      2.66857771      1.81557748
C       0.14149106      3.31215968      3.05667847
C       0.48539936      1.28094752      1.66774171
C       0.54264231      0.65012550      0.39829745
C       0.46283718      2.32325896     -2.96666330
C       0.58983918     -1.61494012     -0.80453097
C       2.27600512     -1.11783081      0.80220819
C      -0.87260826      2.71691455     -3.03927291
C       0.95348822      1.66962739     -1.83046604
C      -1.32087391      1.69114393     -0.92179786
C       2.36397667     -3.22891759     -0.37472651
C       1.20381777     -2.84270275     -1.07750511
C       1.11932928     -0.72984360      0.16473867
C       0.05490001      1.33979119     -0.78221295
C       2.92383459     -2.33616925      0.55378337
C      -1.77442527      2.39032637     -2.02734418
C      -0.31713787      4.73019757      3.23815292
C       4.15180918     -2.72622937      1.35326871
S      -3.50136001      3.06371953     -2.05982414
H       2.40394040     -4.85943008     -1.28741263
H       0.87434323     -0.59500201      2.88714208
H      -0.30930393      3.25335689      0.94238545
H       1.11901665      2.71334482     -3.77264599
H      -0.35395948     -1.34739154     -1.30212468
H       2.78861274     -0.47100231      1.51553393
H      -1.15197112      3.23736488     -3.93897197
H      -0.65367126      5.21605150      2.30245702
H      -1.11793250      4.75883516      3.99753076
H       0.53513545      5.29688636      3.61142972
H       4.71376171     -1.83925979      1.69725325
H       4.82097327     -3.35262632      0.74899517
H       3.82334920     -3.25624810      2.21975365
