40
charge=0
N      -0.24488291     -2.92143366      2.62860211
C       0.23154313     -2.75584146      1.59870575
N       2.71614873     -1.33356252     -2.98019381
O       2.12741047     -2.99363904     -1.57347425
O      -1.30002869      2.52068579      0.57140865
O      -2.65815011      1.52558794      1.94778814
C       2.02220280     -1.65784805     -1.95647578
C       1.75630207     -3.22923956     -0.31138519
C       1.88632451      0.56340501     -1.93438581
C       0.93553396     -2.35386045      0.41759774
C       1.47248418     -0.56322119     -1.19211389
N       2.04175684     -4.51418376      0.05089873
N       2.63340675      0.05269655     -3.00025567
C       1.79826175      2.03898889     -1.71614392
C      -2.58971583      3.08144631      0.38335221
C      -3.55153711      2.33870745      1.30950525
C      -1.89864863     -0.05843722      0.31156021
C      -0.37434060      0.74268815      2.06317195
C      -0.85508215     -0.75150927     -0.58009389
C       0.85660112      0.20476552      1.26676738
C      -1.48962795      1.20303718      1.12963853
C       0.57874146     -0.84580115      0.03449771
H       1.66298338     -4.80427448      0.99189570
H       3.00091905     -4.84795506     -0.14230050
H       2.88801742      0.64512807     -3.79824955
H       1.16881916      2.36686460     -0.90442529
H       2.69804446      2.43312934     -1.51195486
H       1.39214490      2.45258560     -2.62210130
H      -2.56316704      4.11163399      0.65212932
H      -3.00269874      2.90772500     -0.60537832
H      -4.27155202      1.76323929      0.75004297
H      -4.10428560      3.00018905      1.99582030
H      -2.77313877      0.16993441     -0.29498633
H      -2.25528998     -0.73563908      1.08980084
H      -0.81192295     -0.13345096      2.58110931
H       0.01393853      1.42551926      2.84577892
H      -1.31147267     -1.70010977     -0.76067407
H      -0.79733265     -0.14656389     -1.46108915
H       1.37894015      1.12956586      0.80778661
H       1.59234889     -0.33095257      1.91782303
