49
charge=1
N       0.59349162      2.35838803     -2.07222913
C       1.25924879      1.59252842     -1.19790224
C       2.72317918      1.35327313     -1.46098821
C       3.33400376      0.31848721     -0.77362548
C       1.29787340     -0.17977712      0.53789860
C       0.55776187      0.75976814     -0.15550658
C       2.70501637     -0.58511384      0.16994145
C      -1.37943876      1.51370074      4.20225375
C      -2.23228720      0.69035834      3.46482520
C      -0.33102146      2.28581652      3.67333846
C      -1.34962921      3.30203565     -2.69768009
C      -2.75566079      3.61255789     -2.54519979
C      -2.08705158      0.61645276      2.03930519
C      -0.15220765      2.12282964      2.25981731
C      -2.84359978      2.38171329     -0.52871642
C      -0.66445180      2.58324782     -1.84192756
C      -3.50925243      3.02765255     -1.52427695
C      -1.02734662      1.38580798      1.52186328
C      -1.43852820      2.09420745     -0.73699769
N      -4.86966060      3.11668010     -1.52301025
N      -0.73692748      1.26162285      0.18357549
N       3.27588857     -1.70905164      0.55793989
C       5.39635134     -1.53951474      1.31007085
C       2.11401155     -2.91146001      2.37194504
C       4.60899525     -2.16630558      0.30147800
C       2.42249836     -2.84250239      0.89393234
H       3.37374090      2.02837975     -2.02619746
H       4.42278530      0.44986615     -0.90606708
H       0.81108716     -0.68806718      1.40972092
H      -1.41362208      1.62425177      5.22716922
H      -3.13955822      0.25667163      3.92465974
H       0.41264964      2.89586492      4.15513390
H      -0.73768624      3.74508056     -3.46492765
H      -3.19309007      4.33827751     -3.31313419
H      -2.71098477     -0.07410655      1.42735938
H       0.68495669      2.54666785      1.83881178
H      -3.50061260      1.90090018      0.20052060
H      -5.39063856      2.98086779     -0.60539245
H      -5.23707676      3.93448224     -2.01328301
H       5.32587217     -0.42484371      1.22102387
H       4.91157335     -1.77572124      2.30144870
H       6.45139215     -1.83492726      1.33456049
H       3.05855128     -3.32884434      2.85475308
H       1.18853330     -3.40292479      2.51273483
H       1.83325166     -1.92903853      2.77636862
H       4.73938344     -3.27283914      0.34030911
H       5.00524581     -1.90290495     -0.66666651
H       1.44107296     -2.70966583      0.38208850
H       2.68160129     -3.87114656      0.58856478
