45
charge=0
O       3.51263947     -0.49111416      3.51082445
Br     -0.81166374     -1.02571990     -5.44525921
O       4.48504504     -1.62920580      1.84672136
O      -5.84354408     -2.80448514      1.55868662
O       2.42790582      1.42282574      1.94939562
O       0.40976546      1.19539180      0.67445535
C       3.73195605     -0.60231369      2.33590581
C       3.16689328      0.40449597      1.39779460
C       3.41091259      0.35084909      0.03966335
C       1.08096823      0.83441457     -4.31494090
C       0.38239407     -0.86011546     -2.79456196
C      -3.77056956     -0.86464664      2.20178261
C      -3.07508731     -1.24691609     -0.07306247
C      -2.60627583     -0.16122698      2.46990184
C      -1.85932796     -0.58630270      0.21016583
C       1.94318410      1.40710664     -3.31945105
C       1.21291671     -0.32052627     -1.78710340
C       0.30455335     -0.28268701     -4.06275741
C      -4.04413561     -1.37211143      0.90821789
C      -1.61856069     -0.04256972      1.47575792
C       1.97975057      0.81311925     -2.00725128
C      -5.38161216     -1.93246721      0.52987112
C      -0.28049415      0.64404336      1.81251986
C       2.18446990      2.52811645     -0.17485634
C       1.47625174      2.05591465      1.07945853
C       2.89862291      1.40506149     -0.91164033
H       4.80553665     -2.15603771      2.61276176
H      -5.18222497     -3.45027981      1.75923580
H       4.03009740     -0.42480646     -0.33571902
H       0.96880928      1.37580746     -5.26414384
H      -0.12292332     -1.79672732     -2.59125707
H      -4.56156099     -0.88398437      2.97708358
H      -3.24578543     -1.62304349     -1.06703840
H      -2.41075915      0.24080046      3.46945599
H      -1.13711032     -0.47128189     -0.56766468
H       2.55246541      2.26790731     -3.59441779
H       1.29971340     -0.76598502     -0.81735445
H      -6.13948384     -1.10944849      0.39090647
H      -5.32091638     -2.44946224     -0.42463917
H       0.39429273     -0.03120979      2.36533926
H      -0.52569305      1.41202344      2.53076719
H       2.91239843      3.29811568      0.06955818
H       1.48149935      2.99206600     -0.86001346
H       1.08849174      2.91729972      1.60569192
H       3.79619456      1.81931577     -1.36879176
