30
charge=0
N      -2.52375389      0.63144099      6.13947072
N       0.37962127      6.52660355     -2.02239016
N      -1.77068975     -0.08139184      5.54158520
N       0.74498095      4.23145404     -3.02246209
N      -1.05686403     -1.05612980      4.97040238
N       0.53996703      5.39452951     -2.48954760
S       0.73047619      2.06647068      1.48500309
C       0.94059094     -1.99033878      2.00987011
C       0.57070389      0.46729925      2.03788974
C       0.42380442     -2.04359772      3.32719434
C       0.01453521      0.34272342      3.29102290
C       0.96658800     -0.68124552      1.24454140
C      -0.27767959     -0.91607209      3.99313263
C       0.79747521      1.85734816     -2.88708884
C       0.73906359      3.08109254     -0.82973073
C       1.03200592      0.70904386     -2.17222956
C       0.78047641      3.09393192     -2.18441389
C       0.90276375      1.80117946     -0.15430061
C       1.08683822      0.56641394     -0.74666798
N       1.26176226     -0.64406343     -0.05243472
C       1.49133409     -1.84023884     -0.90076194
H       1.33190886     -2.93850363      1.61473850
H       0.31413144     -3.06716057      3.94152027
H      -0.34763824      1.15319569      3.93370279
H       0.60392262      1.92739106     -3.95227513
H       0.55030630      3.97479823     -0.25661162
H       1.11792594     -0.21986869     -2.75659215
H       2.57145259     -1.84261580     -1.19609113
H       0.65862036     -1.90653423     -1.66668154
H       1.30068627     -2.72184006     -0.36447766
