45
charge=0
O       2.37210047      2.89237367     -0.99697135
O      -0.19210343      0.21014419     -1.84168785
O       0.44330210      0.86362325      4.08194342
O      -1.60325907      0.27520939      5.34316191
F       7.40052696     -0.78220261     -1.78602078
F       6.15715208     -1.62473940      0.22320532
N      -2.04438967     -0.49302112      0.84269899
O       1.16773363     -0.31083344     -0.01437400
C       2.54558106      1.71515238     -0.56803687
C       0.15722571     -0.56680070     -0.94544573
C      -1.74736714      0.22382392      1.88727365
C      -2.49009264      3.89733276      1.15704525
C      -2.45256667      4.31260330      2.48414317
C       5.69370467      0.86236626     -2.40598000
C       4.43705414      1.46351455     -2.15976414
C       4.30127312     -0.08551924     -0.32129494
C      -2.44300155      2.50876667      0.82576396
C      -2.03374355      3.38609605      3.48570941
C       6.17270024     -0.27817772     -1.70791148
C       5.48723857     -0.74166955     -0.61980971
C       3.77547463      1.01633702     -1.02658723
C      -2.07096117      1.62272126      1.88468764
C      -1.81302263      2.12611626      3.14120443
N      -1.44101114     -0.33024078      3.06858574
C       1.50783870      1.11750897      0.36028001
C      -1.79875392     -1.91066767      0.84780472
C      -0.19059805     -2.05816242     -1.09204886
C      -1.65620083     -2.41569324     -0.65506457
S      -0.99980831      0.83239787      4.10050593
H      -2.75550813      4.58833991      0.38858357
H      -2.56660934      5.33714936      2.88398239
H       6.42126832      1.30379802     -2.99968590
H       4.05896537      2.35581526     -2.71486386
H       3.95011644     -0.35400698      0.69962225
H      -2.57839625      2.09755399     -0.15453479
H      -1.86596175      3.75252761      4.46190524
H      -2.21248827     -0.71741079      3.57816740
H       0.64638418      1.75152834      0.27324225
H       1.83536581      1.11864685      1.41686151
H      -1.07235528     -2.34167007      1.55618034
H      -2.86416201     -2.26956462      1.25491310
H       0.41026189     -2.72100888     -0.44509463
H       0.04457387     -2.44110326     -2.11688699
H      -1.90914965     -3.48100847     -0.57700384
H      -2.37135685     -1.89497064     -1.28543031
