21
charge=0
O       0.76876255      3.00652560      3.06859583
O       0.58650122      2.16252692     -0.28197370
N      -2.19231085     -0.91945623     -1.69207743
N      -1.64896776     -0.88358461     -0.44217692
O       2.88632402      2.52821864      3.79096424
O       2.56087764      1.14536471      0.05720096
S      -1.63431664     -1.24183553     -4.35347947
S       0.26130085     -1.65777589     -1.98598164
S       0.52289586     -1.18396636      1.13676601
C       1.66734682      2.21741681      3.29790170
C       1.26907041      1.38133641      0.36894204
C      -1.26794148     -1.18394441     -2.64675508
C      -0.37511649     -1.24891645     -0.40569016
C       1.46854680      0.77698761      2.83100138
C       0.60856198      0.63578532      1.53509642
H       2.85590447      3.47442363      3.90296807
H       2.70256371      1.63294837     -0.78693123
H      -2.98704713     -1.13141104     -4.18746764
H       2.43404278      0.32832921      2.61345088
H       1.01974665      0.19181418      3.65118251
H      -0.39402434      1.08193453      1.64118548
