46
charge=0
O      -1.41632846      2.12309989      3.26809733
O      -0.18090729      0.04112347      3.65849734
C      -0.25009540      2.79486375     -0.45356243
C       3.07727250      1.18578113     -0.76299092
C       0.10022815      2.67736969      0.86322210
C       2.48340131      0.70012420      0.39941859
C      -4.17379961     -1.46911846      0.59870913
C       4.61619628      0.51693207      3.56738781
C      -1.05551121      0.37325697     -3.20681664
C       5.81496503      1.02836522      2.96387428
C      -0.36224734     -0.73534795     -2.79701714
C      -4.09887587     -0.05881283      0.44035850
C      -3.16843023     -2.14684629      1.32845823
C       3.47057609      0.32989991      2.79344842
C      -1.00642192      1.56096732     -2.45752902
C       5.85220560      1.30262430      1.60247621
C       0.35166305     -0.72035392     -1.58176750
C      -3.10812758      0.65178098      1.08125248
C      -2.12984168     -1.40565447      1.91492173
C       3.50129743      0.68166181      1.43454729
C      -0.35113063      1.55950090     -1.22252246
C       4.67786051      1.14438465      0.85920505
C       0.32162439      0.41180282     -0.74846004
C      -2.09089661     -0.00927256      1.81687548
N       4.41640182      1.45751550     -0.45728312
N       0.36891441      1.45108888      1.42990490
C       1.01239901      0.42745683      0.60115700
S      -0.80203768      0.91802911      2.64282174
H      -0.52675054      3.74288603     -0.88780568
H       2.55797734      1.34488740     -1.71257759
H      -0.04608152      3.56268283      1.52685515
H      -4.99366734     -2.00905848      0.14480667
H       4.63227837      0.21021782      4.61454351
H      -1.59361698      0.30328097     -4.14549358
H       6.70536063      1.19038794      3.55117779
H      -0.31325339     -1.61047713     -3.45173173
H      -4.84142321      0.51627119     -0.11421321
H      -3.26012618     -3.25702402      1.44680378
H       2.58643906     -0.04096428      3.23846808
H      -1.50016114      2.47816973     -2.81771992
H       6.79385879      1.60079177      1.18391665
H       0.84478602     -1.61170523     -1.27040688
H      -3.14609739      1.73434760      0.96641062
H      -1.41028513     -1.87582967      2.55799399
H       5.07928034      1.82969883     -1.11192601
H       0.90327895     -0.55863475      1.04636515
