50
charge=0
O       2.15548132     -2.63825984     -0.78926511
O       0.55875246      2.52975963      0.31170893
F       4.07145603     -4.98246837     -0.88272990
O      -2.58788845      1.04041253      3.64582854
S       4.91085572     -0.08134766     -1.03909094
C       3.25614591     -2.09116799     -0.78666004
C       0.51560718      1.62066350     -0.45261297
C       7.10278302     -3.31865469     -2.19998778
C       6.14671970     -4.34681035     -1.87924106
C       6.68392003     -2.00598193     -1.85242531
C       4.94643444     -4.04143087     -1.25817209
C       5.40048201     -1.67347758     -1.53441639
C       4.58600382     -2.69328498     -1.11217948
N       3.51447114     -0.76949003     -0.47622418
N      -0.73559290      0.86630263     -0.68758693
C       1.79404744      0.97175222     -0.89932397
C       2.47490986      0.04796624      0.08567161
C      -5.00588623      1.38916096      0.18520267
C      -3.95491957     -0.08884742      1.88469786
C      -3.54583719      2.43627414      1.95059318
C      -2.99996725     -0.15207691     -0.49746118
C      -2.67703409      2.28628737     -0.32659424
C      -1.77441505      0.96894169      1.45775421
C      -4.33658134      0.00160876      0.36070909
C      -3.96651394      2.48215858      0.55439029
C      -3.02968936      1.07857651      2.26992343
C      -2.02684380      0.92736045      0.00142306
H      -1.86293566      1.71522101      3.75702012
H       7.97330955     -3.39901668     -2.77889042
H       6.43901075     -5.26848243     -2.22819969
H       7.41848639     -1.20999610     -1.95647010
H      -0.60208798     -0.01717250     -1.12534777
H       1.38702623      0.41438963     -1.80488482
H       2.56666763      1.78327970     -1.14199671
H       1.80902595     -0.67640688      0.59826610
H       2.93188296      0.66031710      0.93596255
H      -5.21573155      1.54523787     -0.89467565
H      -5.83060351      1.57041801      0.85803499
H      -3.54438679     -1.10146082      2.07849843
H      -4.85471451      0.01356876      2.56192557
H      -4.51518551      2.61702136      2.49865802
H      -2.88265689      3.24276402      2.09498753
H      -2.57298828     -1.15956730     -0.34508294
H      -3.20602028     -0.00245436     -1.54296752
H      -2.00229070      3.12516928     -0.22991157
H      -2.91409561      2.12687855     -1.37815149
H      -1.07299052      1.66578438      1.76932199
H      -1.33352505      0.00045709      1.73974056
H      -5.14101472     -0.82884120      0.12700480
H      -4.45108275      3.41896549      0.37322612
