46
charge=0
O       1.95446268      2.43145587      0.20476392
C       6.05135712     -2.06955139      0.84785916
C       5.10833730     -1.34630904      1.10927943
N       0.29086882     -1.04176231     -0.45477649
S       3.68283142     -0.29559265      1.43570827
C       1.06269591      2.11663188      0.99173768
C       1.04561402     -0.32574698      0.34588907
C       2.35974961     -0.86542628      0.38434611
C       0.54336252      0.77820309      1.16020495
C       2.32492334     -1.93886923     -0.42196742
C      -0.50900218      0.85181389      2.01902406
C      -0.58907651     -5.05151733     -3.45591563
C       0.58812951      7.12939994      2.17145036
C       0.51690883     -5.34408342     -2.63457782
C      -1.07763140     -3.78242812     -3.47930953
C       0.59663573      6.54555464      0.90006595
C       0.55514444      6.32298678      3.28096547
C       1.08460723     -4.37348531     -1.80184548
C      -0.51595637     -2.77317965     -2.64836268
C       0.63054667      5.14722661      0.79653648
C       0.48451560      4.92839073      3.19365277
C       0.54727656     -3.07667977     -1.80387612
C       0.48479168      4.33553467      1.92962104
N       1.04813816     -2.03964117     -0.95848930
N       0.31293394      2.94962917      1.78486043
N      -0.68041964      2.17402414      2.47201183
C      -1.41937688     -0.29649584      2.33206609
C      -2.01094428      2.70241231      2.78971997
H       6.88147530     -2.71220908      0.71546676
H       3.10028991     -2.64799176     -0.59776611
H      -1.04823682     -5.80247614     -4.07256023
H       0.66686251      8.21280229      2.26133634
H       0.84571927     -6.36287986     -2.67619660
H      -1.91971199     -3.52854190     -4.13595672
H       0.76175670      7.21964121      0.05078932
H       0.55858347      6.70339800      4.29032799
H       1.90065415     -4.54887326     -1.08676617
H      -0.92376573     -1.72722606     -2.69673612
H       0.66979902      4.60458550     -0.15912602
H       0.43949470      4.26496163      4.09132737
H      -2.39432961     -0.05585585      1.92377957
H      -1.07366841     -1.26648843      1.95525980
H      -1.53098607     -0.35775565      3.43516794
H      -1.96741599      3.76294991      2.56058947
H      -2.80832613      2.25008363      2.11427258
H      -2.28746601      2.54153190      3.87829915
