49
charge=0
F      -0.78553912     -7.11972909      0.37331611
F      -2.46607296     -3.36256237      3.43054775
F      -0.86716794     -2.05620887      4.01361613
N       2.19617959      3.52274458     -1.88748864
N       0.74351844     -1.25485494     -2.47059045
N       0.91176031      0.29960526     -0.69604015
O      -1.00426984     -2.65806104      1.88075543
O      -0.14039502      3.12260357      2.33150162
C       0.64907264     -0.92287702     -1.17331570
C       2.36114677      3.20399659     -3.17837360
C       0.20519703     -5.39964225     -0.96677990
C      -0.90910812     -4.95217346      1.10052000
C       0.50575279     -4.03188214     -1.12750835
C      -0.50091490     -5.84084564      0.14443254
C      -0.60058875     -3.59981238      0.97626592
C       0.08563965     -3.11803183     -0.16157362
C       1.72305199      2.57705738     -1.05636895
C       1.16190339     -0.33696106     -3.30534497
C       2.02201179      1.95158901     -3.70792350
C       1.38725434      1.25637284     -1.52506322
C       1.52242207      0.94512564     -2.88799749
N       0.37800310     -1.77972435     -0.15672116
N       1.65696717      2.83118230      0.29812716
C      -0.83834513      2.94311750      3.55962483
C      -1.17357081     -3.09268666      3.19748644
C       2.06432473      4.10883993      3.10893907
C       0.09295045      5.55616642      2.50596529
C       1.28872235      4.21570301      0.75748303
C       0.80682617      4.20310638      2.20797760
H       2.79656370      3.96121977     -3.81397534
H       0.53534741     -6.12146839     -1.73074532
H      -1.47808770     -5.41267869      1.92273681
H       1.11831996     -3.73553612     -1.98631737
H       1.24840081     -0.60626078     -4.36559945
H       2.11779160      1.77187079     -4.77896413
H       0.18788610     -1.26725047      0.67884566
H       1.23763623      2.05784814      0.81435896
H      -1.48258588      2.07135657      3.43001332
H      -1.41981581      3.82499995      3.79335457
H      -0.12488727      2.72356424      4.35456449
H      -0.53686676     -3.98762928      3.42761844
H       2.71750955      4.97339857      2.92112758
H       1.68277335      4.13168071      4.14284208
H       2.59392724      3.15102820      3.00262329
H       0.74522035      6.37890795      2.22708640
H      -0.17215196      5.64256669      3.59675135
H      -0.86552116      5.58509822      1.95236556
H       0.46006889      4.64974525      0.13989785
H       2.09142209      4.92606625      0.61562966
