43
charge=0
C      -3.18112325      4.81282498      0.63131836
O       3.01597162     -0.39469210     -3.75858356
F      -2.21684982     -5.60853779      4.41640637
F      -2.92652722     -3.47998754      4.45278447
C       1.08141271     -1.50159766      2.42779101
C       0.59208916     -2.55529783      2.71672631
N       2.28089177      1.93122725      2.62689888
N      -2.23546834      4.65607725     -0.02311830
O       1.37858234      1.10702662     -3.16658039
C       2.51335077      0.45959132     -3.02197030
C       1.95956217      0.59128208      2.93771408
C       2.49958635      2.22549570      1.34813566
C       0.18102600      5.42205735     -2.64403495
C      -0.88219496      5.57984872     -1.70814804
C       0.84797252      4.19869285     -2.69529808
C      -0.50716373      3.37134501     -0.87001846
C       1.72322824      0.01883575      0.66629407
C       1.62298747     -0.26550416      1.95711796
C      -1.16337599      4.54570348     -0.88471241
C       0.51529779      3.17042693     -1.81382529
C       2.30036797      1.26217558      0.29969761
N       3.13449343      0.54328323     -1.84500197
C      -1.41411678     -4.15285585      2.59561736
C      -0.62172182     -3.98022991      4.57788178
C      -1.96607611     -4.34241524      4.09529907
C      -0.04400424     -3.79504620      3.15050410
C       1.17673050      1.79247907     -1.88015412
C       2.55684412      1.69182056     -1.16172903
H       1.87635856      0.32552477      4.02528973
H       2.98103130      3.18851606      1.02847252
H       0.60051804      6.17954548     -3.27842475
H      -1.59210943      6.38076561     -1.69391895
H       1.67559061      4.16972647     -3.39807952
H      -0.86023349      2.71529408     -0.03906808
H       1.45540727     -0.53493699     -0.18254694
H       4.12138281      0.47317952     -1.93144817
H      -1.27799739     -5.05765251      2.03298164
H      -1.89363354     -3.37564171      2.03710776
H      -0.09880326     -4.80863427      5.18396808
H      -0.71658396     -3.15164666      5.20057854
H       0.55705585     -4.72429301      2.95600709
H       0.41113562      1.16731602     -1.31424908
H       3.29372890      2.50352852     -1.29906201
