46
charge=0
Br     -2.94434333     -0.25389204      3.25659052
N      -2.61517783     -2.99205566      2.36403773
N      -0.77375947     -0.69522569     -1.13746976
N      -2.15019044     -3.70037829      1.24633258
O       0.79530289      0.34893008      2.12627599
C      -2.39615320     -1.70959251      2.16066194
C      -0.66278824     -1.90558408     -1.63712950
C      -1.70897190     -2.85105138      0.33249473
C      -1.85152915     -1.53916526      0.82817454
C      -1.40858757     -0.49999591      0.08509590
N      -1.15253231     -3.01647654     -0.92771264
N       2.67573988      4.59846294     -1.62170676
N      -1.51568722      0.77616022      0.53987928
N       3.13356989      3.83629708     -0.50838372
C       2.04434425     -1.74110693      1.56424851
C       1.21511338     -1.20568767      3.80345388
C       1.38411950      4.07912539     -2.06899853
C       2.13014019      2.05471809      1.04908238
C      -0.30312714      2.54199291     -0.75083681
C       1.81261284     -0.58809683      2.55809215
C       0.96970726      1.01432638      0.86882651
C      -0.36528787      1.68438070      0.51555816
C       1.95077675      3.25052699      0.12344220
C       1.11008967      2.90239072     -1.12036574
H      -0.13273464     -2.06239691     -2.54798779
H      -1.00017722     -3.94199515     -1.31003628
H       2.63010096      5.59508045     -1.37374578
H      -2.05322858      0.74655866      1.38368385
H       3.80824995      3.10925297     -0.78082223
H       1.08326016     -2.15830087      1.26615257
H       2.62022547     -1.36083020      0.70460768
H       2.64419341     -2.53842772      2.06862344
H       1.94506157     -1.87380004      4.23138869
H       0.28343732     -1.74738935      3.61526011
H       1.06479253     -0.44138460      4.58141543
H       1.36287673      3.73006053     -3.09563364
H       0.60362505      4.87507967     -1.99260660
H       3.09311487      1.58101429      0.78369710
H       2.23378353      2.38795218      2.07621231
H      -0.89441108      3.44782740     -0.56080587
H      -0.71298313      1.96261891     -1.59559173
H       2.76631498     -0.06479046      2.73803469
H       1.23868593      0.26298329      0.09893819
H      -0.52239738      2.40946192      1.31012497
H       1.40383958      4.04463623      0.69722100
H       1.50314143      1.98993694     -1.60562177
