41
charge=0
O       0.36413970      2.19625479     -0.91969550
O       1.85772704      2.52255178      1.00943317
I       5.53265872     -4.24825881     -4.46474750
N      -2.19673447      2.99418962      1.38940446
C      -1.42832203      3.86773126      0.72398396
C      -0.63704773      3.92134385      2.82656716
C      -1.67860357      3.02861267      2.71518987
C       3.34384720     -1.89462773     -4.08386669
C       3.64295398     -3.32188554     -2.15333222
C       2.42863683     -1.09794370     -3.33619172
C       2.74849786     -2.49897722     -1.40004439
C       3.95986476     -2.98883313     -3.48076674
C       2.14640749     -1.41286143     -2.00453304
N      -0.47331928      4.43792216      1.56825516
N       1.87232731      0.25963995     -0.31733273
N      -0.17473033      0.83062752      1.21931546
C       1.11268414     -0.62804146     -1.24392597
C      -2.15217856      2.17912805      3.87163609
C       0.24209230      0.56226138      2.59532642
C      -2.23015399      0.70711088      3.46364934
C      -0.91434765     -0.10632405      3.37997929
S       1.00255910      1.56955504      0.24564014
H      -1.51482765      4.06053033     -0.34539186
H      -0.08081469      4.15807154      3.70980867
H       3.56772442     -1.65610936     -5.12410448
H       4.09011946     -4.13349472     -1.62604383
H       1.91985026     -0.25151751     -3.79743528
H       2.55480554     -2.78409475     -0.38986614
H       0.32137937      5.03001819      1.24886762
H       2.67805628      0.62636825     -0.79877377
H      -0.95560427      1.48153871      1.21386081
H       0.43909400     -1.26792621     -0.65863808
H       0.47732974     -0.02657787     -1.89200209
H      -3.17901502      2.47658988      4.11005288
H      -1.42211152      2.31155886      4.68051958
H       0.55037292      1.46958035      3.11170942
H       1.08878647     -0.12266455      2.61602087
H      -2.73530749      0.62694281      2.46549487
H      -2.86917786      0.21330987      4.22241730
H      -0.50669692     -0.28855024      4.40624549
H      -1.09665731     -1.10648335      2.93957982
