26
charge=0
Cl      0.85395505      5.41118388      3.21163945
N       0.55979592      4.34847271      0.76615774
N       0.60345643      3.26093490      0.12484684
N       0.74132354      2.77941855      2.33099645
C       0.71750087      4.02876055      2.11536165
N      -0.66974230     -0.88816102     -0.19576750
N       0.59301174      2.28701358      1.05348392
C       0.48026934     -1.48523044     -0.92242585
C      -0.75607407     -1.15631879      1.23562452
C      -0.60268626      0.52570702     -0.29943427
C       1.90316372     -0.92451591     -0.48674091
C       0.18986096     -0.09478120      1.84546184
C       1.78961095      0.57048858     -0.08061830
C       0.53468775      0.87925007      0.69519774
H       0.26098613     -1.30871078     -1.97185298
H       0.59121603     -2.58018073     -0.77986110
H      -1.87334749     -0.92195292      1.51857692
H      -0.42585436     -2.17939123      1.44177381
H      -1.53650001      0.97576990      0.04686897
H      -0.41750453      0.92946754     -1.29376810
H       2.29674701     -1.55783867      0.31225823
H       2.61244584     -1.13999484     -1.29626100
H       1.14745994     -0.63605354      2.20460771
H      -0.31053726      0.48766561      2.66369863
H       1.78804447      1.19927972     -0.95407363
H       2.68731785      0.94832527      0.47285660
