50
charge=0
N      -3.52828401      0.17864055      4.47954522
N      -1.59086316     -1.98730424      1.66181710
S      -2.15011449      2.31179732      3.99035648
C      -2.53973883      0.61429924      3.76814490
C      -2.27351714     -1.44704426      2.60427131
C       4.07655186      2.94632615     -5.73028716
C      -5.68803882     -2.77923460      4.81038242
C      -5.09306318     -3.65538307      3.88813376
C       3.00636436      3.38209862     -4.95947644
C       4.86231120      1.83127514     -5.34290403
C      -5.14313430     -1.50337824      5.04747851
C      -3.95770455     -3.26287357      3.19107016
C       2.66938820      2.69873156     -3.75925073
C       4.51487111      1.14896510     -4.16031880
C      -4.04730565     -1.09738869      4.27925267
C      -3.43002543     -1.94107890      3.36377936
C       3.44044419      1.56443322     -3.34042281
N       3.11413887      0.78687345     -2.19328737
N      -1.86663989     -0.17057726      2.84097932
N       0.93045396     -0.39842617     -0.71113802
C       2.61975537      1.42043137     -0.92666540
C       2.84592577     -0.64385935     -2.32487161
C       1.12358889      1.05137531     -0.69097643
C       1.38808489     -1.02162292     -1.98070804
C      -0.88733722      0.29140626      1.84190536
C      -0.39050567     -0.94669363     -0.24657100
C      -0.49853983     -1.06506795      1.26415752
H      -3.08016447      2.47319400      4.90464988
H       4.27815149      3.44791698     -6.66737618
H      -6.50781596     -3.09326501      5.42971358
H      -5.44884484     -4.70117341      3.73215160
H       2.35455108      4.18398395     -5.23862456
H       5.65648075      1.49159891     -5.98530131
H      -5.60507530     -0.83928362      5.80636759
H      -3.44514159     -3.96873294      2.53444668
H       1.82789125      3.00436388     -3.15000474
H       5.03529848      0.23065447     -3.90427136
H       2.78798191      2.53191454     -0.96051035
H       3.21124279      1.06964600     -0.06628674
H       3.08053868     -1.04104026     -3.33476782
H       3.51144216     -1.18173827     -1.60917346
H       0.84064400      1.47364150      0.27187379
H       0.48289923      1.48850747     -1.47017509
H       1.32629802     -2.09540930     -1.91456064
H       0.74783735     -0.76016102     -2.80824236
H      -0.00208461      0.73616683      2.28433988
H      -1.28762395      0.98532613      1.10674754
H      -1.22527111     -0.39067076     -0.67701904
H      -0.51658894     -1.97053682     -0.61203570
H       0.47028724     -1.38162495      1.66366076
