44
charge=0
O       2.08570893      3.27853224      1.74061488
N       1.51455652      0.99189949     -0.94191763
N       0.72251602     -1.40023452     -5.21480499
O       3.13168725      2.01916347     -2.09516063
O      -0.78809126     -2.41638993     -3.78515885
O      -1.06604914     -0.42755227      1.91801834
C       1.78781574      2.17918079      1.24381759
C       2.10419888      1.12496031     -2.10367593
C       3.19877358      2.49086048     -0.83635273
C       2.16756017      1.92314293     -0.13249740
C      -1.61150854     -2.66726811     -1.58122701
C      -1.74926922     -1.96614537     -0.41895638
C       1.65000660     -0.47425634     -5.45974959
C       0.19876669     -1.48462598     -3.94880709
C      -1.71380468      1.59482010      4.98348677
C      -0.54516556      2.36411822      5.01305193
C      -1.88132923      0.66007019      3.96432143
C       2.11118367      0.40805248     -4.48333171
C       0.61498148     -0.66137014     -2.92996953
C       0.43997558      2.22108520      4.00579537
C      -0.88492241      0.46624183      2.97351763
C       1.61255470      0.30130641     -3.18090902
C       0.25930945      1.29355525      2.97102888
N       1.17622218      1.15393779      1.90995509
C      -1.83574418     -2.02289217     -2.88040685
C      -1.82125885     -1.63871415      2.06861310
C      -1.47816075     -2.58838655      0.90305349
H       3.88739595      3.23535229     -0.42176738
H      -1.28885584     -3.71670312     -1.53784973
H      -2.13783453     -0.96196618     -0.46101888
H       2.01680076     -0.37314417     -6.47040986
H      -2.43866473      1.80165523      5.81036704
H      -0.35247723      2.95917991      5.92329643
H      -2.78744647      0.07051742      3.96089578
H       2.87452753      1.11888821     -4.74433317
H       0.17973091     -0.75930858     -1.95547087
H       1.33267469      2.79700528      4.04229182
H       0.95601355      0.36040248      1.24757531
H      -1.89597656     -0.93122723     -2.78252121
H      -2.77129474     -2.38162295     -3.30278356
H      -1.58744811     -2.11676461      3.02175203
H      -2.89431914     -1.42896749      2.05165757
H      -0.42374740     -2.87879067      0.94611775
H      -2.06959214     -3.51759728      0.96985046
