48
charge=0
N      -2.73640488      1.22096243      6.56070260
O       0.37844767      1.50690079      2.13376770
C      -2.86675320      0.50410071      5.65890767
N       4.64280815      3.00088423     -0.98694559
N       2.44041036      3.55216516     -0.37681566
N      -3.35299068     -1.97587867      2.25759124
S       3.00767144     -0.37779019      2.24330197
S      -0.72306522     -1.89438347      1.62523700
C       1.00606272      1.15839951      1.12193549
C       4.67494659     -0.10291228      1.84545818
C       4.83267993      0.99915307      0.99922643
C       2.46968256      0.98788010      1.27623813
C       3.52117660      1.63698467      0.66367620
C       3.50735691      2.76597055     -0.28369580
C       4.70420491      4.03722778     -1.78740406
C       2.46881934      4.56274392     -1.26993035
C      -4.41024141     -1.65349862      3.04618956
C      -2.14241838     -1.50508829      2.60744539
C       3.59893276      4.80221596     -2.03719999
C      -4.28862779     -0.81919022      4.16666166
C      -1.90834307     -0.76552508      3.75477942
C      -3.01930568     -0.38137368      4.53999524
N       0.35102074      0.55059674      0.04372534
C      -1.09912865      0.29903079      0.04943046
C      -0.57480478     -1.90319248     -1.11173537
C       0.56752041      0.74608251     -2.40486293
C       0.89436131     -1.46863802     -1.14475949
C      -1.32164327     -1.21581272      0.03990220
C       1.08597385      0.07490816     -1.12703725
H       5.44065316     -0.80831146      2.15488002
H       5.78263028      1.30051619      0.62563762
H       5.64351798      4.21802875     -2.30566138
H       1.58922515      5.23091584     -1.32536907
H      -5.40701587     -2.06658410      2.76590999
H       3.56685438      5.59929439     -2.75220007
H      -5.17777183     -0.54878556      4.75519048
H      -0.91222283     -0.45982425      4.01175039
H      -1.54464678      0.80987812     -0.80512092
H      -1.60451290      0.70949219      0.93280531
H      -1.10483764     -1.65851282     -2.05505369
H      -0.54076086     -3.01286038     -1.04896303
H       1.19739266      0.46734909     -3.27864680
H       0.60003627      1.84432156     -2.29287650
H      -0.41899344      0.41514060     -2.65059834
H       1.43283321     -1.89659641     -0.29325771
H       1.39228646     -1.89591815     -2.02431658
H      -2.40831381     -1.44479750     -0.06422106
H       2.16580268      0.25483661     -1.05316851
