32
charge=0
N       1.28760907      0.92740265     -2.17485911
N       2.88549284      1.40715395      1.99020151
O      -2.66079909      1.92221070     -1.35570989
O       0.24569742     -1.64039631      2.75788560
S       3.76100595      1.76455280     -1.96995040
S       4.35411837      2.29696503     -0.03103278
S       1.20706073      3.25195292     -0.98467871
S       3.25296174     -0.56221388      0.31957580
C       2.04054363      1.95240277     -1.86290122
C       3.53130139      1.06816330      0.91950947
C      -0.24298106      2.30723794     -1.06949195
C       2.20518126     -0.77949711      1.63750245
C      -0.04047982      1.17158055     -1.80510662
C       2.13444042      0.32143646      2.41621809
C      -1.63891601      2.72077346     -0.65934632
C       1.38832511     -2.00275272      1.98824178
C      -2.40086600      0.50860495     -1.27552075
C       0.66011290     -0.94122776      3.95373689
C      -1.16858500      0.22537448     -2.12748011
C       1.20281349      0.43737417      3.55407758
H      -1.75991912      3.75319427     -0.95753896
H      -1.77342011      2.66028635      0.42325718
H       2.03253703     -2.71975631      2.53571642
H       1.01040490     -2.47418970      1.08781865
H      -3.22255379     -0.09054087     -1.72536347
H      -2.26994084      0.16999996     -0.23857884
H       1.43227820     -1.50113438      4.49820765
H      -0.18684850     -0.82766899      4.60182449
H      -0.91527005     -0.78696296     -2.00171248
H      -1.42765713      0.40110438     -3.17754242
H       1.65249371      0.91547280      4.45130833
H       0.35752921      1.07676767      3.21540222
