44
charge=0
O       6.42416913      0.66475018      0.25701493
N       3.37595132      0.00026669     -1.33698325
N      -4.06566199     -1.22229221      1.92641454
N       3.67752994      0.64963168      0.80243510
N       0.01552125      0.25084054      1.31389594
N       0.53947548      1.98223944      3.52024499
C       5.68118146      0.22754579     -0.69830584
C       4.22731303      0.24993799     -0.39880870
C      -4.14397909     -0.44969413      0.90208813
C       2.34227743      0.44006955      0.57164287
C      -2.92789940     -0.79929276      2.64611366
C      -5.26707240     -0.27487215     -0.23555265
C      -5.02230594      0.66987238     -1.24028066
C      -3.77014539      1.41546587     -1.23761983
C      -2.84394598      1.13697986     -0.24717913
C      -2.24242789      0.11373802      1.94081067
C       1.28872475      0.74712855      1.54983232
C      -0.92778190      0.68786651      2.18575881
C       1.51133261      1.56022055      2.69096480
C      -0.75568075      1.74253689      3.20781032
N      -3.06417549      0.34138878      0.81179035
N       2.75396311      2.23754831      2.97753777
N       6.15236132     -0.69638023     -1.71662852
N       2.19763277      0.03543451     -0.78768192
C      -1.83166550      2.31875359      3.97716030
C       7.49649715     -0.78632128     -2.15051140
C       1.04148500     -0.17428842     -1.57408855
H      -2.63104493     -1.21067286      3.60303667
H      -6.13650583     -0.89558732     -0.25182102
H      -5.76465167      0.92842617     -2.05005526
H      -3.41587897      2.03913196     -2.05710767
H      -1.92763204      1.74178759     -0.22843061
H       2.94281698      2.56012645      3.88881304
H       3.55319013      1.84403907      2.57685677
H       5.38864766     -1.06326883     -2.33762873
H      -1.50924343      2.27499454      5.00347091
H      -2.78032770      1.82969883      3.67036019
H      -1.96936007      3.32852867      3.63506207
H       7.72466375     -1.92107394     -2.11705403
H       8.03824602     -0.30498288     -1.29383559
H       7.64849803     -0.30761060     -3.10489748
H       0.77632713      0.81238440     -2.12669965
H       1.26264088     -0.98019466     -2.25002004
H       0.22073859     -0.46100346     -0.93412740
