48
charge=0
O       0.93131561     -4.94600295     -0.13855461
O       3.58266798      0.20392750      0.03110483
O       3.16729398      1.62300929      2.04084782
O       1.30370554      4.10841273      1.68983396
O      -0.39568367      4.01669886      3.14333260
N       1.88838000     -0.45992001     -3.28301945
N       2.19382383     -1.52455376     -2.55845172
N       1.04301646      0.30722822     -2.52636300
N      -0.60691104     -3.16333187     -0.08105025
C       0.05269622     -4.33693713     -0.64750049
C       0.93030610     -0.26871047     -1.35912507
C      -1.19714424     -2.44019941     -1.03102933
C      -1.20918385     -2.56075980     -3.43595950
C      -2.00302171     -1.30366037     -3.45606375
C      -0.98300039     -3.21623289     -2.23929066
C      -2.27045737     -0.54346131     -2.31074459
C      -1.77188442      0.41896162      1.13015329
C      -1.18514651      1.33732730      1.96045643
C       0.28332115      0.22173798     -0.18979422
C      -1.13004592     -0.10675142      0.00195959
C       0.93490913      1.04942738      0.79033398
C       0.11902310      1.72636649      1.74608555
N       1.72643903     -1.30212809     -1.32245905
N      -0.16956142     -4.34349270     -1.96743819
N       2.45995342      4.42727024      5.49208485
N       2.99445962      2.90450601     -0.06866864
C      -1.91408197     -1.06281816     -0.91932079
C       1.26960421      3.59701655      5.46677803
C       2.96377486      3.72561597      4.22667564
C       1.64519338      2.94851740      4.08053314
S       2.78758298      1.32983886      0.64260766
S       0.65651604      3.20568746      2.64759080
H      -0.96279155     -2.92448611     -4.47836684
H      -2.43927588     -0.99602839     -4.42368057
H      -2.53598363      0.58015464     -2.42006639
H      -2.85089973      0.46456691      1.11998762
H      -1.64285301      1.72315456      2.83896471
H       2.20822993     -1.56416083     -0.42422169
H       0.44649810     -4.63348350     -2.58566162
H       2.26467873      5.41718230      5.36950631
H       2.60050930      3.62461908      0.54874942
H       2.68468427      2.94057779     -1.02174814
H      -2.80433904     -1.34683111     -0.37265169
H       1.09609259      2.84243275      6.20165577
H       0.42851031      4.33146911      5.51477448
H       3.16679992      4.44528014      3.38247838
H       3.85919691      3.01987696      4.38485283
H       1.78358906      1.90359142      4.21038967
