42
charge=0
N      -2.86122790      3.95223476      2.08674336
O       1.69527195     -0.79190941      2.69934775
O       4.88200213     -1.25888480     -1.13125510
C      -2.06871025      3.15805083      1.34959073
C      -2.33095658      5.23567178      2.03040546
C      -1.18828173      5.24661489      1.29177872
C       0.64247740     -0.18462489     -0.72629462
C       1.01527225     -0.40066927      1.60131397
C      -0.52036091      0.57154756     -0.52698587
C      -0.13800297      0.37289484      1.86318371
C      -0.92490886      0.87561517      0.78285059
C       1.42960601     -0.72300264      0.28230722
N      -1.01028902      3.92916410      0.89552474
C      -1.28941778      0.99261825     -1.77543901
C      -0.50844929      0.72028535      3.30214490
C      -2.20852314      1.69394506      1.01316288
C       2.21708802     -2.58945240     -1.21319655
C       3.35372699     -2.36061713      0.99890906
C       3.72676357     -0.56969734     -0.65667772
C       2.64073849     -1.56970190     -0.12140421
H       1.42331552     -0.30137054      3.48880047
H       4.65062942     -1.96047687     -1.77975627
H      -2.85370490      6.09976739      2.46131424
H      -0.63951597      6.11260601      0.98528620
H       0.96447542     -0.33170269     -1.74578112
H      -0.28158394      3.56458819      0.28622018
H      -1.37568142      2.05488438     -1.86818289
H      -0.76769816      0.67615108     -2.70360988
H      -2.31514575      0.59035911     -1.87843941
H      -1.09323696     -0.08244542      3.76435615
H       0.42986530      0.86870287      3.92008648
H      -1.07513408      1.64931610      3.37950415
H      -2.75175596      1.25204435      1.83931366
H      -2.86930125      1.68897855      0.11141815
H       1.29129285     -3.07067277     -0.95650541
H       2.09553938     -2.05498910     -2.13651155
H       2.98535803     -3.37563742     -1.36856895
H       2.60553045     -2.98787150      1.47767186
H       3.80406099     -1.68284602      1.71171247
H       4.14740272     -2.98116882      0.54777157
H       4.00724905      0.16920718      0.11961170
H       3.28966434      0.02793684     -1.47627874
