32
charge=0
O      -1.83277387     -0.23339597      2.37967016
C      -1.00544703     -0.46340887      1.44248930
C       0.15732756      3.82233533      0.34569692
C       0.44177363     -3.26429091     -0.48812791
C      -0.08139495     -1.96342322     -0.17743520
C       1.09407584      2.66879295      0.20261391
C       0.57526415      5.09834851      0.08768230
C       0.29547794     -4.33747459      0.31333612
C       2.43486765      2.87397467     -0.02257088
C      -0.59769798     -1.71092129      1.04210239
C      -0.48475096      0.89777257      0.98907357
C       0.70927462      1.32489986      0.42347690
C       1.89873202      5.41900464     -0.42656294
C       2.97138316      4.27297365     -0.18588314
C      -0.48007700     -4.22714750      1.62584436
C      -1.01087115     -2.84724446      2.00053877
H      -0.84653209      3.67730032      0.61746492
H       1.06210823     -3.45889213     -1.37737973
H       0.19085197     -1.13432647     -0.81772215
H      -0.20479140      5.93176618      0.15899049
H       0.78128639     -5.28304901     -0.04480354
H       3.04170286      1.95836675      0.10625189
H      -1.15256195      1.62163194      1.19450321
H       1.53538572      0.64572307      0.25911510
H       2.27229030      6.41487273     -0.08065257
H       1.70773409      5.49643908     -1.50744456
H       3.76254946      4.23343888     -0.96209272
H       3.44107022      4.75702645      0.67842345
H      -1.31838554     -4.94135602      1.62320864
H       0.23088542     -4.54087537      2.44702497
H      -2.13003244     -2.94445360      2.09836259
H      -0.52505431     -2.83073644      2.98847583
