50
charge=0
F      -4.61173708      1.32889817     -5.28919076
Cl      5.35549486     -1.83784938      2.83560921
O       1.09768001     -4.27009405      4.18116491
O      -0.59504207     -2.36014779      2.97741413
O       1.30914265      2.45341375     -3.79426196
C      -2.26408272      0.64861952     -5.31598229
C       2.99090604     -3.01193407      3.41511895
C       2.79290540     -0.90815765      2.28292985
C      -3.22329186      2.24082281     -3.65927604
C      -1.01931012      0.81123251     -4.78945355
C      -3.32306343      1.33245504     -4.73856033
C       3.63699593     -2.02026540      2.76955769
C       1.60353802     -3.10316649      3.56565177
C       0.75403549     -2.10959234      2.96695828
C       1.38288598     -0.93907373      2.34300793
C      -1.90465525      2.26745109     -2.98245268
C      -0.85510618      1.55057468     -3.60528192
N       0.63532172      0.02314561      1.72816498
N       0.23960482      1.75890437     -0.43210048
C      -0.30508318     -4.45452606      4.33512690
C      -1.03245500     -3.68838952      3.22540085
C      -0.63640252     -0.17996093      1.03660175
C       1.00211853      1.45194024      1.89449462
C      -0.57705311      0.51760548     -0.37675680
C       1.39777769      1.94152250      0.48524146
C      -1.37654704      3.05297904     -1.85262313
C       0.47532569      1.73362127     -2.88290216
C       0.09504444      2.63804359     -1.64830526
H       0.87034693      3.21811225     -4.13587698
H      -2.59370569     -0.09649758     -6.06059295
H       3.60497004     -3.89427879      3.75768955
H       3.38668424     -0.17364197      1.72160424
H      -4.07426624      2.80728930     -3.31764461
H      -0.16012085      0.27407182     -5.19316454
H      -0.70337807     -4.13842729      5.25828420
H      -0.45943967     -5.63658089      4.36026769
H      -2.06312767     -3.62082528      3.36739779
H      -0.80219734     -4.28761594      2.29279752
H      -0.87987900     -1.25641296      0.91814089
H      -1.41777268      0.26347401      1.54747807
H       1.77393474      1.57159249      2.61960978
H       0.04878422      2.00665553      2.28103560
H      -1.59524099      0.59088850     -0.67113385
H      -0.15590228     -0.10143876     -1.04881150
H       1.65085103      3.02547089      0.57410266
H       2.20428826      1.31306627      0.15106260
H      -1.45161108      4.09747139     -2.12286119
H      -1.87362833      2.83988673     -0.91270498
H       0.82333123      0.74646126     -2.55027493
H       0.82213032      3.58320696     -1.51170013
