27
charge=1
O       1.26354221      2.64187525      1.63095685
O       0.18972727      1.92992800      3.68112844
S      -1.49962519      1.98945196      1.29460546
C      -0.83808946      0.34345442      0.76515030
C       2.09214855     -0.72004563      0.55478960
C       0.25558512     -2.03272439     -0.39389571
C       1.73835071     -0.78341985     -1.83504321
C       0.18455612      0.43194255     -0.38646361
C      -0.35430297      4.42303965      2.82738018
N       1.05375953     -0.75555850     -0.49407827
S       0.06891330      2.73061917      2.44704238
H      -1.66931727     -0.30065300      0.54428959
H      -0.35211324     -0.07228014      1.64202435
H       1.70241974     -0.42165068      1.53937962
H       2.86329601      0.00038793      0.26803646
H       2.51279363     -1.72362832      0.72449909
H      -0.02445541     -2.20315807      0.67170834
H      -0.63174530     -2.04531282     -1.03939317
H       0.87187026     -2.90826449     -0.70022381
H       2.36597059     -1.65106627     -1.93370073
H       1.01756291     -0.79608209     -2.65304747
H       2.38514676      0.09560018     -1.95459225
H      -0.40142844      0.59613882     -1.30145840
H       0.84364920      1.28810263     -0.26651285
H      -0.35829668      4.96476026      1.88549169
H       0.40083801      4.78801930      3.57015512
H      -1.39297179      4.47830880      3.19955555
