45
charge=0
O       1.44236187      4.24939329     -1.50430177
O       1.29079879      5.31749375      0.67910026
F      -4.41935511     -3.45440316     -1.42188619
F      -1.03140329      2.99008848     -0.66368951
F      -5.88600387     -0.15467643      1.28802112
F      -5.75499343     -0.90287856     -0.77599582
F      -7.37732761     -1.61189750      0.50995401
Cl      1.88440364     -0.46767781      3.05836859
N       5.84039195      2.09066774     -1.35083662
N       5.28031374      3.08979167     -0.61616668
N       2.80974650     -1.93386260     -1.43553605
N       1.82754493     -1.63268040     -2.28270149
O      -0.85328239     -0.99376497      1.93182591
O      -5.29462850     -2.38746342      0.96598443
S       3.33401839      1.66450695     -1.46508418
C       4.96304844      1.26132497     -1.84961736
C       4.01692470      3.00301567     -0.58896195
C       2.52625702     -2.30916752     -0.17611525
C       0.53849272     -1.67270255     -1.91765750
C      -0.95161763      1.04095598      0.60361023
C      -3.01698852     -1.74372991      1.45881917
C       1.21078578     -2.42664947      0.24544560
C      -2.18521479     -2.78344273     -1.00738336
C       1.53482655      1.77630678      1.58432400
C      -3.52860851     -2.86051204     -0.58966369
C      -0.36817504      2.25238312      0.22797266
C       0.94093165      0.58032516      2.03487589
C      -3.96310545     -2.30657355      0.60784820
C      -0.31261972      0.19982349      1.51977360
C      -1.68867563     -1.63353277      1.05982425
C       0.14807738     -2.08287878     -0.62621319
C      -1.25995746     -2.14930652     -0.19769982
C       0.90931150      2.58832952      0.65392977
N       3.32395895      3.89427475      0.20659408
C      -6.07231980     -1.25499347      0.50240299
S       1.65561227      4.07120370     -0.05329777
H       5.22159976      0.44088041     -2.53618449
H       3.35402877     -2.56870899      0.50115420
H      -0.17976005     -1.40500383     -2.68248167
H      -1.89764056      0.78788732      0.20170230
H      -3.35030133     -1.35511654      2.42275927
H       1.02283639     -2.79055292      1.24933393
H      -1.88506348     -3.28059152     -1.93525698
H       2.49838450      2.03031942      1.96376715
H       3.70238685      4.83379624      0.19934013
