41
charge=0
O      -2.36316921     -1.92629859      1.92148272
O      -1.42044651      1.96138628     -2.46407525
O       0.11115619      0.02740946     -2.83994476
N      -0.50236092     -2.40044687      3.12539814
O       0.04143652      3.96442665     -0.47924014
C      -1.22682017     -1.62568237      2.31154019
C      -0.69353330     -3.65390642      3.38550711
C       0.86522315      1.56474535      1.66891064
C      -0.72997904     -0.27152261      0.28819376
C      -0.57286510     -0.43976669      1.69596788
C       0.31479069      0.49288121      2.38949115
C       0.70500353      1.76887183      0.34724794
C      -0.14231394      0.86328140     -0.32352491
N      -1.71144412     -4.42414234      2.90228247
N       0.32376677     -4.30721249      3.94973744
C       0.71618086      0.17148545      3.77963128
C       2.39725539      3.72313681     -0.09235552
C       1.19837397      3.47341658     -3.13613207
C       2.55603893      1.69205851     -2.34696575
C       1.08039405      2.97141041     -0.59941692
C       1.21573690      2.40597495     -2.01128291
S      -0.17098490      1.27719422     -2.07463688
H      -0.75283956      3.56324881     -0.07926427
H       1.71702884      2.09257499      2.10767740
H      -1.32159167     -0.84566697     -0.43305937
H      -1.94379777     -5.23223604      3.52240949
H      -2.42780489     -3.82324322      2.64755699
H       1.12926382     -3.75052587      3.96388086
H       0.57877603     -5.17125865      3.43936825
H       1.64500603     -0.41027461      3.92951863
H       0.83910295      1.16916548      4.33276660
H      -0.09517268     -0.38188998      4.28854199
H       3.25166753      3.06190451     -0.23083553
H       2.29254443      4.13203751      1.01157484
H       2.58712817      4.52811699     -0.74011929
H       2.02958703      3.99327999     -3.28666539
H       1.08915903      2.87333375     -4.01686464
H       0.45834931      4.16221911     -3.07704792
H       2.71678889      1.13371280     -1.40040976
H       2.50964882      0.96073303     -3.13793851
H       3.40198082      2.33233230     -2.54264064
