16
charge=0
S      -0.67529221     -2.30614055      0.76867335
N       0.59800324      1.97041444      1.31275919
N       1.54700583     -0.44982537     -0.82643125
C      -0.55876350     -0.66357697      0.55257470
C      -0.20316098      1.22667067      2.08025718
C       2.48060069      0.44447632     -0.56312202
N      -0.95361180      0.02809354      1.72302575
N       1.95307385      1.50990454      0.12427377
C       0.23783432      0.02396204     -0.48275527
C       0.51833056      1.50315985     -0.04950992
H      -0.24148950      1.38291323      3.15810306
H       3.45888583      0.26791212     -0.76597423
H      -1.57223770     -0.38689932      2.40876927
H       2.14254328      1.62999837      1.08099510
H      -0.41418467      0.05631306     -1.34601873
H       0.14929836      2.22945932     -0.70878490
