49
charge=0
N       4.82161116      3.64104333      3.03250892
N       3.23014013     -2.67605353     -1.14990188
N      -5.28410224     -0.29144672     -0.21311280
N      -0.26440988      2.30685137      1.89585860
O      -5.32065092      1.02977625     -1.03168426
S       1.55300841     -4.28318449      0.04268422
C       4.46879692      2.65116079      2.26122078
C       3.02879308     -3.98997773     -0.86335527
C      -4.07179264     -0.36193994      0.34005681
C       1.09111435     -2.69132563     -0.16259793
C       3.00697702      2.72420188      2.04797681
C       2.18574695      1.83541489      1.17271957
C      -3.37707722      0.94399993     -0.00371907
C       2.53731670      3.65240354      2.81643152
C       2.70730477      1.02380792      0.17667292
C      -4.13876769      1.64036200     -0.86698518
C       2.02571588     -2.01184245     -0.95020539
C      -1.48321053      2.23744813      1.48845726
C       0.72127726      1.68620505      1.17282795
C      -0.93658681      0.57886845     -0.15865597
C      -1.94431972      1.29832015      0.47621198
C       0.38801059      0.76938127      0.12606864
N       3.63953212      4.20216089      3.42411128
N       1.63917023      0.36045074     -0.39212570
C       3.88758091     -5.14426575     -1.31315572
C      -3.57933620     -1.60708618      1.10027108
C      -3.75195785      2.76414619     -1.66770714
C       3.76042584      5.13029114      4.49858009
C       1.88785414     -0.62637424     -1.50574296
H       5.18558300      1.99930297      1.78656682
H       0.16620549     -2.29278945      0.28188254
H       1.54001789      3.92192472      2.97340736
H       3.70458238      0.78221106     -0.11258833
H      -2.19728077      2.68876901      2.05629895
H      -1.24036658     -0.19678842     -0.93170471
H       3.57792945     -6.08433531     -0.90488977
H       3.70916699     -5.14476335     -2.42032630
H       4.89214837     -4.95507679     -1.03890106
H      -3.74508813     -1.52569935      2.24792367
H      -2.46454282     -1.66047432      0.93926815
H      -4.07206919     -2.55786203      0.67372245
H      -3.64812173      3.72337552     -1.11613149
H      -2.73846971      2.58752080     -2.08744711
H      -4.39918929      2.81914030     -2.58204218
H       2.80246346      5.25027319      4.89885484
H       4.24970012      6.06695927      4.22709956
H       4.34129691      4.61737113      5.33008610
H       2.83378409     -0.34723898     -1.93862245
H       1.00376808     -0.55493450     -2.14648268
