40
charge=0
F       1.89324495      0.80634340     -3.32525619
F       1.38123914      2.68987145     -4.64565092
F      -0.09064637      1.64813582     -3.43974170
N      -0.00435261     -4.21911201      2.73056871
N       1.79503733      4.30379391     -2.42625583
N       2.04669068      0.27625776     -0.43744896
C      -0.33080332     -3.00283778      2.60152898
C       1.42320626      3.01179604     -2.28217614
C       1.56764641      2.60940777     -0.81850154
C       1.93580757      3.78626482     -0.22586076
C       1.33882224      1.41767150     -0.03982852
C       2.36435895     -3.15158484      0.26492881
C       1.36617483     -3.25615676      1.17889626
C       0.33375244      1.33404069      0.88306273
C       2.52699029     -1.88865492     -0.35157498
C       0.55971082     -2.28630504      1.71529545
C       0.06625416      0.12798961      1.60867978
C       1.71806327     -0.87015220      0.09140678
C       0.75016882     -1.00794574      1.11493683
N       1.97882527      4.78313467     -1.20888395
N       1.01256013     -4.41799959      1.89680396
C       1.22151352      2.01730013     -3.44262004
C      -0.55172415      2.58311686      1.03722684
C      -0.97469301      0.16823261      2.61693280
C      -1.87184018      2.19795727      1.66192522
C      -1.51393553      1.61056658      2.96197902
H      -1.15075993     -2.62526730      3.20599177
H       1.98942950      3.84568027      0.88192194
H       3.10510667     -3.89266437      0.04993644
H       3.26680994     -1.74946263     -1.04257930
H       2.13503794      5.71559845     -0.92021821
H       1.42735131     -5.33369292      1.85540635
H      -0.13121417      3.36244478      1.65141335
H      -0.83181234      3.15723126      0.09996777
H      -0.61929426     -0.34731194      3.51395386
H      -1.89652652     -0.36579619      2.20595113
H      -2.54233305      3.05117816      1.78451083
H      -2.47977758      1.44965223      1.03123542
H      -2.29561278      1.49926474      3.66877177
H      -0.75138758      2.12910210      3.46045306
