43
charge=0
O      -2.41300011      0.90713016      0.12580215
F       0.73469012     -4.29719645      1.44999224
Cl     -0.14005111      8.48534842      3.68573929
Cl      3.10797845     -5.09657614      0.16873448
C       1.98988571      7.54717286      2.26197298
N       0.33127616     -0.70150824      1.81687699
N       1.31842352     -0.00532530      2.09975079
N      -2.26521998     -2.19791917     -1.43521193
O       1.11502287      3.69015988      1.73072892
C      -1.87128569      0.02173885      0.54260067
C       0.73144048      7.45848343      2.58657304
C       3.05474057      6.78981997      1.89917612
C      -1.45479802     -2.47383568     -2.47393006
C       1.59665000     -4.58140887     -2.10210554
C       0.34499242      5.98791748      2.39727608
C       0.66740376     -4.10159726      0.10982125
C       1.69335158     -4.62424969     -0.63545344
C      -0.40879777      0.10815813      0.89882745
C       0.58377036     -3.91594648     -2.80390629
C       3.33116175      4.33777033      1.60395550
C       1.25600570      5.06945304      1.99255096
C      -0.47834610     -3.33585284     -0.56813131
C       0.41965613      1.07779529      0.38952846
C      -1.67805197     -2.69930940     -0.33921056
C       2.42205325      3.26676553      1.45102428
N       2.59611647      5.39977043      1.97653587
N      -0.38236682     -3.27002792     -1.97600648
N      -2.76729932     -0.90340865      0.94237467
N       1.50152764      0.99902192      1.22730011
C      -2.42770169     -2.34031783      0.92423097
C       2.79008131      1.78229561      1.36583355
H       4.11077556      7.12369725      1.84265832
H      -1.70353454     -2.38240695     -3.47579203
H       2.38895192     -5.22499312     -2.59066283
H      -0.66064166      5.54832598      2.51099476
H       0.67351308     -3.96142921     -3.88537402
H       4.40762624      4.44911053      1.34315010
H       0.16425546      1.91817264     -0.26907089
H      -3.66905640     -0.57372675      0.54734639
H      -3.28518117     -2.99942777      0.91874541
H      -1.78389211     -2.59724641      1.73291878
H       3.33657400      1.40911393      2.26062931
H       3.47591920      1.66110818      0.50582580
