24
charge=0
Cl      2.13439172     -1.97041772      2.78811742
N      -1.24877186      1.99426518     -0.84475334
N      -1.38126008     -0.48318001      1.66078242
O      -1.98362676      1.08312806      0.01138767
C       0.02820470      1.70453617     -0.63315533
C      -1.05883776      0.31848135      0.65110782
C      -0.41317254     -1.16411507      2.21751043
C       0.96263227     -0.86958571      2.00543551
C       0.24572274      0.69599088      0.36270784
C       1.27108338      0.11951669      1.11973882
N       1.04444453      2.42162050     -1.33957053
C      -0.89282177     -2.22026487      3.25402708
C       2.72366921      0.59570828      0.90878198
C       0.84281121      3.36386818     -2.50716361
H       1.84720104      1.84974138     -1.58720991
H      -1.95212382     -2.28578751      3.31732264
H      -0.42719970     -1.91454285      4.19239744
H      -0.55401501     -3.20516841      2.85959658
H       3.23974664     -0.26638363      0.50555991
H       3.20836570      0.88517317      1.85244701
H       2.71665062      1.26898626      0.14496544
H       1.23276825      2.87299109     -3.44841862
H      -0.21788404      3.61490054     -2.50920446
H       1.33227411      4.29079077     -2.28215646
