34
charge=0
O      -3.83374323      1.23460977      3.75093237
F       0.72853412      2.32960636      5.09405131
F       1.78383433      0.59435844      4.33115924
F       1.77782833      2.52027601      3.17200097
C      -2.79227155      1.07852100      3.17368175
C      -1.51241511      1.51027547      3.76594054
C       2.14927119     -0.67165390     -0.77949206
C      -0.28075390      1.29256384      3.19020163
C       2.04503160     -1.00117916     -2.12720709
C       0.90579230      0.30840875      1.20876649
C      -1.51423404     -0.39904965      0.02718038
C      -0.30111322      0.63971090      1.87437107
C       0.90031166     -0.34035018     -0.01908734
C      -1.54165287      0.28386085      1.28969067
C      -0.33095945     -0.69516753     -0.60146175
N      -2.74622663      0.53937909      1.92906402
N      -0.30466718     -1.39096828     -1.81370481
C       1.01086869      1.68113067      3.93225365
C       0.30396179      0.30828211     -3.43762439
C       0.75938573     -2.06842890     -3.94809224
C       0.70782813     -1.04003264     -2.82784043
H      -1.64037348      2.05060749      4.70308406
H       3.14274214     -0.66939144     -0.32096829
H       2.93293846     -1.24057135     -2.65831489
H       1.86458717      0.52020402      1.64893849
H      -2.46990386     -0.70646018     -0.42491938
H      -3.61661286      0.19667155      1.58241889
H      -1.13362764     -1.80681288     -2.15672027
H      -0.58506034      0.18878106     -4.08593707
H       1.10740486      0.67142024     -4.08283844
H       0.09610292      1.03793217     -2.65388117
H       1.47911280     -1.71559926     -4.67443839
H       1.11209040     -3.04353781     -3.60204047
H      -0.20401110     -2.19739583     -4.45916644
