45
charge=2
Br      0.89619380      5.57058564      3.96149305
C      -2.24912275      2.81270231      3.62425421
C      -1.49161834      3.98905243      3.82436559
C      -1.65002969      1.67298743      3.10697190
C       0.52355902      2.82611423      2.99556508
C      -0.09562728      3.98765325      3.54217486
C      -0.27206193      1.69056660      2.77932594
C       2.46621578      1.82085626     -1.92652203
C       1.99489929     -3.04900735     -0.58703168
C       2.24440920     -0.59650754     -1.30569227
C       0.16409632      0.73081438     -1.81443303
C       0.00074776     -1.62141771     -1.19291087
C       0.40287042      0.39359128      2.42996990
C       1.29977585      1.19720190      0.29694483
C       1.21563445     -1.17424025      0.91565675
C      -0.82374884      0.12837377      0.34695909
C       1.55640858      0.78960525     -1.19539810
C       1.39924626     -1.60988617     -0.54857537
N      -0.67143034     -0.28973850     -1.06740895
N       0.51068366      0.13465482      0.95622400
H      -3.29934327      2.84382007      3.95431851
H      -1.98067928      4.84315370      4.29116977
H      -2.24005699      0.78199052      2.89340621
H       1.59924599      2.84084003      2.77695428
H       3.30011490      2.11391945     -1.25436037
H       2.86964088      1.40668650     -2.87433526
H       1.90094926      2.72716274     -2.17166232
H       2.25263217     -3.24820529     -1.61137606
H       1.26561334     -3.78952696     -0.21829477
H       2.89556541     -3.19525860      0.02254214
H       2.30285520     -0.86064624     -2.37428415
H       3.28068866     -0.64093609     -0.92079529
H      -0.25697301      1.72967279     -1.65591810
H       0.20154600      0.57902590     -2.90970707
H       0.07524675     -1.91044348     -2.25571188
H      -0.62404036     -2.38685378     -0.70702691
H       1.43832860      0.35560336      2.82725325
H      -0.09712688     -0.41191063      2.94092449
H       0.84357388      2.18779563      0.37565225
H       2.25426425      1.28942081      0.83581267
H       2.15601197     -1.06404374      1.44317097
H       0.63988229     -1.99721291      1.40798954
H      -1.46123777     -0.55644439      0.89986888
H      -1.28975868      1.09990570      0.45881635
H      -1.63507035     -0.32850149     -1.50336550
