32
charge=0
N      -0.02990667      2.42370501     -2.99387926
C      -0.00769827      3.28628487     -3.93729346
C       1.90087482      0.81714633     -0.22135232
C      -0.47637722      1.23042283     -0.23849300
C       1.70341657     -0.06765447      0.94734370
C      -0.67625643      0.51708259      0.94921404
C       0.78278271      1.37104495     -0.90177606
C       0.41602417     -0.17690024      1.47587072
N       1.00982303      4.13726177     -4.26586346
N      -1.06735811      3.13164839     -4.81867655
N       0.95284642      2.17275921     -2.06798454
N       0.33621141     -0.92062055      2.70106285
N       0.11086171     -1.57853741      5.43355508
N       0.56737993     -3.25500991      4.40143000
N       1.47505468     -1.12651556      3.57501780
C       1.24575865     -2.01660660      4.74040084
H       2.85845731      0.98193562     -0.62182534
H      -1.31440237      1.75454875     -0.69612393
H       2.60165867     -0.49337994      1.46281736
H      -1.64283560      0.33040997      1.42997581
H       0.70909212      4.82791137     -4.96480820
H       1.67821536      4.33454503     -3.52969985
H      -1.55305648      2.22753681     -4.63968934
H      -0.76984821      3.42588845     -5.76148239
H       1.92112088      2.48091686     -2.27024970
H      -0.65675601     -0.91949566      3.04582242
H       0.03162491     -2.04625704      6.31451853
H       0.10306820     -0.55925019      5.47458819
H       1.11447683     -3.88261174      3.85762665
H      -0.31585619     -3.03353515      3.93443531
H       1.78987514     -0.20403734      3.77369544
H       2.13539852     -2.23696694      5.34549295
