59
charge=0
C      -4.21298756     -5.80521543     -0.85090006
O      -4.71800516     -4.93778747      0.10180624
C      -4.34584960     -3.61224742      0.06121418
C      -4.87474106     -2.76247869      1.06570558
C      -4.54232091     -1.41698342      1.08605523
C      -3.69535021     -0.91844513      0.10461418
C      -3.15075574     -1.74158156     -0.86949701
C      -3.51108228     -3.06738318     -0.91109900
N      -3.34961759      0.45890125      0.12272464
C      -2.10693842      1.04727758      0.03464489
C      -2.27326523      2.39323212     -0.05120338
C      -1.15068113      3.32580623     -0.14455011
C      -0.01544297      2.49897342     -0.81762363
N       0.25930309      1.24298454     -0.10583202
C      -0.80754284      0.38171791      0.16309953
O      -0.67991796     -0.76919455      0.50197489
C       1.59777936      0.75875175     -0.05590913
C       2.04050073     -0.00972091      1.01772244
C       3.35049278     -0.39056532      1.08577527
C       4.27116737     -0.06015875      0.09191336
C       3.77416769      0.68344776     -1.00813789
C       2.48259629      1.09035401     -1.06967813
N       5.59661439     -0.50193566      0.15647217
C       5.83180784     -1.82363258      0.75194065
C       7.12531328     -2.43126565      0.31523147
C       8.29465169     -1.48562005      0.58983732
C       8.05695170     -0.19098378     -0.16923300
C       6.62393520      0.36751132     -0.14587250
O       6.43035224      1.55175002     -0.40945675
C      -3.68934994      2.56666037      0.02586528
N      -4.29827063      1.38215670      0.11168780
C      -4.44937538      3.80857304     -0.05976623
O      -3.89704083      4.88740667     -0.16478533
N      -5.80187926      3.70056852      0.08028191
H      -4.63136964     -6.75907858     -0.65106514
H      -3.13098528     -5.85095936     -0.82461500
H      -4.51777214     -5.51519161     -1.85715802
H      -5.51615348     -3.21085837      1.77631809
H      -4.95712231     -0.79022329      1.83857762
H      -2.46925520     -1.30764173     -1.58918785
H      -3.10370248     -3.70586769     -1.68060986
H      -0.80969732      3.70569414      0.81940313
H      -1.36539492      4.16299033     -0.78249591
H      -0.28284069      2.29546399     -1.86579083
H       0.91875832      3.07606568     -0.80919623
H       1.33661266     -0.26083067      1.82224969
H       3.72004377     -0.89784445      1.95545047
H       4.47092976      0.92494613     -1.79170413
H       2.12769971      1.62803477     -1.95264499
H       4.99013449     -2.42904256      0.51542174
H       5.84601877     -1.71121278      1.83271225
H       7.07793117     -2.65618881     -0.73021268
H       7.27473210     -3.36942773      0.83072833
H       8.32056499     -1.29007728      1.64770767
H       9.27126921     -1.92546459      0.31398537
H       8.25521334     -0.31969949     -1.23035502
H       8.69865639      0.61353848      0.14868000
H      -6.33975237      4.52725179     -0.03120308
H      -6.22252814      2.79756216      0.13665819
