22
charge=1
O       1.04281996     -0.06053000      0.19289001
O      -0.94514999     -1.06865005      0.87102003
O       1.09977991     -1.93664001      1.57316994
C      -0.27891999     -0.38665999     -0.16437000
C       1.73328996     -1.24075996      0.52655000
C      -0.22287000     -2.23274014      1.19382002
H      -0.28903002     -0.99070003     -1.09200003
H      -0.82571002      0.55383005     -0.36919001
H       2.75238982     -0.96493000      0.85940004
H       1.83447004     -1.89204007     -0.36286000
H      -0.72605005     -2.72887001      2.04593986
H      -0.22988998     -2.93888994      0.34132002
C       1.00474000      2.68667996      3.52110998
C       0.98036996      2.68523006      4.89052992
C       0.93955997      0.57027000      4.20262998
N       0.97863008      1.36998996      3.13251994
N       0.94049000      1.36769992      5.27517022
H       1.03805998      3.50957011      2.80707987
H       0.98823999      3.50665997      5.60697031
H       0.91228005     -0.51939000      4.20096005
H       0.98750003      1.03004000      2.15391990
H       0.91453999      1.02573000      6.25275034
