32
charge=0
C       1.33067004      3.58965983      1.14752012
C       0.68797999     -2.70774004      2.18803989
C       1.48578999      2.11582997      0.77296999
C       0.53284996     -1.23391005      2.56258996
C       0.93576005      1.17954993      1.84703008
C       1.08288002     -0.29763001      1.48853005
H       1.87027005      3.79998004      2.08624008
H       0.26458999      3.83270010      1.29250001
H       1.73556990      4.24166034      0.35532002
H       0.28308001     -3.35974004      2.98022990
H       1.75407008     -2.95076996      2.04307010
H       0.14840001     -2.91805999      1.24930996
H       0.95477997      1.91981002     -0.17837999
H       2.55713985      1.88715998      0.61373004
H       1.06383998     -1.03788007      3.51393973
H      -0.53851000     -1.00523993      2.72181988
H       1.46651995      1.37407003      2.79882005
H      -0.13584000      1.40671994      2.00671003
H       0.55212996     -0.49215001      0.53672999
H       2.15448991     -0.52480002      1.32884985
O       4.51964017     -0.20134000      4.99599030
C       5.29097978     -0.61905997      4.13738012
N       6.02889004      0.22923000      3.36868998
C       5.49683978     -2.09140013      3.85074002
C       5.92890979      1.66569001      3.53837020
H       6.66078983     -0.15782000      2.66340996
H       6.54687988     -2.38404004      4.01924034
H       4.85453031     -2.68120992      4.52614982
H       5.22717023     -2.33291997      2.80884013
H       6.60557973      2.16049010      2.82151019
H       6.21955968      1.96376992      4.55978003
H       4.89986013      2.01488999      3.34936998
