22
charge=0
C       0.44217002      0.20319000     -0.54767001
C       0.21521001     -0.09097999      0.73716997
C      -0.61805998      0.58949002     -1.53722004
C       1.27544998     -0.47727000      1.72672013
H       1.47574001      0.16225999     -0.91601998
H      -0.81835002     -0.05004000      1.10550998
H      -1.60866009      0.59547002     -1.05215003
H      -0.64094000     -0.12750000     -2.37508000
H      -0.41799998      1.59622003     -1.94105001
H       1.29832999      0.23972003      2.56458010
H       1.07537997     -1.48399995      2.13053988
H       2.26604005     -0.48325000      1.24164994
N       0.70266000      3.08980983     -0.21292999
C      -0.38223999      2.94331029      2.06768010
C      -0.54014997      3.13755017      0.55900000
H       1.17131005      2.18955993     -0.06263000
H       1.35124994      3.80846998      0.12696999
H       0.07250000      1.96076011      2.27843003
H      -1.36181997      2.99309980      2.57221993
H       0.26907001      3.72931010      2.48554991
H      -1.21000002      2.35374993      0.15599998
H      -1.01382992      4.11863997      0.36269002
