23
charge=0
O      -0.75138998      1.58307003      3.34235996
C       0.15619000      0.81268001      3.60996973
C       0.23209000     -0.57209997      3.00940016
C       1.26898007      1.18844007      4.56104977
H      -0.62527004     -0.74805000      2.33815005
H       0.21841001     -1.33578001      3.80515005
H       1.16281998     -0.68589996      2.42853009
H       1.28552002      0.49816001      5.42119992
H       2.24443998      1.13576009      4.04888019
H       1.12388992      2.21528007      4.93674996
S       2.16747993      4.30839038      0.13607000
S       2.12236006      2.27050026      0.08156000
C       1.47761004      4.65489987      1.76947995
C       0.20245001      2.36129009     -1.95523002
C       0.43845999      1.92495001     -0.51832002
H       2.07843018      4.18719008      2.56752026
H       1.49513003      5.74863973      1.91103999
H       0.43579997      4.30476993      1.86237006
H      -0.83141996      2.12796005     -2.26063991
H       0.89648001      1.84009009     -2.63587001
H       0.36190000      3.44815998     -2.05479001
H      -0.28418999      2.39599979      0.17547000
H       0.34302000      0.82744000     -0.40960000
