19
charge=0
O       0.01291000      2.75963022     -0.30924000
O       0.44447002      4.35615014      1.22405008
C       0.55384998      3.80126996     -0.01178000
C       1.41095999      4.64362016     -0.90857002
H      -0.13548000      3.73360983      1.74184992
H       1.48962997      4.18016996     -1.90639003
H       2.42504994      4.74467987     -0.48666001
H       0.97503997      5.65048990     -1.02169004
C       3.99459993      1.11505996     -0.24077999
C       2.83412979      0.44358001      1.90777003
C       3.81655972      1.41062994      1.24803001
H       4.37742016      0.08988000     -0.37881002
H       4.70593036      1.82118996     -0.70120998
H       3.02598009      1.20194005     -0.76119993
H       3.19798000     -0.59259004      1.80484999
H       2.71719010      0.67043994      2.98083019
H       1.84653993      0.51947999      1.42247008
H       4.79782994      1.33754998      1.75520001
H       3.44918015      2.44731995      1.37360006
