19
charge=0
N       1.47572992      4.08596003      4.63492986
N       1.76624002      2.71048010      2.69035996
C       2.12185009      3.69015988      3.53096983
C       0.34846998      3.41966975      4.92014000
C       0.63551999      2.06061003      2.99879038
C      -0.12005000      2.38337994      4.12036996
H       3.04690013      4.22937004      3.28776984
H      -0.19135000      3.73425983      5.82303004
H       0.33236998      1.25466002      2.31750985
H      -1.04509996      1.84417987      4.36356969
N       2.75218013     -0.27537000     -0.31528999
C       2.83292011      0.30694003      0.87058002
C       2.10746998      0.63387996     -1.11941003
C       1.79597008      1.77553994     -0.41317998
N       2.26740012      1.54743000      0.85565002
H       3.28566994     -0.11965000      1.76563985
H       1.89962010      0.42063000     -2.16795002
H       1.29567004      2.70323996     -0.69096993
H       2.20565009      2.19199998      1.64763002
