14
charge=0
O       2.72749985      1.77709998      0.58462002
C       2.99237990      1.48126001      1.74152996
N       2.04477006      1.00111999      2.60138994
C       4.37730005      1.61316017      2.33628002
H       2.26938975      0.75455005      3.56848999
H       1.08886002      0.89060006      2.25416988
H       5.06510991      2.00584984      1.56861006
H       4.75367044      0.63440002      2.67832022
H       4.37317999      2.30752989      3.19326998
O      -0.76722005      0.81160003      1.13943000
O       0.13425000      1.60834001     -0.78319004
C      -0.87058002      1.14341002     -0.01503000
H       0.94402996      1.61402996     -0.20333000
H      -1.80645003      1.11289004     -0.60738006
