21
charge=0
O       2.54215970      0.96757001      0.13807999
C       2.87387021     -0.15213999      0.49165999
C       4.22450029     -0.42699998      1.11160000
C       1.95770993     -1.34382988      0.33483999
H       4.81514038      0.50236000      1.17517993
H       4.78328001     -1.15806000      0.50337005
H       4.10173983     -0.83609995      2.12854015
H       2.42669009     -2.10337994     -0.31304001
H       1.75042010     -1.79932999      1.31776998
H       1.00069999     -1.03644991     -0.11933000
O       1.95425009      0.03985000      2.99134989
O       1.62677004      2.24639984      2.62432005
C       1.25521010      0.94384002      2.58799998
C       2.92384015      2.47177010      3.18272001
C      -0.11442000      0.80150002      1.98879009
H       3.10339006      3.55970003      3.15448993
H       3.71561002      1.96934001      2.60197989
H       2.98639006      2.13193982      4.23019970
H      -0.85640001      1.35727006      2.58645016
H      -0.12714000      1.19451002      0.95826000
H      -0.40791001     -0.26144000      1.96358988
