23
charge=0
N       1.04709994      1.86030006      2.25547015
C      -0.10538000      2.60697000      1.74252011
C       1.49867996      2.66739982      3.39279999
C      -0.89406999      2.91779984      3.02166977
C       0.18662000      2.95860005      4.13348008
H       1.78287004      1.76594996      1.54376009
H       0.19313001      3.54928984      1.24415004
H      -0.67561998      2.00453998      1.00947998
H       2.23634015      2.11422994      4.00541965
H       1.97075988      3.61623007      3.07294022
H      -1.45362998      3.86913018      2.93624021
H      -1.62709000      2.11310000      3.22313012
H      -0.00648000      2.17434990      4.89052992
H       0.22089002      3.93238991      4.65884028
O       2.87537007      0.73200999      0.52200002
C       1.81590009     -0.01637000     -0.04021000
C       3.43505010      0.04795000      1.62539004
H       1.41528003      0.55735001     -0.89284000
H       1.00290000     -0.17952999      0.68713002
H       2.16144997     -0.99733004     -0.40753000
H       2.69125018     -0.11246000      2.42392025
H       3.84979984     -0.93025992      1.32926002
H       4.25291987      0.67007002      2.02621979
