27
charge=0
C       1.08538996      3.07268007      0.98235998
C       2.40485006      2.27568012     -1.00395001
C       3.44637978      2.26269010      1.28441998
C       2.15048011      2.09212016      0.49203003
H       1.43669981      4.10684020      0.82834001
H       0.88483996      2.92562009      2.05696006
H       0.14273000      2.93487989      0.42645996
H       2.77900977      3.29602991     -1.19237997
H       3.15685983      1.55323993     -1.36334002
H       1.47462988      2.13036981     -1.57856996
H       3.26807992      2.10800000      2.36186995
H       4.20821003      1.54012992      0.94659995
H       3.83857992      3.28280976      1.13563998
H       1.77579997      1.06140006      0.65670996
O      -1.79517990      0.03759000     -1.44017996
C       0.36679000     -2.46252014      1.09377001
C       0.63597999     -2.40953005     -0.27488000
C      -0.64485001     -1.66389997      1.62441995
C      -0.09604000     -1.56816003     -1.10908009
C      -1.38290995     -0.81831002      0.79594003
C      -1.10729005     -0.77143998     -0.57128002
H      -2.47401004      0.53947000     -0.92689004
H       0.94671003     -3.12748997      1.74730999
H       1.43054002     -3.03410012     -0.70405994
H      -0.86788001     -1.69497987      2.69908003
H       0.10417999     -1.51570009     -2.18739998
H      -2.17949999     -0.18984000      1.21554008
