18
charge=0
C      -0.74064003      3.00045980      3.23936991
C       0.24393000      3.90289994      3.26119001
C       1.42594999      3.85105998      4.18235011
H      -1.58120013      3.09109975      2.54189980
H      -0.73434001      2.14204998      3.92078014
H       0.19840001      4.74769019      2.56128995
H       1.36487003      2.96453009      4.83575989
H       1.45750995      4.75348018      4.81579947
H       2.36193985      3.79611003      3.60139980
O       2.66732009      0.72365000      0.73288003
C       4.05749983     -1.17196005      1.05192994
C       2.89147007     -0.38588000      1.60723001
H       1.91242995      1.24035005      1.08439994
H       4.95865989     -0.53766002      1.00520990
H       3.82688007     -1.53100007      0.03482000
H       4.27369027     -2.04371998      1.69217004
H       1.98872991     -1.02413999      1.66325993
H       3.11817995     -0.03285000      2.63164018
