19
charge=0
O       1.13712003     -1.56270992      1.12039993
O       2.23074016      0.23856999      0.20117999
C       1.32547012     -0.81735003     -0.06992000
C       1.69260985     -0.77960996      2.17566001
C       2.81446005     -0.04993000      1.47060999
H       0.37825000     -0.37905996     -0.43887003
H       1.70769006     -1.50038004     -0.85274997
H       2.01155997     -1.45961995      2.98887023
H       0.94447999     -0.08015999      2.59580004
H       3.71686007     -0.68241003      1.36526997
H       3.12445013      0.90311998      1.94075995
O       1.06583996      2.72184990      2.26062982
O       0.90648003      2.82849018      0.01356000
C       0.68691005      3.30278986      1.26812997
C      -0.06438001      4.59996986      1.23180006
H       1.40501014      1.97528002      0.13807999
H      -0.23430999      4.97109983      2.25649007
H      -1.04235005      4.46378006      0.74023996
H       0.50759001      5.35958010      0.67282996
