19
charge=0
S       2.44693994     -1.31950009     -3.22415004
C       2.03188993      1.44846009     -3.32076999
C       3.02422008      0.37472998     -2.89713996
H       1.35533998     -1.25981994     -2.43210008
H       1.79861993      1.35415011     -4.39469022
H       2.45511976      2.45075014     -3.13938008
H       1.09439996      1.35340005     -2.74744993
H       3.96245014      0.45763001     -3.47878014
H       3.28352966      0.46810000     -1.82500004
N       2.42715009      1.78200013      3.59670997
N       1.21847015     -0.18199000      2.93374995
C       1.35765007      1.13757991      3.11324006
C       3.46845019      1.00934006      3.93535985
C       2.27419994     -0.93119001      3.28031017
C       3.43975028     -0.37344003      3.79357006
H       0.49853999      1.76106003      2.83251991
H       4.35222992      1.52526004      4.33332021
H       2.17329995     -2.01527000      3.13816990
H       4.29885982     -0.99692000      4.07429021
