14
charge=0
O       2.46624985     -4.62748003     -0.20504000
H       1.94809005     -3.80058992     -0.07852000
H       1.79230004     -5.31265000     -0.41620001
N      -2.02290012      0.74739002      1.08450995
C      -1.34907005      0.74891001      2.22532008
C      -1.36451008      0.37492002     -0.01363000
C       0.02467000      0.41024001      2.34925010
C       0.00000000      0.00000000      0.00000000
C       0.72884998      0.04821000      1.20755000
H      -1.88225011      0.94108998      3.16574012
H      -2.10606008      0.28701001     -0.81860002
H       0.55059005      0.46712997      3.31141985
H       0.47063999     -0.21205002     -0.96909000
H       1.74737005     -0.35538001      1.28054997
