20
charge=1
C       0.79267000      0.15443001      0.61760995
C       1.80005002     -0.98199006      0.76281006
N       2.28523995     -1.06406998      2.17363000
H      -0.08314000     -0.00655000      1.26847995
H       0.44979001      0.19491001     -0.42996002
H       1.24945997      1.12458005      0.87601000
H       1.35124994     -1.95961996      0.50151999
H       2.68110016     -0.83083998      0.10985000
H       1.49004001     -1.23768001      2.82101991
H       2.97348987     -1.83538007      2.28758007
H       2.74416003     -0.17317998      2.45165021
S       3.46544013      1.47056999      2.41281010
C       2.47740996      2.43040996      3.57223004
C       4.99177031      1.40949003      3.36588002
H       1.47449993      2.56808018      3.13425018
H       2.92104002      3.42366012      3.75458007
H       2.37076993      1.90990992      4.53882997
H       5.39210057      2.42033008      3.55178010
H       4.84181988      0.90657004      4.33603025
H       5.73495984      0.83818005      2.78459992
