24
charge=0
C       2.47004011      2.10617994      0.09728000
C       3.02103995      2.01985006      1.31950009
C       1.61927996      3.21100988     -0.46319997
C       3.85235015      0.82341999      1.70642007
C       2.88601996      3.05514001      2.40539005
H       2.65904009      1.26881000     -0.58733000
H       1.46438005      4.02202028      0.26815001
H       0.63504006      2.80730015     -0.75456999
H       2.10557005      3.63301995     -1.35877004
H       4.87360000      1.14326001      1.97354007
H       3.40326014      0.31686996      2.57724006
H       3.91587987      0.10240000      0.87413998
H       3.88814007      3.42195991      2.68431006
H       2.27045005      3.91577010      2.09395007
H       2.42117993      2.59274002      3.29236000
O       1.20804003      0.97863008      2.57456005
C       1.17342004     -0.09075000      1.65050004
C       0.30866001      1.99830992      2.18722006
H       1.88866993     -0.85606006      1.99594003
H       1.46900995      0.23615001      0.63937000
H       0.17060000     -0.54652001      1.59376989
H       0.56729003      2.41448987      1.19902991
H      -0.73112008      1.63182007      2.15342987
H       0.37314001      2.80510991      2.93657026
