24
charge=0
C      -2.90894982      1.18525994      1.83580992
C      -2.37060995      0.63377998      0.78514996
C       0.00000000      0.00000000      0.00000000
C      -1.10193987      1.08456988      0.11671000
H      -3.77009997      0.71594998      2.32507020
H      -2.52523003      2.11803005      2.26465980
H      -2.82570015     -0.29468000      0.41575001
H       1.00997998      0.43795999      0.06887000
H      -0.08123000     -0.54880001     -0.95333001
H      -0.13080000     -0.71487997      0.82973004
H      -0.66520002      2.02964001      0.49293997
H      -1.39117999      1.24459010     -0.93978001
C      -2.13270993      5.76295953      4.15699005
C      -2.45282985      4.86752992      3.22140972
C      -2.87058006      4.97381996      0.70670002
C      -3.50808994      5.12166999      2.12285992
H      -1.37763004      5.54258998      4.92020964
H      -2.68823003      6.70347975      4.24655002
H      -1.92489008      3.90484996      3.20927990
H      -2.43924989      3.95873027      0.71912999
H      -2.05809996      5.69921962      0.53268998
H      -3.58738002      5.04127974     -0.12893000
H      -3.96005022      6.11638038      2.30095994
H      -4.31242011      4.36606979      2.20989002
