14
charge=0
C       0.01206000      1.23873009      0.80677003
C       1.33561990      1.21156005      0.64238000
H      -0.43474999      1.54605012      1.75920981
H      -0.66613005      0.95448998     -0.00593000
H       2.01380988      1.49579997      1.45509009
H       1.78242997      0.90424002     -0.31005001
O       1.95876998      2.25433011      3.41928974
O      -0.12192000      3.16424001      3.44880014
C       0.81638000      2.27303014      3.80944019
C       0.33411996      4.15317000      2.51822001
H       0.37416996      1.55292010      4.52607008
H      -0.52022998      4.81725996      2.30446003
H       0.67383998      3.70106009      1.57122989
H       1.15630996      4.76014980      2.93316984
