22
charge=1
C       0.36924001      2.48027997      2.37022994
N       0.88324005      1.47233000      3.07822000
N      -0.50128002      3.30876002      2.93607998
N       0.73462004      2.64957993      1.09413009
C      -0.95315003      3.19648998      4.31921993
H       0.60598006      1.34014988      4.05401993
H       1.55394002      0.83222004      2.64584997
H      -0.87543999      4.07038009      2.36470994
H       0.34274001      3.42101997      0.54839004
H       1.40551001      2.00799011      0.66426003
H      -1.66945996      4.01164012      4.51683980
H      -0.11088000      3.28942009      5.02530010
H      -1.45848017      2.23272979      4.49926997
O       4.48404984     -1.45211990     -0.27190000
C       4.13835008     -2.64384999     -0.94933996
C       5.88640962     -1.27320006     -0.26699001
H       3.03954013     -2.73683990     -0.92536999
H       4.57716970     -3.53050983     -0.46160000
H       4.46675000     -2.62277982     -2.00209994
H       6.39994986     -2.10126995      0.24991000
H       6.28952007     -1.19353994     -1.29059011
H       6.10310018     -0.33470001      0.27047997
