24
charge=0
O       2.30352993      2.13405990      0.27329000
C       1.38945997      1.31181004      0.23175000
N       1.43920003      0.21012001     -0.58210996
C       0.16023002      1.47244002      1.10555994
C       0.33930998     -0.70913003     -0.79499000
C       2.55990995      0.05060000     -1.48733009
H       0.30690000      2.38082004      1.71378992
H       0.02252000      0.61345998      1.78363990
H      -0.75589000      1.59608011      0.50384999
H      -0.14521999     -0.52363999     -1.76836995
H       0.72376998     -1.74291993     -0.78469999
H      -0.41834000     -0.60759997      0.00018000
H       3.36589011      0.74565001     -1.19763010
H       2.94857013     -0.98032000     -1.43471005
H       2.26893985      0.26412001     -2.52961025
O       2.04623004      3.92454013      2.15202993
C       2.76471999      2.10213999      3.62751004
C       2.96781999      3.53637981      3.17213016
H       2.18862984      3.33285994      1.38389001
H       1.73151001      1.96020007      3.98660002
H       3.45923001      1.85982997      4.44942998
H       2.94708996      1.40208007      2.79489024
H       2.78109024      4.23765988      4.00806004
H       4.00976000      3.68927975      2.83091029
