21
charge=0
O      -1.64104001     -2.69219996     -0.59859003
C      -1.90307010     -1.66939007      0.04483000
N      -2.54900015     -1.76101991      1.23285013
C      -2.57315028     -0.72952004      2.25546005
C      -3.04295998     -3.03334994      1.68923013
C       0.00000000      0.00000000      0.00000000
C      -1.39333982     -0.34563002     -0.46404998
H      -3.54477992     -0.34538000      2.60897982
H      -1.93130989      0.12750000      1.99059981
H      -2.09450002     -1.28643017      3.07847990
H      -2.24098986     -3.78807025      1.62717995
H      -3.81765989     -3.28114009      0.94421000
H      -3.49382009     -3.08094998      2.69475002
H       0.38580998      0.81920000     -0.62982001
H       0.61932006     -0.89661002     -0.17071000
H       0.09363000      0.29594999      1.05842003
H      -2.03135991      0.52517997     -0.21897000
H      -1.39186986     -0.46259999     -1.56486016
O      -0.02878000      0.96966001      3.29651009
H       0.87690004      0.58844001      3.34825013
H      -0.59829998      0.21852999      3.01420985
