16
charge=0
S       0.80147000     -0.32301003      4.31869004
S       1.14243993      1.70691994      4.35776002
H       2.08749013     -0.73037993      4.26665023
H       1.11092993      1.93019004      3.02671993
C       1.13877003      1.14755002     -0.64617998
C       0.09668000      2.07540005     -0.66133999
C       2.46254991      1.58589009     -0.59582000
C       0.37837999      3.44159003     -0.62614001
C       2.74423977      2.95208990     -0.56062003
C       1.70215984      3.87994006     -0.57578004
H       0.91710999      0.07251000     -0.67387997
H      -0.94498005      1.73047003     -0.70097001
H       3.28254986      0.85578003     -0.58389003
H      -0.44162003      4.17169996     -0.63807005
H       3.78591004      3.29700996     -0.52098001
H       1.92381994      4.95496980     -0.54807002
