17
charge=-1
O       0.32369000      0.14412000      1.12827998
C       2.19996002     -0.32536999     -2.56019003
C       1.01461997     -0.99828000     -2.25911987
C       2.76808004      0.52051997     -1.60912009
C       0.39936001     -0.83063994     -1.02097998
C       2.15835992      0.69413000     -0.36646001
C       0.97346996      0.01760000     -0.07360000
H       0.83737006      0.76907002      1.69548012
H       2.68120008     -0.46085001     -3.53776991
H       0.55796002     -1.66716993     -3.00049993
H       3.70020014      1.05640005     -1.83180996
H      -0.53310002     -1.35316008     -0.76981004
H       2.60720012      1.36084004      0.38164001
O       3.50410007      2.86509993      2.23647994
O       1.59820008      1.97797000      3.12834992
C       2.63471004      2.69384995      3.13183032
H       2.81010986      3.26550992      4.07530030
