24
charge=0
C       2.32768006      1.16489011      2.99028984
C       3.04830032      1.63303997      1.89160000
C       1.16113996      1.82368994      3.37856018
C       2.60108992      2.75124020      1.18772004
C       0.72074005      2.94120029      2.66930997
C       1.43069003      3.42025995      1.56271989
C       0.93177997      4.60716988      0.77733999
H       2.67861974      0.28676002      3.54826967
H       3.97086009      1.12493003      1.58127003
H       0.58968002      1.46651011      4.24543017
H       3.17610993      3.11641010      0.32655002
H      -0.19612999      3.45708014      2.98366034
H       1.77739988      5.15500044      0.32856000
H       0.37458000      5.29660980      1.43370993
H       0.26080999      4.27200975     -0.03140000
N      -0.89174003      2.10279983     -0.35182000
C      -0.56630001      1.63877004      0.84428003
C       0.19826001      1.84245002     -1.14750006
C       1.19094004      1.21561994     -0.42580999
N       0.68372001      1.09442002      0.84392008
H      -1.19112008      1.67042009      1.73684997
H       0.21365000      2.11974994     -2.20153003
H       2.18416988      0.85511993     -0.69346006
H       1.15802998      0.67178997      1.64575999
