25
charge=0
O       0.96098000      3.80512003      0.31986999
C       4.93289989      2.61227022      0.70266000
C       4.58931996      3.77898001      0.01766000
C       3.92848003      1.83007001      1.27021006
C       3.25630992      4.16429984     -0.10161001
C       2.59074004      2.20873005      1.15543992
C       2.25593999      3.37664978      0.46891998
H       0.36524999      3.15748006      0.76909992
H       5.98530030      2.31272993      0.79396005
H       5.37204022      4.40301968     -0.43349001
H       4.18364003      0.90972993      1.81195009
H       2.97073997      5.07920010     -0.63735002
H       1.80070999      1.59142990      1.60310010
C      -1.84277994      1.76222997      2.63038988
C      -1.94686990      1.04259002      1.43944000
C      -1.15118006      1.22071993      3.71461003
C      -1.35935003     -0.21856001      1.33270989
C      -0.56366006     -0.04044000      3.60787008
C      -0.66775002     -0.76007005      2.41692007
H      -2.30508984      2.75460983      2.71438014
H      -2.49108001      1.46870009      0.58629002
H      -1.06927999      1.78699011      4.65175027
H      -1.44125994     -0.78483001      0.39557000
H      -0.01945000     -0.46654999      4.46103016
H      -0.20543999     -1.75245995      2.33293007
