27
charge=1
C      -0.02482000      1.07767998      0.78222002
C       1.35932997      0.09032000      4.29809980
C       0.05514000      0.37250997      2.13578005
C       1.27937007      0.79549000      2.94454015
H      -0.91743001      0.75297998      0.22148000
H       0.87116001      0.84634997      0.18195001
H      -0.07862000      2.16974990      0.92750995
H       1.41313004     -1.00173997      4.15281018
H       0.46335002      0.32164997      4.89836986
H       2.25194003      0.41501998      4.85884013
H      -0.85561002      0.59792003      2.72330005
H       0.09220001     -0.72273996      1.97927997
H       2.19012011      0.57009003      2.35701989
H       1.24231004      1.89074990      3.10104009
C       4.47775973      4.02723975      1.27610995
N       5.35505025      4.91833028      0.80949003
N       3.42875014      3.68346982      0.53734997
N       4.66103001      3.48572000      2.48597005
C       3.15382983      4.22437009     -0.78993997
H       5.21782993      5.33416983     -0.11505000
H       6.16416992      5.18557038      1.37557001
H       2.77628005      2.99782017      0.92554000
H       3.99069990      2.80241022      2.84688993
H       5.47102982      3.75476983      3.04993012
H       2.22431000      3.76453026     -1.16565000
H       3.97042003      3.99322977     -1.49445997
H       3.01676016      5.31831989     -0.75690998
