26
charge=1
O       2.99741013      1.96762996      0.83550994
C       0.36669001      2.71979996     -0.26697998
C       0.23088001      2.79336969      1.27886995
C       1.68110985      3.45283013     -0.59872995
C       1.48908998      3.53599021      1.77211997
C       2.51574010      3.30936007      0.67220001
H       3.56045980      1.75775008      0.06135000
H       0.42913004      1.66347000     -0.59213004
H      -0.49580002      3.18109979     -0.78539996
H       0.20014001      1.77313989      1.70740000
H      -0.69388001      3.31676978      1.58920005
H       2.19533984      3.04722034     -1.49119997
H       1.49636002      4.52964006     -0.77708993
H       1.85682003      3.17980003      2.75362019
H       1.29793005      4.62292999      1.85861007
H       3.36040998      4.02651026      0.71811997
C       0.98935000     -1.43188999      2.84114990
C       0.91580998     -2.17565017      3.98889018
C       2.50020002     -0.63961993      4.26856997
N       1.97356997     -0.49717999      3.04849007
N       1.85851999     -1.66089003      4.84430988
H       0.42637003     -1.49579001      1.90999004
H       0.27597001     -3.01650000      4.25662006
H       3.29728980     -0.04002001      4.70814986
H       2.27551989      0.22166001      2.36629988
H       2.05539989     -2.00452989      5.80162023
