18
charge=-1
S       1.36633998      0.67406001      5.79106975
S       2.90259990     -0.57496999      5.05950967
C       1.41166992      1.83641009      4.39221990
C       3.19533001      0.38617999      3.54279988
C       2.81801994      1.83340999      3.81504018
H       1.11194001      2.82682000      4.78553989
H       0.66714001      1.53787004      3.62933011
H       2.59750000     -0.03166000      2.71005997
H       4.26465984      0.26343998      3.28412012
H       3.52743997      2.28387988      4.53563041
H       2.85982015      2.43032013      2.88370003
O       2.16417010      3.25365010      0.02438000
O       0.87490000      1.42375003      0.43218999
C       1.31347997      2.37160994     -0.27544999
C       0.75724994      2.44059002     -1.72441004
H       1.40697000      1.83665018     -2.37995000
H      -0.26809002      2.03748008     -1.77732001
H       0.74709000      3.47817984     -2.09845015
