21
charge=0
O      -1.49387002      2.71609019      3.33096014
O      -1.57496995      4.97280004      3.08856004
C      -2.10750014      3.74145001      3.15856004
C      -0.15081000      5.00622990      3.23884001
H      -3.20580984      3.81516004      3.03236988
H       0.15965000      6.06192021      3.16305986
H       0.35978001      4.43170017      2.44775017
H       0.16852000      4.61514002      4.21950010
O       2.60882993      1.57823991      3.62653983
C       4.79586024      1.23696995      0.09866000
C       5.42568032      1.24078003      1.34436003
C       3.40815032      1.34946002      0.03227000
C       4.68014007      1.35567999      2.51508000
C       2.65377999      1.46496003      1.20004996
C       3.29139004      1.46792997      2.44135988
H       1.64428991      1.64940997      3.42471007
H       5.38806024      1.14614000     -0.82148006
H       6.51824986      1.15276003      1.40891005
H       2.89891990      1.34793001     -0.94049997
H       5.16140006      1.36017994      3.50197998
H       1.56068988      1.55349995      1.14601004
