13
charge=0
O       0.63371002     -0.88009001     -0.09245000
C       0.12652001     -0.32491999     -1.04350996
H      -0.10931000     -0.87598004     -1.98487996
H      -0.12690000      0.76165999     -1.01955999
O       0.68666005      2.75187002      2.28136010
C       0.90178004      4.47861008      3.89377009
C       1.14494003      3.01344023      3.61077997
H       0.83997999      1.80349005      2.08780000
H      -0.17328000      4.71085031      3.81049014
H       1.45376990      5.10415012      3.17223993
H       1.23924989      4.73504990      4.91208003
H       2.22248009      2.77720005      3.70315999
H       0.59879997      2.38472007      4.34008976
