13
charge=-1
O      -0.37368000     -1.18765998     -0.50270999
C      -0.01643000     -0.16258999      0.06097000
N       1.22850007     -0.03428000      0.61011003
C      -0.90139996      1.05566999      0.20870000
H       1.52441006      0.82437001      1.08095006
H       1.87126992     -0.82709002      0.54062996
H      -1.87745998      0.85353006     -0.26357999
H      -0.44811999      1.93333006     -0.28207999
H      -1.06804003      1.29449002      1.27256015
O       2.29968011      3.22499005      2.37658011
O       4.29764005      2.18219993      2.74477017
C       3.47891993      3.13727008      2.81076012
H       3.85733975      4.04767985      3.33577008
