19
charge=0
N       4.05010021      1.55264013      2.09278013
C       2.88395993      3.27928015      0.81436003
C       4.08153010      2.34294989      0.85566995
H       4.85599989      0.91885997      2.13161986
H       4.13992967      2.17705994      2.90192012
H       1.94883998      2.69865005      0.88523997
H       2.87071985      3.85400998     -0.12698001
H       2.92293024      3.98791996      1.65869992
H       4.02365009      1.63194006      0.00916000
H       5.01092983      2.93251984      0.73706002
S       1.13314014     -1.72249005     -0.10266000
C      -1.24319004     -0.27813000      0.22907000
C      -0.17770001     -0.66279001     -0.78772002
H       1.57065016     -0.83958995      0.82015002
H      -1.70640001     -1.18123992      0.66083002
H      -2.03061010      0.32437997     -0.25421000
H      -0.79869997      0.31431999      1.04640994
H      -0.61623001     -1.26867992     -1.60382997
H       0.28358998      0.23379000     -1.24470012
