15
charge=0
N       1.35532004      1.35679012      2.18349010
C       1.15507000      0.49668999      3.16915997
C      -0.86355001      1.07148007      2.48832001
C       0.10099000      1.72498005      1.74777012
N      -0.17412999      0.29447000      3.38772006
C      -0.08349000      2.69706995      0.62954996
H       1.92811992     -0.00399000      3.75209007
H      -1.95276008      1.09277002      2.45268022
H      -0.58318003     -0.32337998      4.09302985
H      -1.15681992      2.85840003      0.43320998
H       0.38904001      2.31518007     -0.29104000
H       0.37692000      3.66618007      0.88538998
O       2.97013008      2.63805015      1.00660000
H       3.73744022      2.07728005      0.75157999
H       2.38927011      2.04053001      1.52988010
