25
charge=0
C       0.43855001      1.01873007      3.31807988
C      -0.81320000      1.71966003      2.78949994
C       0.47120001     -0.27695000      2.49753010
C      -0.69008999      1.52980995      1.27238011
C      -0.05855000      0.12449000      1.09632991
H       0.42136000      0.83993999      4.41040996
H       1.32887004      1.63655999      3.09213027
H      -0.88852999      2.78272989      3.08892011
H      -1.71376001      1.19879991      3.16785012
H      -0.21325999     -1.01313008      2.96119982
H       1.47854997     -0.73400997      2.45532011
H      -0.00745000      2.30182014      0.86809002
H      -1.65906997      1.62850999      0.74628002
H       0.76219002      0.15536001      0.35412000
H      -0.80862996     -0.60678002      0.73844999
N       1.93139001      2.98763002      1.54557006
C       2.09799999      1.62599993     -0.47772003
C       2.48889002      1.74954994      0.98670001
H       2.19171989      3.08182001      2.53351962
H       2.34077000      3.79649029      1.06510000
H       0.99960991      1.64157003     -0.57731995
H       2.47655001      0.68175006     -0.90395999
H       2.51576987      2.46618020     -1.05752002
H       2.05469993      0.90602999      1.55715005
H       3.59030000      1.68592004      1.07781005
