18
charge=1
C       0.53407004      4.61600955     -0.41372000
N       1.19191000      3.38762997     -0.96008000
H       0.68813001      5.46886986     -1.09599002
H       0.95896003      4.87229999      0.57136001
H      -0.55012999      4.45030961     -0.29689002
H       0.79451000      3.14182996     -1.88920008
H       2.21472999      3.53897000     -1.07207999
H       1.04940000      2.58038992     -0.32004000
N       0.07369000     -1.55197991      3.38458005
N       0.58372999      0.49625002      1.50235996
C       1.15700993     -0.76587998      3.45648010
C       1.40848992      0.24399999      2.52845003
C      -0.75111999     -1.29979995      2.35852000
C      -0.49961000     -0.28979998      1.43039001
H       1.85047996     -0.95023996      4.28758011
H       2.30452008      0.87309003      2.61201990
H      -1.64718012     -1.92882998      2.27485979
H      -1.19313999     -0.10552001      0.59933000
