26
charge=1
C       1.63864009      0.19192001     -0.45774999
N       2.23571992      0.49521000      0.69678005
N       2.34334984     -0.35346999     -1.44279008
N       0.33308001      0.43949997     -0.61527002
C       3.76832002     -0.65616000     -1.35519993
H       3.23367000      0.30719999      0.82040999
H       1.69627005      0.91535994      1.45769996
H       1.85424991     -0.57324997     -2.31399992
H      -0.12794000      0.20837000     -1.49877004
H      -0.20398000      0.85970997      0.14730001
H       4.08762971     -1.10013002     -2.31308976
H       3.97646008     -1.37694004     -0.54664005
H       4.36190986      0.25584999     -1.17493012
O      -1.25612013      4.16658015      4.93449967
O      -0.85638998      2.01441005      3.15355025
C      -1.72564003      3.22486010      5.91330007
C      -1.51807995      1.34419992      4.21930984
C      -1.12458989      1.86980993      5.59579001
H      -1.68686010      5.03045018      5.10362072
H      -0.93405997      2.97246970      3.34455020
H      -1.43544004      3.55258983      6.93005968
H      -2.83046972      3.16290998      5.88216995
H      -1.23440008      0.27807001      4.12808978
H      -2.61682984      1.41131994      4.10229016
H      -0.02091000      1.92482990      5.66151980
H      -1.47269992      1.15787996      6.36872991
