19
charge=1
O       0.59200002      2.61498000      1.34330995
O       1.44899982      0.99969993      2.60897982
C       1.01513996      2.28154985      2.42037979
C       1.11639000      3.17853963      3.62976992
H       1.76310001      0.89578004      3.54842006
H       2.16412998      3.26377994      3.96380996
H       0.51323999      2.77837011      4.46203999
H       0.74426004      4.18592968      3.37820994
C       2.83670988      0.70248003     -0.59732005
C       1.47655983      0.01374000     -0.54273996
N       0.38163001      1.02827999     -0.60895000
H       2.95647996      1.26978993     -1.53562997
H       3.62708007     -0.06523000     -0.54704000
H       2.96465020      1.39524000      0.25141000
H       1.34083004     -0.68684999     -1.38903012
H       1.34899006     -0.56166998      0.39432001
H       0.44508000      1.57311014     -1.49253985
H      -0.55248001      0.57252995     -0.57268999
H       0.45276998      1.69116992      0.18924998
