17
charge=0
O       1.38424996      1.11932007      0.82840000
C       0.36210001      0.59595002      1.65297995
C       1.14309007      2.48310003      0.54449000
H       0.59555001     -0.46492999      1.84439007
H      -0.62499001      0.65637997      1.16450000
H       0.30920003      1.12450006      2.61965015
H       0.18937998      2.62418985      0.00864000
H       1.12357993      3.09231019      1.46378997
H       1.96428998      2.84239011     -0.09828999
O       2.14172018      2.27611993      2.91523009
O       2.84268004      0.12240000      2.74720012
C       2.75068986      1.40169993      2.34763014
C       2.13522012     -0.16685001      3.95871993
H       3.32538992      1.52917004      1.40894992
H       2.28765980     -1.23726997      4.17685988
H       1.05302001      0.02099000      3.85784996
H       2.51698990      0.42328002      4.80877961
