15
charge=0
O       1.18739996      0.11393000      0.82102000
O       2.44090013      1.84432004      0.09952000
C       2.19006005      0.52048004      0.27741000
C       3.29991001     -0.31964999     -0.28009998
H       1.65878004      2.31622977      0.49651998
H       3.08135976     -1.39001989     -0.12796000
H       4.25234001     -0.08021000      0.22205002
H       3.41594004     -0.13447000     -1.36123999
S      -1.54070007      2.34324008      1.67631000
S      -0.07242000      3.77126978      1.63356003
C       0.60517002      3.66030984      3.30119008
H      -0.79455006      1.27647999      1.31883003
H       1.35918008      4.45901958      3.40189982
H       1.09483005      2.68909982      3.48448989
H      -0.17291000      3.81231021      4.06805990
