19
charge=0
O       1.41675995      0.99048006      3.23574996
C       0.50840999     -0.72577002      4.59852047
C       1.70753008     -0.29877001      3.78262014
H       2.18882994      1.27672009      2.70436006
H      -0.38947001     -0.77822000      3.96003003
H       0.32115000     -0.00280000      5.41023007
H       0.68097004     -1.71938006      5.04524992
H       2.61121976     -0.25473002      4.42048000
H       1.90206999     -1.02854992      2.97327993
O       0.26695998      1.40355999      0.13111999
O       2.82672992      2.71153964      0.53642997
C       1.45797992      1.01961992     -0.55547998
C       2.40821994      2.18676006     -0.72324999
H       0.47965999      1.41808999      1.08764997
H       2.10683007      3.29367994      0.85778001
H       1.96781997      0.19066000     -0.02791000
H       1.14514997      0.64446003     -1.54887005
H       3.32378005      1.85292000     -1.24838012
H       1.93407002      2.97374019     -1.34073996
