25
charge=0
S       3.91544005      0.33330001      4.23757964
C       2.98555989      1.86931990      4.37057996
C       5.23068975      0.92239999      3.15830998
H       2.11302998      1.68543998      5.01978969
H       2.62537000      2.20953978      3.38512003
H       3.59467012      2.67219992      4.81890011
H       4.83183008      1.27892004      2.19373980
H       5.80113979      1.74158005      3.62751004
H       5.91728993      0.08092000      2.96566987
O       1.90293006      0.27125999      0.79547000
C      -0.71457995      1.54771993      1.26583994
C      -0.45265000      1.63625000     -0.26289999
C      -0.38279998      0.09402999      1.65545002
C       0.05012000      0.23955000     -0.68037996
C       0.62534000     -0.35149998      0.59829001
H       2.23103009      0.00302000      1.67909991
H      -0.04731000      2.24673014      1.80581996
H      -1.75807003      1.80864001      1.52757001
H       0.32348000      2.39718019     -0.47279998
H      -1.36362010      1.92111987     -0.82363005
H       0.01186000     -0.00406000      2.68504990
H      -1.28065002     -0.54868999      1.57652014
H       0.80159995      0.26440000     -1.49286006
H      -0.78952003     -0.39806003     -1.01790999
H       0.74128001     -1.45328996      0.54843003
