17
charge=0
C       2.32368011      1.49783995      3.72869996
N       2.55063021      1.16833002      5.00202001
N       1.55869003      0.71987998      2.97112982
N       2.86875974      2.61058994      3.22344982
C       0.92664004     -0.50863003      3.44138009
H       2.13540004      0.31830002      5.39133045
H       3.13925997      1.76501015      5.58856021
H       1.40555985      1.00213992      1.99984006
H       2.69701974      2.86632020      2.24792998
H       3.45697997      3.20543992      3.81222997
H       0.35495001     -0.94590995      2.60558016
H       0.23320002     -0.30919000      4.27563020
H       1.67784002     -1.24355012      3.77634996
O       1.06746005      1.39911000      0.27873001
O       2.35751017      3.26890984      0.51217001
C       1.61943010      2.46164000     -0.11264000
H       1.42408992      2.72958992     -1.17928990
