10
charge=-1
O       0.64906999      0.18479999     -5.54907994
H       0.43805001     -0.11739000     -4.63672041
H       0.58309001     -0.62726995     -6.10084030
O      -0.17117000     -0.77704003     -2.06395001
O       0.00000000      0.00000000      0.00000000
C      -0.02929000     -0.96332000     -0.83056998
C       0.16217999     -2.41502002     -0.38934000
H       1.12218000     -2.51908021      0.14373001
H       0.16544000     -3.09692003     -1.25627998
H      -0.65241004     -2.71499986      0.29115001
