16
charge=-1
O      -1.35962986      1.20612004      3.39838005
O       0.29278001      0.44953998      4.78112005
C      -0.85985001      0.87743997      4.50698979
H      -1.54513000      0.98160002      5.38290006
C       1.80325009      0.85020994     -1.50326986
C       1.52432994      0.74697008     -0.13996000
C       3.06351993      0.49605998     -1.98634008
C       2.50566981      0.28957001      0.74028002
C       4.04487040      0.03865000     -1.10611002
C       3.76594987     -0.06459000      0.25720000
H       1.03104996      1.21013993     -2.19590985
H       0.53263995      1.02565991      0.24017001
H       3.28300002      0.57728999     -3.05911019
H       2.28618997      0.20833000      1.81305001
H       5.03656013     -0.24003000     -1.48623005
H       4.53815019     -0.42451001      0.94985004
