18
charge=0
O       6.59750967      2.47514982      6.30185049
C       5.63154990      2.47740996      5.56017949
N       5.59290990      1.88794990      4.33652028
H       4.66702036      2.97540002      5.82357962
H       6.42384009      1.40080996      3.99185987
H       4.74748984      1.92667002      3.76181013
C      -0.52310997      1.27959994      0.04575000
C      -0.07163000      2.46351003     -0.53872000
C      -1.10211007      1.30473000      1.31507988
C      -0.19915000      3.67254993      0.14613999
C      -1.22962004      2.51376990      1.99994995
C      -0.77813994      3.69768011      1.41547987
H      -0.42277002      0.32822001     -0.49316000
H       0.38397001      2.44372978     -1.53754000
H      -1.45737003      0.37314001      1.77499995
H       0.15612000      4.60413989     -0.31377001
H      -1.68521995      2.53354990      2.99876969
H      -0.87848001      4.64906042      1.95438004
