15
charge=1
O       2.23947991      1.77859000      2.37229023
C       3.07570981      2.02565999      3.21897018
C       3.13348006      1.32531999      4.55163024
H       3.85120986      2.80591990      3.02534018
H       3.26493007      0.24196999      4.39138973
H       2.18656022      1.48852009      5.09320953
H       3.96445012      1.69175003      5.17759974
C      -0.01712000      1.22208997     -0.10814000
N       1.10529991      2.21168006     -0.14034000
H      -0.58784002      1.25916009     -1.05128000
H      -0.70216001      1.44667989      0.72665993
H       0.37654002      0.20036001      0.02493000
H       1.75420003      2.00401993     -0.92609999
H       0.73902997      3.17693985     -0.26570000
H       1.64660997      2.18049998      0.74713996
