18
charge=0
N      -3.58224003      3.61786997      1.16051001
C      -2.72049993      4.58970956      1.32682994
C      -3.03431990      2.52591006      1.74103994
C      -1.72801005      2.83960008      2.01949995
N      -1.48059991      4.16276970      1.56965988
H      -2.89752981      5.61073004      0.98877001
H      -3.57513993      1.57955001      1.74126010
H      -0.85753998      2.28387004      2.36811995
H      -0.60816002      4.68216983      1.44477983
N       4.22769027      0.47872002      0.33628001
C       4.42216003     -0.80466003      0.04358000
C       5.09945978      0.69311002      1.43526000
C       5.85433023     -0.43076997      1.60934000
N       5.36944979     -1.40807004      0.78094000
H       3.97081997     -1.29356005     -0.81975998
H       5.26932017      1.68359998      1.85738992
H       6.55879043     -0.67111997      2.40563001
H       5.45135958     -2.42702014      0.74144996
