18
charge=1
O       1.03359996      2.31372992      1.54703005
O       0.21426000      4.43129947      1.59856015
C       1.18606992      3.50591005      1.66137994
C      -1.09465998      3.89418013      1.37461002
H       2.15614016      4.01208019      1.83579995
H      -1.79492000      4.74581991      1.34378005
H      -1.40410011      3.21343983      2.18544996
H      -1.15813002      3.35165989      0.41635002
C       3.08948004     -2.10809993      2.31507005
C       2.44698990     -0.96897001      2.72184990
C       2.93942009     -0.74417002      0.56433000
N       3.37743024     -1.93517990      0.98370004
N       2.37217996     -0.15282001      1.62016009
H       3.35853995     -3.01177989      2.86195008
H       2.04490997     -0.68273996      3.69370993
H       3.02760006     -0.33507002     -0.44212999
H       3.86391021     -2.62075991      0.37820998
H       1.94087994      0.78881003      1.59580999
