19
charge=0
C      -0.85492002      5.04870989      6.34389949
C      -0.16394001      6.04638013      5.79004024
H      -1.94985006      5.02537025      6.30138973
H      -0.34731002      4.22402995      6.85718992
H      -0.67155001      6.87104998      5.27674981
H       0.93098998      6.06971018      5.83255000
O       0.35170998      1.65610003      0.13623001
C       3.49875973     -0.95688000     -0.64733995
C       2.47242995     -0.76024000     -1.57277996
C       3.47144991     -0.26617000      0.56302999
C       1.42689005      0.11712000     -1.29580012
C       2.42790002      0.61453000      0.84848999
C       1.40578997      0.80528998     -0.08228000
H       0.46578003      2.07084989      1.02567007
H       4.32088986     -1.64967996     -0.87036996
H       2.48343992     -1.29889989     -2.52951007
H       4.27186037     -0.41071000      1.30063000
H       0.61272002      0.28207999     -2.01379007
H       2.40788005      1.15787000      1.80243001
