26
charge=0
O       1.69946999      4.89853993     -0.30253000
O       2.23749986      3.00837998     -1.58024998
C       1.35322998      4.08125027     -1.38949996
C       1.64553996      4.14382971      0.90861002
C       2.21293995      2.15048011     -0.43887003
C       2.56514027      2.93532021      0.81600006
H       0.32075000      3.70229979     -1.26367001
H       1.37369014      4.70509009     -2.30374997
H       1.93482991      4.83473946      1.72371991
H       0.60289001      3.82173983      1.09457999
H       1.20746005      1.69780990     -0.34116997
H       2.93146005      1.33348001     -0.64308003
H       3.61790000      3.27293023      0.75986996
H       2.46349994      2.29827009      1.71560001
C       0.39059998     -1.20260002      3.62989987
C      -0.53287998     -0.17512999      3.82624016
C       1.51104003     -1.30089002      4.45574987
C      -0.33593000      0.75406003      4.84845013
C       1.70799008     -0.37169999      5.47795026
C       0.78450999      0.65577002      5.67430039
H       0.23561999     -1.93376003      2.82554018
H      -1.41453994     -0.09778000      3.17640011
H       2.23771005     -2.10938997      4.30123981
H      -1.06260002      1.56256004      5.00296019
H       2.58964997     -0.44903999      6.12779989
H       0.93948995      1.38692997      6.47866008
