22
charge=0
O       1.19340999     -1.41158993      2.73846996
C       1.58179992     -0.35530999      3.20989988
C       0.63770001      0.79259998      3.48386007
C       3.03458005     -0.11976000      3.55338998
H      -0.39159997      0.52191997      3.19424019
H       0.94190003      1.68385988      2.90963995
H       0.64602007      1.04596993      4.55732990
H       3.43160982      0.72932001      2.97198017
H       3.14197026      0.10830000      4.62719994
H       3.63491016     -1.01575004      3.32226984
C       0.66919001      1.39661003     -0.83374999
C      -0.23945001      2.45316016     -0.76202001
C       2.03042010      1.63253001     -0.63764998
C       0.21314999      3.74563972     -0.49419002
C       2.48302004      2.92500995     -0.36981002
C       1.57437987      3.98155970     -0.29808001
H       0.31305001      0.37957998     -1.04449998
H      -1.31057993      2.26751998     -0.91632997
H       2.74541992      0.80114001     -0.69409001
H      -0.50184001      4.57703041     -0.43774002
H       3.55416009      3.11064988     -0.21550000
H       1.93051997      4.99858982     -0.08733000
