15
charge=0
S       3.93828008      3.28484002      1.83449010
C       2.41532988      4.16593974      2.21660001
C       3.76860011      1.94914997      3.02985010
H       2.35377996      5.04533016      1.55366006
H       2.40174991      4.51294986      3.26350969
H       1.52876013      3.53275003      2.04431990
H       3.73171986      2.33434010      4.06274984
H       2.85872982      1.35414001      2.84355991
H       4.64683031      1.28910009      2.93166999
O       1.26053000      1.62192995      1.78444989
C       1.52815996      1.36135000      0.62530007
N       2.63334998      1.80020003     -0.03218000
H       0.87509000      0.72338997     -0.01828000
H       3.30389003      2.39408989      0.46197998
H       2.79937997      1.54413997     -1.00859998
