22
charge=1
C       1.78721001      1.29804991     -0.77427000
C       0.45722000      1.36685007     -0.87746999
C      -0.34648000      2.62057015     -0.70237998
H       2.32116007      0.35101998     -0.91294999
H       2.38233983      2.18998006     -0.54734999
H      -0.10054999      0.44914001     -1.10618004
H       0.31617999      3.47308981     -0.47724997
H      -1.06306002      2.50313009      0.12787999
H      -0.90940997      2.84625002     -1.62368996
C       1.09853012      0.73948000      3.57800011
N       1.02610004      0.59471000      4.90285025
N       0.87121003      1.92780993      3.02976002
N       1.39991002     -0.31431003      2.81033999
C       0.53717000      3.12682003      3.79176009
H       0.79593000      1.39834001      5.49252996
H       1.20053999     -0.31893999      5.32870029
H       0.93504002      2.00325991      2.01153991
H       1.45630999     -0.20712000      1.79453999
H       1.57387003     -1.22680995      3.23884001
H       0.40325998      3.96142971      3.08316999
H       1.34228006      3.39065997      4.49801033
H      -0.39910998      2.99360018      4.35941985
