23
charge=1
O       2.52634003      0.80622007     -0.32910002
C       2.98000002      4.09779034      2.18193978
C       2.23377999      4.18126004      1.00523009
C       3.58577014      2.89018999      2.52480006
C       2.09150006      3.07137980      0.17604001
C       3.44831996      1.77358992      1.69991005
C       2.70055011      1.86566993      0.52526999
H       3.00774991      0.02638000      0.03999000
H       3.08922998      4.97563977      2.83235994
H       1.75209003      5.12732019      0.72497997
H       4.17576981      2.80954969      3.44728994
H       1.50771998      3.12176987     -0.75253998
H       3.92616010      0.82304004      1.97144004
C      -0.86966999      0.80704999      2.51384004
C       0.12230001      1.35863000      1.74726987
C       0.02952000      2.48646991      3.66229013
N      -0.89872002      1.52514989      3.68382989
N       0.65338000      2.38818004      2.48441972
H      -1.54448012     -0.02648000      2.31903014
H       0.48370000      1.10121997      0.75165998
H       0.23716001      3.20937982      4.45119983
H      -1.54223992      1.35741994      4.47820989
H       1.42686002      3.00833986      2.18372023
