24
charge=1
C       3.79707999      0.23993001      2.24023009
N       4.97827008      0.37013001      2.84790027
N       3.03087002      1.30805005      2.04943995
N       3.39235008     -0.96671997      1.82696002
C       3.39500007      2.65792983      2.46789000
H       5.29059977      1.29122005      3.16505000
H       5.57111957     -0.45019999      2.99661024
H       2.13186992      1.17237993      1.58048011
H       2.48762988     -1.07033991      1.36083007
H       3.98721016     -1.78535992      1.97695007
H       2.57708993      3.34116013      2.18357993
H       4.32221006      2.99459007      1.97440001
H       3.53722008      2.71474980      3.56019989
N       1.22608992      0.42613000      1.00083006
C       0.12346999      0.08909000      1.68725992
C       1.12624998      0.44330999     -0.33719001
C      -1.09200003     -0.23620000      1.08682005
C      -0.04376000      0.13407999     -1.02939000
C      -1.17928990     -0.21369001     -0.30259999
H       0.22297000      0.08013000      2.78069988
H       2.03766011      0.72116005     -0.88284005
H      -1.95756005     -0.50355999      1.70724015
H      -0.05842000      0.16729998     -2.12678998
H      -2.11931013     -0.46372996     -0.81197001
