19
charge=0
O       0.18536000     -0.87470003      5.37458978
C       0.80670997      0.34269002      5.73589043
C       1.14013009     -1.91421003      5.29405015
H       0.02337000      1.11765999      5.78495021
H       1.56032993      0.65084004      4.99177031
H       1.29467990      0.27274001      6.72261000
H       1.90800003     -1.70252988      4.53105009
H       1.64233989     -2.08063013      6.26188978
H       0.60770002     -2.83767984      5.01060987
N       2.20032010      3.91200986     -0.57535000
N       2.21076990      1.51556988     -0.69651996
C       2.79733988      2.71921985     -0.69242002
C       0.86644002      3.88545022     -0.44875000
C       0.87676000      1.51763004     -0.56847000
C       0.14844001      2.69490016     -0.43958999
H       3.89031996      2.72925987     -0.79674995
H       0.36417998      4.85701981     -0.35185999
H       0.38300998      0.53690997     -0.57029000
H      -0.94454995      2.68485989     -0.33525999
