23
charge=1
O       3.98328994      2.84166995      4.38181981
C       4.72795989      3.14008988      5.30118003
C       4.22095024      3.32235993      6.71320006
C       6.21029963      3.34868995      5.09329987
H       3.13163022      3.15448993      6.75569014
H       4.43336001      4.34518988      7.06718967
H       4.71407006      2.60581987      7.39145009
H       6.49441010      4.37667982      5.37462006
H       6.78703020      2.64207989      5.71353943
H       6.47711985      3.18698996      4.03534993
C      -0.91082997     -0.13880999     -1.65554995
C      -0.04424000     -0.21268001     -0.59106999
C      -0.43494000      1.94542001     -1.05060003
N      -1.12781998      1.19374004     -1.90947995
N       0.22221999      1.09807996     -0.25097998
C       0.54588003     -1.37669995      0.12311999
H      -1.38100006     -0.92889998     -2.24104007
H      -0.41030003      3.03437995     -1.00988005
H      -1.73731994      1.57584995     -2.65498992
H       0.84654004      1.39841004      0.51929998
H       0.18065000     -2.31132016     -0.33481999
H       0.25710999     -1.37024002      1.18762996
H       1.64675998     -1.35936012      0.05711000
