23
charge=0
O       2.63396996     -0.05694000      0.82673997
O       1.59688000      1.92379004      1.12210998
C       2.69752011      1.14646008      0.94470003
C       3.94654015      1.97574999      0.91912996
H       0.82644998      1.29255993      1.12559000
H       4.82962016      1.33085992      0.77459999
H       4.06302034      2.52409984      1.86905003
H       3.90563017      2.70641000      0.09385999
C      -1.42513016      1.88826986      0.66607000
C      -1.04510999      1.39595006     -0.58244997
C      -1.24308999      1.09808992      1.80099992
C      -0.48562999      0.12274000     -0.69068997
C      -0.68288997     -0.17403999      1.68416003
C      -0.29310000     -0.68005004      0.43914002
C       0.34483001     -2.04160002      0.32196999
H      -1.86855004      2.88887005      0.75428006
H      -1.18936007      2.00782017     -1.48268000
H      -1.54407992      1.47415991      2.78771015
H      -0.19298001     -0.25960001     -1.67750000
H      -0.54675001     -0.79184002      2.58159985
H       0.11583000     -2.49104998     -0.65893003
H      -0.03116000     -2.71239025      1.11271997
H       1.43993003     -1.95742000      0.42335001
