20
charge=0
C       0.00000000      0.00000000      0.00000000
C      -3.17865999      3.74649008     -1.28746006
C      -0.41514003      0.91036000     -1.12591993
C      -1.99789004      2.90919029     -1.83015000
C      -1.61868005      1.88273005     -0.73028000
H       0.73413001     -0.78016995     -0.26268000
H      -0.95802003     -0.48741000      0.24746001
H       0.36207001      0.53759997      0.89247002
H      -3.88064003      2.93009998     -1.04800997
H      -3.66196008      4.42547970     -2.00995994
H      -2.96579982      4.30982009     -0.36336002
H       0.36937999      1.64062997     -1.40283997
H      -0.62808000      0.29059999     -2.01810999
H      -1.07225006      3.50410991     -1.95140001
H      -2.25119994      2.47594997     -2.81684988
H      -2.44646000      1.16197997     -0.58623999
H      -1.47132989      2.42145018      0.22551000
O       0.57068004      3.46598012      0.44644000
H       1.32018997      3.43121012      1.08306006
H       0.34501998      2.52326992      0.27723999
