17
charge=1
O       3.87840992      2.21250013      2.59941999
C       4.69232970      2.43818000      3.46924024
H       5.39585021      3.30188021      3.40193010
H       4.77392003      1.79218990      4.37559984
C       0.97453001      1.40984998     -0.50703002
N       1.04716006      0.61829995      0.56515998
N       0.08033000      1.15649996     -1.45602006
N       1.80368006      2.45416999     -0.61884997
C      -0.85987001      0.04111000     -1.41353982
H       0.41471999     -0.18090001      0.65366993
H       1.73454001      0.81024999      1.29809015
H       0.05193000      1.78327995     -2.26401989
H       1.75091000      3.06304000     -1.43922993
H       2.49009995      2.64380987      0.11558000
H      -1.47857003      0.07468000     -2.32605984
H      -1.52397012      0.10935000     -0.53550997
H      -0.33257002     -0.92715000     -1.38142006
