20
charge=1
N       0.85490999      0.23993001      1.99050001
C       1.77788006      1.98250994      3.43515987
C       1.87788983      0.52770000      3.00377014
H       0.91229998     -0.74070003      1.69430994
H      -0.07803999      0.35920000      2.40044006
H       1.89524001      2.64402990      2.56038988
H       2.56449001      2.22655978      4.16884987
H       0.79472001      2.17857015      3.89512006
H       2.86479991      0.34848001      2.53544995
H       1.80526003     -0.12400001      3.89565980
C       1.06919003      4.40427983     -2.13768010
C       0.72391999      3.89070023     -0.91583994
C       1.74730999      2.28691013     -2.06842991
N       1.69628985      3.39098977     -2.81985010
N       1.15606999      2.58738984     -0.90809003
H       0.91893005      5.39554035     -2.56538983
H       0.21298000      4.34551993     -0.06720000
H       2.18548983      1.32865997     -2.34743988
H       2.08000990      3.45793984     -3.77982986
H       1.04655004      1.92073998     -0.12268000
