27
charge=0
C       1.75058008      2.62846989      3.20755017
C       2.86553999      2.83825995      2.18083003
C       2.30170987      2.01841001      4.49804969
C       3.60226000      1.52767005      1.89638004
C       3.03842028      0.70780996      4.21361018
C       4.15337994      0.91760998      3.18688978
H       0.99513999      1.94113000      2.78055000
H       1.24633005      3.58968002      3.42494019
H       3.58763992      3.57531025      2.58181004
H       2.44768002      3.25233015      1.24307006
H       1.48011998      1.84543005      5.21951954
H       3.00922983      2.73424997      4.95897026
H       4.42386023      1.70066995      1.17493996
H       2.89476022      0.81183003      1.43543007
H       2.31632995     -0.02925000      3.81265994
H       3.45631003      0.29378000      5.15137948
H       4.65765987     -0.04358000      2.96952020
H       4.90879013      1.60497997      3.61389020
S       0.61978000     -0.04149000      1.71486005
C       1.70992004      0.75117998     -0.74001999
C       0.80505998      1.20083004      0.39845001
H       0.06608000     -0.99790996      0.93948995
H       2.71014980      0.48954999     -0.35571003
H       1.81861997      1.56005994     -1.48199013
H       1.28408009     -0.13306000     -1.24339998
H       1.23438999      2.08051986      0.91542000
H      -0.19769999      1.48563998      0.02588000
