18
charge=0
C       0.11351000     -0.39343001      4.37162007
C       0.51173998      0.82850005      3.71461987
C      -0.04452000     -1.52059002      3.52991004
C       0.45809001      0.97101995      2.31887016
C      -0.10623000     -1.36394006      2.10588004
C       0.14874000     -0.08798000      1.48912001
C       0.00000000      0.00000000      0.00000000
H       0.13000999     -0.41785000      5.46922968
H       0.83717999      1.71626995      4.27278996
H      -0.30936998     -2.44513022      4.05971000
H       0.77749000      1.93207004      1.89466002
H      -0.29502999     -2.27107003      1.51676997
H       0.47788001      0.91271999     -0.39391997
H      -1.08079009      0.04796000     -0.21493001
H       0.42437999     -0.87325000     -0.52340002
O       3.14468004     -2.69029006      0.03767000
H       2.31286998     -3.15250005     -0.21276000
H       3.52405015     -2.38221997     -0.81638997
