26
charge=1
C       3.34737984      3.77626997      4.10546020
C       1.53623998      3.68253998      2.48237988
C       3.43241980      2.17047006      2.27855998
C       1.82870010      1.87454000      4.08518992
N       2.53618979      2.87595018      3.23788999
H       3.87768018      4.52396008      3.49198009
H       4.09294986      3.19314003      4.67176015
H       2.69722009      4.30614009      4.82178981
H       2.04524999      4.42914002      1.84983008
H       0.92738997      3.02931995      1.83490998
H       0.86479999      4.21131043      3.17965014
H       4.17897997      1.56847002      2.82339990
H       2.84585007      1.49947997      1.62869003
H       3.96371003      2.89929007      1.64361997
H       2.55641995      1.26905994      4.65125974
H       1.16068993      2.38205999      4.80128991
H       1.22328993      1.20007002      3.45656009
N      -0.07872999      0.01074000      0.15079000
C      -0.90084004     -1.02588997      0.18822000
C       0.03357000      0.33295999     -1.18059004
C      -0.72737006     -0.51644003     -1.95432011
N      -1.31644991     -1.37711996     -1.06188996
H      -1.22570007     -1.55548000      1.08381995
H       0.65752000      1.16148994     -1.51574008
H      -0.89803998     -0.58424001     -3.02873984
H      -1.95278001     -2.14407998     -1.29295004
