20
charge=0
O       0.94043001      0.30987000     -0.94501008
O       2.52231005     -0.14452999      0.59683002
C       1.88951991     -0.35183999     -0.58796001
C       2.52274002     -1.47791006     -1.34917010
H       2.03720996      0.61236001      1.02557002
H       1.99828002     -1.63318998     -2.30699999
H       2.47271987     -2.41228021     -0.76516999
H       3.58133996     -1.25129997     -1.56041989
O       0.75951007      2.78673994      2.13418001
C       2.21011005      4.28331015      0.86894996
C       1.83345011      4.49427027      3.35176990
C       1.21765991      4.14091023      2.01309995
H       0.38111999      2.52025002      1.27035011
H       3.08180992      3.63222006      1.05013000
H       2.56038988      5.32620020      0.78962001
H       1.74780002      3.99358985     -0.08967000
H       2.18040989      5.54126978      3.35501993
H       1.09678007      4.36524013      4.16249996
H       2.69625997      3.83710000      3.55253003
H       0.34898001      4.80475997      1.82710007
