20
charge=1
C      -1.08339995      2.29224996      3.28830983
C       0.20972000      2.68519019      3.06622013
C      -0.38069998      1.31071000      1.41996986
N      -1.41352998      1.44795997      2.25701996
N       0.60975999      2.06275989      1.90952007
H      -1.78064006      2.54477006      4.08718006
H       0.86326002      3.34820017      3.63314006
H      -0.35181000      0.70398998      0.51490002
H      -2.32806991      0.97744002      2.13242000
H       1.54241996      2.15357016      1.46772004
C       2.99001001      1.32228999     -0.26438999
C       3.53843985      2.37885009      0.50583000
C       3.08333981      0.16591000      0.49056001
C       3.95319993      1.84169996      1.71219001
N       3.66898019      0.50145997      1.68316004
H       2.56847004      1.39020990     -1.26727999
H       3.62533999      3.42628007      0.21700000
H       2.78290980     -0.85995006      0.27737998
H       4.42362960      2.30090998      2.58162987
H       3.86581001     -0.15462000      2.44298010
