27
charge=1
N       1.36848997      1.12480992      0.33976001
C      -1.09086000      1.30643992     -0.22439000
C       0.25918999      2.00094010     -0.04046000
H       1.49005994      0.39074000     -0.36667001
H       1.14533998      0.64148006      1.21684009
H      -1.01934002      0.54086999     -1.01521005
H      -1.86878988      2.03470998     -0.50907003
H      -1.39593000      0.81479000      0.71466000
H       0.54435999      2.50499003     -0.98388999
H       0.16855000      2.77833983      0.74240995
C       4.36347986      1.69121989      0.90443999
C       5.10607995      3.99997989      0.70063000
C       3.39427991      3.13548004     -0.79796007
C       2.87940005      3.50846995      1.55134012
N       3.93581001      3.08378971      0.58961000
H       5.14610020      1.36224994      0.20023999
H       3.50710004      1.00047005      0.82641995
H       4.76711011      1.63680009      1.92948995
H       5.89743045      3.69814995     -0.00596000
H       4.80504006      5.03577992      0.47019999
H       5.51844035      3.97269984      1.72328994
H       2.52651011      2.46170006     -0.89598001
H       3.07312013      4.16111996     -1.04600003
H       4.16551027      2.82348998     -1.52216002
H       2.00557997      2.83908002      1.48092012
H       3.26559017      3.47541000      2.58399018
H       2.55218003      4.53849992      1.33090004
