25
charge=0
N      -0.00387000      1.57455991      1.54200008
C      -1.34621000      1.42612990      1.00157999
C       0.03283000      1.10696000      2.91893987
C       0.94359002      0.82136002      0.73515997
H      -2.05368997      2.01765011      1.60670995
H      -1.67789994      0.37418002      1.00082003
H      -1.36909002      1.80297997     -0.03480000
H      -0.23907000      0.04118000      3.00130007
H       1.04859008      1.24342004      3.32664022
H      -0.67261005      1.69801000      3.52689014
H       0.71115997     -0.25679999      0.72286001
H       0.92408001      1.19731999     -0.30160000
H       1.96068997      0.95739999      1.13965003
C       3.15991026      2.30411004      2.79985991
C       4.09491023      1.70543005      1.95462001
C       2.22551009      3.20185984      2.28214006
C       4.09552995      2.00449986      0.59167004
C       2.22611997      3.50093003      0.91919002
C       3.16113003      2.90225017      0.07396000
H       3.15943007      2.06876992      3.87233984
H       4.83018033      0.99900003      2.36199990
H       1.48976988      3.67295012      2.94724993
H       4.83127041      1.53340996     -0.07343000
H       1.49085996      4.20734984      0.51181000
H       3.16161022      3.13757994     -0.99853000
