22
charge=1
O       0.74580999      1.99242997      0.49483002
C       0.75994004      3.16601012      0.13539000
N       1.92399001      3.80413997     -0.16919000
C      -0.49093999      4.00765001     -0.00338000
C       3.19658990      3.11527007     -0.07908000
H       1.89422992      4.78297015     -0.46507000
H      -0.61572005      4.36263001     -1.04022000
H      -1.36718996      3.39446008      0.26640000
H      -0.45469000      4.88332990      0.66632000
H       4.00303991      3.81038997     -0.36729002
H       3.22335015      2.24513995     -0.75640999
H       3.38438979      2.76586002      0.95012004
C      -0.40451003     -2.84201994      2.07938008
N      -0.17196000     -1.88435002      2.97643988
N      -0.36501002     -2.55946988      0.77762998
N      -0.67657001     -4.08225001      2.48405990
H      -0.20228000     -2.10123992      3.97572025
H       0.03689000     -0.93228999      2.66579020
H      -0.15615999     -1.60740992      0.46696996
H      -0.54353001     -3.29462013      0.08900001
H      -0.85509003     -4.81739975      1.79543009
H      -0.70689999     -4.29915000      3.48334027
