57
charge=0
C      -8.36420627      2.03766003      1.65237205
C      -7.23538674      2.31093940      0.97409816
C      -6.10535622      1.36623061      1.05743839
O      -6.09874237      0.51193358      1.91900276
N      -5.09751734      1.50848009      0.14613259
C      -5.09511240      2.44508391     -0.97299379
C      -4.58032226      1.75490914     -2.23230384
C      -3.25193639      1.11241246     -2.01147584
C      -3.33659009      0.11288694     -0.83488030
C      -3.83589505      0.83194251      0.41848099
N      -2.02495104     -0.53904282     -0.60098202
C      -1.80305403     -1.84461049     -0.65080332
N      -2.65579392     -2.83842491     -1.01395402
C      -2.08932891     -4.00841167     -0.93131420
N      -0.85795222     -4.33736481     -0.58135880
C      -0.00954578     -3.34647331     -0.24977166
C      -0.43659736     -2.01891073     -0.32214772
C       0.03414079     -0.71007814     -0.09635443
N      -0.96285696      0.16633297     -0.23805076
C       1.39834181     -0.23942700      0.26611186
C       2.46480763     -0.78833809     -0.36881938
C       3.77964118     -0.34831553     -0.04701744
C       3.93475479      0.62111717      0.91392253
C       2.83269541      1.17698111      1.50896556
C       1.54838575      0.79280381      1.19028014
O       5.17818119      1.03575619      1.35019155
C       6.25609746      1.10413816      0.49932371
C       6.12629325      1.51908655     -0.83200505
C       7.26644852      1.64011205     -1.60520561
C       8.52536936      1.33527465     -1.05818799
C       8.62970223      0.92178251      0.25286064
C       7.48449858      0.79343540      1.02343540
N       1.22217461     -3.72072693      0.13822484
H      -8.44580383      1.13344099      2.23269493
H      -9.22911537      2.72482452      1.61917506
H      -7.14461515      3.25737063      0.45762215
H      -4.41531746      3.25753025     -0.71038369
H      -6.07478989      2.82321250     -1.13734317
H      -4.52448792      2.48390742     -3.02567333
H      -5.32779985      1.03275578     -2.54045396
H      -2.49970398      1.85236219     -1.78506766
H      -2.89915972      0.57709438     -2.89807064
H      -3.98093032     -0.72054762     -1.09719849
H      -3.11117775      1.54416671      0.73180913
H      -3.99886055      0.10584768      1.18422121
H      -2.75188039     -4.84676645     -1.19014493
H       2.37746436     -1.50510889     -1.11766087
H       4.61171685     -0.82075157     -0.54839996
H       2.99188794      1.95584931      2.25644253
H       0.69930652      1.26435647      1.65147682
H       5.16462509      1.73704907     -1.26645508
H       7.18950771      1.95734054     -2.59883904
H       9.41653640      1.42605602     -1.67770806
H       9.56875838      0.67691358      0.67315455
H       7.56101688      0.50538071      2.09137173
H       1.77085214     -3.02829337      0.65661028
H       1.39937351     -4.68099515      0.30983721
