44
charge=0
C      -1.42686193     -0.22021539     -2.08937703
C      -1.07393320     -0.28639985     -0.64296769
C      -2.23702516     -0.79876226      0.24542539
C      -3.50776076      0.04848425      0.19213337
C      -4.54940067     -0.30847068     -0.64495628
C      -5.71445524      0.45094897     -0.74069568
C      -5.79963773      1.59655690      0.03476619
C      -4.77937064      1.98869016      0.86965425
C      -3.62857732      1.18918402      0.94862883
N       0.10761787     -1.05720359     -0.43124516
C       0.94608968     -0.91549989      0.61919713
O       0.73558405     -0.03299483      1.48931340
C       2.09200854     -1.88926355      0.66745115
C       3.28057287     -1.26723231     -0.08537752
C       3.77794426      0.04262578      0.46825970
C       4.94075214      0.61505932     -0.35903804
C       5.49098042      1.92085592      0.17106496
N       6.52953902      2.41147063     -0.72985824
N       1.70827559     -3.17396229      0.08336533
H      -2.24348773      0.45480808     -2.25987781
H      -1.73481370     -1.19868434     -2.46853586
H      -0.56571291      0.15862282     -2.66008418
H      -0.84437882      0.73232148     -0.25191115
H      -2.45549256     -1.84057975     -0.07518690
H      -1.89303587     -0.82376426      1.27445053
H      -4.45853168     -1.22839138     -1.25157624
H      -6.49713335      0.14155840     -1.37391489
H      -6.71786835      2.19525669     -0.02169240
H      -4.86553940      2.87442176      1.46193310
H      -2.81515179      1.50116548      1.60216080
H       0.23022109     -1.91138976     -0.96986759
H       2.36129541     -1.98950720      1.71372172
H       4.05526468     -2.03375801     -0.10550131
H       2.93793353     -1.14157008     -1.10856086
H       2.96663971      0.77179985      0.49046202
H       4.11316072     -0.12762824      1.49407637
H       5.77128601     -0.14756929     -0.39984654
H       4.61003498      0.75062040     -1.41244234
H       5.83214363      1.77937672      1.20015213
H       4.67171706      2.67518167      0.19206814
H       6.80736797      3.35179009     -0.42193284
H       7.35184654      1.84319047     -0.68693749
H       1.20245964     -3.73216782      0.73658526
H       2.53012957     -3.69593625     -0.16879558
