70
charge=0
C       3.08294109      3.40275750     -0.82402651
N       3.56293142      2.08438246     -0.45601806
C       2.84113321      0.95014358     -0.52605199
C       3.56870397     -0.08521960     -0.04947705
C       4.85401804      0.47013184      0.36651028
C       6.00461847     -0.04150901      0.94517289
C       7.08058488      0.81065559      1.21541637
C       6.98101735      2.19382212      0.90915323
C       5.84311497      2.70406976      0.35577111
C       4.79756700      1.84460316      0.09664006
C       3.13082167     -1.47290141     -0.06757307
N       1.75674886     -1.62320569     -0.06578627
C       1.30698064     -2.88092354     -0.08534179
N       2.05744250     -3.97927841     -0.05378869
C       3.35206372     -3.80872290     -0.06688282
C       3.95790047     -2.54898314     -0.06036363
N      -0.03183645     -3.12075115     -0.07033146
C      -1.12643826     -2.28853799     -0.16186496
C      -2.41134939     -2.88384973     -0.16181914
C      -3.52131481     -2.11354532     -0.23049050
C      -3.47138973     -0.71094283     -0.31522237
C      -2.18718121     -0.09881331     -0.31168647
C      -1.04957709     -0.90320973     -0.22831732
N      -2.12852509      1.27943569     -0.39398392
C      -1.19274172      2.05080013     -1.00112093
O      -0.09057682      1.63178819     -1.40322979
C      -1.56458422      3.47404741     -1.16838729
C      -0.78968926      4.31871505     -1.81898662
N      -4.64433010      0.10891695     -0.42445870
C      -5.53629188     -0.34618397     -1.45530349
C      -5.33788213      0.28895560      0.83193519
C      -4.59634233      1.16474322      1.78976981
N      -4.16171136      2.43501895      1.22034307
C      -3.46156813      3.25648901      2.22181134
C      -5.22724019      3.21028896      0.58684709
O      -2.38672139     -4.25175378     -0.07826540
C      -3.60964818     -4.94129759      0.00176121
H       3.63168335      3.77853552     -1.71939281
H       3.19030913      4.12063958     -0.01440918
H       2.02722279      3.37164990     -1.09320705
H       1.82339571      0.96029868     -0.92015288
H       6.11985208     -1.07007689      1.25588927
H       7.98932448      0.40743433      1.66245897
H       7.81848832      2.81403619      1.10534165
H       5.78507988      3.75760724      0.09273186
H       3.94976822     -4.70674082     -0.06485618
H       5.04958680     -2.39714284     -0.10397189
H      -0.25503008     -4.13464353     -0.05628457
H      -4.53086393     -2.56235795     -0.25651486
H      -0.07966351     -0.41787089     -0.24251297
H      -2.94545214      1.76524788      0.00487095
H      -2.53003348      3.79712676     -0.74976335
H      -1.04743624      5.37480892     -1.96323679
H       0.14224899      3.96171793     -2.22609514
H      -6.08310792     -1.25539379     -1.16243558
H      -6.26136939      0.45351151     -1.67779108
H      -4.97702751     -0.57879791     -2.37388126
H      -6.31599207      0.72178580      0.59819144
H      -5.54935630     -0.67185128      1.34426113
H      -3.70564080      0.65522568      2.15288217
H      -5.19545162      1.39494326      2.68612112
H      -2.98867419      4.12845139      1.73067094
H      -4.11877717      3.60780777      2.96949860
H      -2.62883566      2.70673871      2.66221522
H      -6.03069173      3.45547104      1.29343991
H      -5.64937073      2.63827439     -0.22970269
H      -4.82871651      4.13239177      0.21214411
H      -4.19410822     -4.76233788     -0.89942204
H      -4.22788138     -4.60655624      0.85657028
H      -3.38901912     -5.98101485      0.08056194
