105
charge=0
C       2.26770300      6.06566243      1.25296113
C       1.04658657      6.51923926      0.45093453
C       0.57995102      5.56043897     -0.60967271
C       1.51901304      5.48262826     -1.78816595
C       1.16724956      4.39980359     -2.80482891
C       1.22955238      2.96504349     -2.27590610
C       2.64703278      2.53801503     -1.81187321
C       2.68564207      1.17065063     -1.17872849
C       1.88480822      1.00414736      0.11643305
C       2.17967812      2.06100307      1.18951625
C       3.67250615      2.21528135      1.54572317
C       4.26738437      0.94894719      2.09831487
C       5.69334991      1.09657949      2.61057145
C       6.70178520      1.74038375      1.64765879
C       6.63480530      1.12540095      0.24079598
C       6.73337153     -0.36685995      0.27641695
O       7.51048121     -1.02552010      0.92941839
O       5.80917473     -0.95214694     -0.54838976
C       5.45156720     -2.31666233     -0.29653354
C       5.91711218     -3.19642445     -1.44403372
C       4.96871303     -3.08379572     -2.69586029
C       3.89442539     -2.04019887     -2.48719629
N       3.21286398     -2.28778239     -1.20439695
C       3.96822221     -2.34240989     -0.10651931
N       3.48959944     -2.31640236      1.11332676
C       2.14828035     -2.39135571      1.24170432
C       1.30439421     -2.50936079      0.18314918
C       1.81531699     -2.40558482     -1.17044194
O       1.13391331     -2.38717047     -2.19075487
C      -0.18710493     -2.62882552      0.30819236
C      -0.84751555     -1.26050132      0.14280386
N      -2.30212577     -1.24175566      0.21897993
C      -2.97948031     -1.96067132     -0.82429950
C      -4.46042848     -1.65539803     -0.81594868
C      -5.07689838     -1.98299009      0.50654638
C      -4.29650794     -1.31646847      1.63462398
C      -2.80252093     -1.63777935      1.54184942
C      -6.51161645     -1.61652274      0.53743403
N      -7.43075728     -2.51030126      0.74784176
O      -8.68001192     -1.83229920      0.72924772
C      -8.47429805     -0.53899698      0.53338931
C      -7.07957525     -0.28740355      0.41223306
C      -6.62567549      0.98703944      0.18391208
C      -7.58577971      2.01490831      0.08923078
C      -8.92484580      1.71981029      0.21851081
C      -9.44026791      0.45942921      0.46213838
F      -9.78641282      2.77434572      0.15656843
C       1.62052955     -2.30585449      2.64724025
H       3.10813054      5.91541196      0.57879600
H       2.06088811      5.15563755      1.76111314
H       2.55237910      6.79829177      1.97057791
H       1.22780441      7.51491375      0.03437137
H       0.21648987      6.71719185      1.16334781
H      -0.42601528      5.84406605     -0.97967682
H       0.48881463      4.56969355     -0.14089019
H       2.53352011      5.31119308     -1.43376620
H       1.54811622      6.43724400     -2.31423242
H       0.16222235      4.56324110     -3.19872682
H       1.80963606      4.47166929     -3.65510958
H       0.54954437      2.87242713     -1.42222791
H       0.90797320      2.26370974     -3.03073843
H       3.02814815      3.26700033     -1.06661046
H       3.32451861      2.55130179     -2.67697623
H       2.37092109      0.44083589     -1.90609380
H       3.72951999      0.91818498     -0.98376070
H       2.08270693      0.03859978      0.52207598
H       0.82491226      1.02820892     -0.12438151
H       1.63757824      1.78388303      2.09135355
H       1.75696363      3.01891857      0.84023403
H       3.72640265      3.00625500      2.28918622
H       4.20787964      2.53196843      0.67321497
H       4.26983999      0.19532904      1.30188865
H       3.65616350      0.53067001      2.86281844
H       6.05421119      0.12895932      2.94199032
H       5.66574199      1.71972706      3.51443680
H       6.50046578      2.83172703      1.56954153
H       7.68680266      1.61771988      2.02135500
H       5.72093300      1.40041323     -0.25440632
H       7.46962697      1.46393278     -0.39512841
H       5.93511426     -2.63158513      0.62300656
H       5.90279705     -4.21188039     -1.11618097
H       6.90561421     -2.88459465     -1.70494828
H       4.51945139     -4.01962561     -2.87344211
H       5.55840371     -2.80400244     -3.56766597
H       4.33575862     -1.06468459     -2.48635294
H       3.13296185     -2.09454460     -3.26692797
H      -0.55063181     -3.31226139     -0.48684782
H      -0.45305900     -3.06815260      1.25585079
H      -0.44748067     -0.57959590      0.91565178
H      -0.55320467     -0.85353449     -0.81676130
H      -2.82804304     -3.02834373     -0.72598555
H      -2.49287804     -1.64143094     -1.77767153
H      -4.95090947     -2.23111653     -1.60644277
H      -4.59968043     -0.58617380     -1.07116981
H      -5.01514158     -3.06507407      0.65274508
H      -4.68156204     -1.61906659      2.60834937
H      -4.44350274     -0.22678663      1.56929456
H      -2.26933091     -1.06215087      2.28025845
H      -2.66579497     -2.68620223      1.72417668
H      -5.59939584      1.20246166      0.09724925
H      -7.25775103      3.02507273     -0.04578730
H     -10.48838679      0.26970612      0.53136925
H       0.89600012     -1.45898112      2.72749000
H       1.17152121     -3.18125910      2.96613346
H       2.48853801     -2.05595098      3.31699814
