62
charge=0
C      -6.37319033     -2.43866092      1.38640826
N      -6.75808048     -1.52968380      0.30697208
C      -8.19335139     -1.44940033      0.05011895
C      -5.97355327     -0.55040803     -0.22275656
O      -6.39423274      0.41408572     -0.84913291
C      -4.50938338     -0.79122412     -0.10117366
C      -3.79504772     -1.97142054     -0.20913039
C      -2.43133487     -1.61814565     -0.19975596
C      -1.19689435     -2.27742618     -0.28750175
N      -0.03588559     -1.60505515     -0.25241959
C      -0.07839103     -0.27686883     -0.13832500
N      -1.22903498      0.48018721     -0.01999863
C      -2.34962929     -0.23904251     -0.06774897
N      -3.59786764      0.27833889      0.04332960
C      -3.97522613      1.68020730      0.21466184
C      -3.32324706      2.34537428      1.44689141
C      -3.35421605      3.81517427      1.08854688
C      -2.90045591      3.79323516     -0.38318557
C      -3.58683438      2.56203279     -0.99198100
N       1.05638433      0.45687638     -0.07159075
C       2.37249355      0.15253135     -0.11613860
N       3.17114354      1.23838838      0.05205688
C       4.48194703      1.07118277      0.03912300
C       5.12371731     -0.16306592     -0.15599400
C       4.28526739     -1.25129719     -0.30293228
C       2.93751899     -1.12776629     -0.30060119
N       6.53841903     -0.29662574     -0.17693386
C       7.29271035      0.93355944     -0.27248779
C       8.74136238      0.63192839     -0.56947294
N       9.28556709     -0.23529503      0.48628138
C       8.55140187     -1.49340925      0.51589950
C       7.08367324     -1.21593830      0.80649213
H      -7.15663481     -2.42321050      2.16100158
H      -5.43640950     -2.13670551      1.82131992
H      -6.30967578     -3.43587237      0.99088066
H      -8.74537878     -1.07357449      0.90681313
H      -8.54404300     -2.47502122     -0.15614846
H      -8.36716015     -0.80818089     -0.82122863
H      -4.26936480     -2.94083677     -0.31337555
H      -1.11190877     -3.32065564     -0.40968464
H      -5.05601500      1.68439851      0.33507412
H      -3.83699732      2.09394149      2.36534604
H      -2.27646493      1.98039105      1.53514538
H      -2.75492427      4.42213056      1.71198333
H      -4.37961641      4.17630556      1.13927169
H      -3.17088317      4.73420230     -0.89834538
H      -1.79857283      3.73390632     -0.40796519
H      -2.91504046      2.02074642     -1.65350964
H      -4.48268310      2.81841443     -1.56558482
H       0.88168852      1.47192450      0.02856894
H       5.05055474      1.96964400      0.14600460
H       4.74116485     -2.23001317     -0.43117678
H       2.26198478     -1.94069959     -0.44223550
H       7.22489081      1.49408069      0.65980413
H       6.92906779      1.54069015     -1.05734357
H       8.81070932      0.18150626     -1.55403185
H       9.31678471      1.55893684     -0.59220245
H      10.27672663     -0.41627983      0.32678989
H       8.57469892     -2.04077723     -0.40385307
H       8.94507184     -2.13956617      1.30659759
H       6.53128002     -2.11069281      0.83013608
H       7.02519730     -0.73763075      1.84750663
