46
charge=0
C      -1.19037566     -3.19177039      2.29838374
C      -1.49956411     -2.09274466      1.27755023
C      -0.53989085     -2.01649319      0.12874117
C       0.87200888     -1.62413689      0.55159516
N       1.45386214     -1.06884628     -0.66908082
C       0.44550340     -0.88351422     -1.73831436
C      -0.85291764     -0.97848415     -0.97308069
C      -1.30029093      0.35297451     -0.39406128
C      -0.56485734      1.40636126      0.06308884
N      -1.34981641      2.38229955      0.58743828
C      -2.55434290      1.91248965      0.45363782
N      -2.61416961      0.67366400     -0.12384789
C      -3.82435280      0.02857341     -0.35271511
C      -4.92251854      0.74888800      0.11387830
N      -6.04219043     -0.03777148     -0.16183365
C      -5.62485055     -1.18411876     -0.76208068
C      -4.25155448     -1.18864993     -0.88966504
N      -4.96688164      1.92765870      0.69538575
C      -3.82400059      2.50762964      0.85919904
C       2.79343480     -0.90341292     -0.93545007
O       3.13910031     -0.56668983     -2.05226142
N       3.65301440     -1.09826031      0.11797253
C       4.99516239     -0.64437842      0.00105241
C       5.15940443      0.77779210      0.43577988
F       4.76730506      0.94169041      1.74813298
F       6.46080701      1.16956085      0.38103813
F       4.44671973      1.65314983     -0.25780584
H      -0.23369271     -3.03309860      2.75085070
H      -1.95910162     -3.20229907      3.07097971
H      -1.18414814     -4.13701167      1.79534183
H      -2.51978101     -2.19320625      0.91771720
H      -1.50035659     -1.12935662      1.79588523
H      -0.52404163     -3.00573489     -0.34833900
H       1.42878131     -2.50694114      0.92074838
H       0.86180334     -0.88398505      1.32945681
H       0.52145406     -1.68905717     -2.48321821
H       0.62970745      0.03742018     -2.21462036
H      -1.64540298     -1.34630514     -1.65082454
H       0.51238936      1.51305490      0.01439859
H      -6.97067997      0.25931796      0.04342453
H      -6.34852785     -1.95040757     -1.06455556
H      -3.66790067     -1.97174704     -1.31988745
H      -3.74672949      3.47390689      1.31858479
H       3.25013780     -1.13486939      1.01487235
H       5.31889801     -0.69555215     -1.07593703
H       5.65233692     -1.24691827      0.60479540
