29
charge=0
O       3.87303476      2.32140256      1.23729672
O      -5.28963032      1.12054678      3.15800415
O      -4.08619596     -1.04600905      3.30922179
N       0.28097100      1.35619614      0.93938012
O       5.61609057      1.30255516      0.34507319
C       4.34516162      1.43385654      0.53385909
C      -2.73361788      0.95885771      0.73438032
C      -1.94508365      1.29668114      1.90269337
C      -3.97412400      0.36114260      0.96965831
C      -2.62055577      0.99785035      3.06757465
C       1.44637369      0.78400330      1.06715675
C       3.25385449     -0.64810211     -2.43625648
C       1.97756576     -0.99889386     -2.15238951
C       4.03026394      0.04488140     -1.52406601
C       1.33563984     -0.56091583     -1.00568769
C       3.44592861      0.55941704     -0.30805293
C       2.07190299      0.21508443     -0.08636448
N      -0.58369624      1.74189950      1.96010367
S      -4.16335536      0.30374781      2.74398542
H       6.05274847      2.09391260      0.72603743
H      -2.31177335      1.38168867     -0.17591719
H      -4.74136575     -0.03500811      0.26112422
H      -2.08577630      1.00949815      4.01814346
H       1.91547257      0.97596647      1.99981028
H       3.69862433     -0.93824564     -3.44876658
H       1.57901671     -1.82102986     -2.78747750
H       5.04733115      0.19956430     -1.89009472
H       0.32725573     -0.93197773     -0.76292777
H      -0.41592393      1.86756834      2.95063748
