26
charge=2
Cl     -1.65041349      4.92685807     -0.50121521
C      -0.29227547      2.75771653     -1.32631480
N       0.15805074      1.36874016     -1.31880820
N      -0.21109185      3.44407347     -2.42111206
C      -1.13688234      3.26388163     -0.12983671
C      -0.28753546      0.38583045     -0.25844744
C       0.99953510      0.06661453      0.53919609
C       0.84594409     -1.11143611      1.60808440
C       2.16084715     -1.24050019      2.43845807
N       2.03218642     -2.44426093      3.29014428
H       0.53382004      0.99885298     -2.19124525
H       0.22828000      3.13144728     -3.27591935
H      -0.56286679      4.43261664     -2.26324094
H      -2.01905673      2.69730765      0.00281819
H      -0.48874351      3.16948321      0.74756868
H      -1.11603800      0.70512881      0.28315149
H      -0.69171677     -0.49471543     -0.79677209
H       1.74770855     -0.32615235     -0.23998341
H       1.50469175      0.90170598      1.03461931
H       0.78277540     -2.10443469      1.04548382
H      -0.08149216     -0.87240362      2.12122860
H       2.25185146     -0.35053901      3.05946951
H       3.06498093     -1.32004841      1.80401629
H       2.42612664     -2.20474776      4.21035536
H       2.46200942     -3.31348871      2.91723512
H       1.09791216     -2.70892272      3.37967422
