49
charge=0
O       0.41939093     -2.74737827      4.25930284
O      -6.43876750      4.80132523      0.17856757
O      -6.48821739      2.39644465      0.96553238
Cl      5.38006285     -2.18921197     -6.19951347
N       1.96128610     -0.74897706     -0.43109166
C       0.59395654     -2.32044749      3.09555946
C       2.71256234     -1.72995981     -0.85169144
C       2.75553664     -2.82425833      0.12046883
C       1.91339172     -2.41208213      1.10259808
C      -1.95028042      4.33525711     -0.46050403
C       5.29569182     -2.34040185     -3.35546681
C       3.61991764     -1.06838585     -4.44470684
C       4.61102500     -2.29158406     -2.12900924
C       2.97578382     -0.94286810     -3.26496489
C      -1.29101781     -0.54302263      3.33595604
C      -1.87373709      0.59663081      2.71634984
C      -1.29434669      3.40700372      0.33309966
C      -0.12316893      0.74648409      1.12808594
C      -3.28714431      4.40607289     -0.44589547
C      -3.44579588      2.48950395      0.88948658
C       4.70510422     -1.84744277     -4.63520743
C       3.37592508     -1.69289473     -2.09763903
C      -0.14965801     -1.13878794      2.67693593
C      -1.33339863      1.28149142      1.63103318
C      -2.01872429      2.46659276      1.03391001
C       0.39312472     -0.52217054      1.51939548
C      -4.07574844      3.47711979      0.21054188
N       1.45388950     -1.09479813      0.75929590
N       1.44345245     -3.01498047      2.29371046
N      -6.12079467      2.90834296     -1.43155553
C       2.02557597     -4.29954818      2.72714634
S      -5.89739562      3.40872614      0.03749951
H       3.20150608     -3.75797746     -0.08186060
H      -1.33858379      5.04469984     -1.01728888
H       6.19643301     -2.93193620     -3.47674735
H       3.26183119     -0.51084300     -5.26793991
H       4.99318084     -2.83187268     -1.25634319
H       2.18000364     -0.24346358     -3.16544162
H      -1.75040736     -0.92160697      4.22936070
H      -2.72150421      0.99987152      3.11223805
H      -0.20571022      3.29329665      0.40736532
H       0.26883973      1.32196587      0.23930144
H      -3.74536922      5.15460226     -1.04210264
H      -4.13267843      1.82030643      1.25604923
H      -5.44406569      3.08842908     -2.11241719
H      -6.98047499      3.35462781     -1.76082410
H       1.27289752     -4.85011552      3.30882386
H       2.73642078     -4.11355222      3.49287108
H       2.36019876     -4.86822635      1.86772491
