41
charge=0
O      -2.89637009     -0.67540695     -2.61107745
N       0.06380484      0.49900131      1.51754589
N      -2.37146763     -0.38260603      0.01850348
S       1.53586439      2.48295973     -0.35264686
C       0.46776837     -0.57451775      0.84594901
C       1.43268610      2.94398275     -2.02143092
C       0.18272230      2.84657199     -2.56782079
C      -0.75847122      2.31676042     -1.59348791
C      -0.16778763      2.08720904     -0.36730377
C      -2.25410049      0.87856770      0.57266721
C       3.51704240     -3.08484925      2.57526658
C       2.50529333     -3.65291173      1.77416991
C       3.46284339     -1.70535019      2.83211946
C       1.48629844     -2.84077973      1.25708442
C       2.44643376     -0.90066600      2.28453645
C       0.88083540     -1.32632767     -1.49993758
C       0.46849644     -1.61297357     -2.77313575
C       1.45836737     -1.45977891      1.50016152
C      -0.02614290     -0.88951049     -0.51866597
C      -0.86689321     -1.38101848     -3.10330906
C      -1.39209166     -0.76413877     -0.89884423
N      -3.36879773      1.39742039      0.88854734
N      -1.74521968     -0.95223760     -2.19536229
C      -0.85889727      1.46678414      0.86229605
C      -3.64264109      2.65269320      1.61484007
H       2.31779170      3.15661179     -2.59262244
H      -0.05501758      3.04770910     -3.60732101
H      -1.80071214      2.06931836     -1.89180565
H       4.31878845     -3.71485555      2.95837598
H       2.55684463     -4.73134113      1.56608612
H       4.24465905     -1.22073142      3.38668247
H       0.72822256     -3.28536462      0.61839268
H       2.47550410      0.16061154      2.50561530
H       1.90637741     -1.44078177     -1.18395248
H       1.18888304     -1.94715882     -3.53228019
H      -1.15284293     -1.43630705     -4.11424158
H      -4.15438372      0.78952678      0.75252888
H      -0.98988652      2.25986424      1.61500989
H      -4.44983371      2.51800124      2.35895880
H      -2.74930255      2.93518017      2.14816270
H      -3.94466810      3.47083927      0.97174547
