35
charge=0
C       3.31752930      1.77451005      0.70839783
C       2.23205203      1.23959331      0.88990905
O      -2.97816658     -0.86816477      0.98627704
O      -1.03217883     -1.82175254     -0.88141810
O       0.09472068      2.11813325      2.71035343
O      -2.13126180      1.26249453      2.66550734
C       5.51382420      2.64842476      1.32069639
C       4.50913208      2.46983598      0.39051517
C       0.95527012      0.61035820      0.93704732
C      -0.03491823      1.08732673      1.82278230
C      -1.30341914      0.58959240      1.86132857
C      -1.68235990     -0.41480033      0.97575337
C      -0.70576740     -0.91734144      0.09635745
C       0.60718135     -0.42469742      0.05671664
C      -3.85888528      0.08837840      0.38075436
C      -1.46283692     -3.11946609     -0.44008200
C      -1.20679667      2.23602196      3.29545030
C       4.60427160      3.05509938     -0.99214501
C       1.55789027     -0.90938707     -1.01063503
H       6.41942025      3.21278125      1.12658381
H       5.39256990      2.31249098      2.31816540
H      -4.63707468     -0.39427153     -0.21182886
H      -3.32005387      0.79190796     -0.26961145
H      -4.33075602      0.66443016      1.21266627
H      -0.91651436     -3.84354076     -1.05888192
H      -1.22912598     -3.34292544      0.59200191
H      -2.50836521     -3.27280053     -0.62142299
H      -1.58192697      3.24274636      3.17075395
H      -1.11205949      2.02682740      4.37137985
H       5.60169153      3.51035032     -1.19703485
H       4.41536070      2.26360682     -1.72651764
H       3.85743765      3.79160037     -1.16274277
H       1.35910350     -1.96071406     -1.23176549
H       1.48954531     -0.34278776     -1.88104132
H       2.62666900     -0.84265943     -0.68306824
