30
charge=0
O       0.73966597     -1.31065512     -3.46288553
O      -0.99646208      1.57364987      3.08699356
O       3.34699554      2.97595767     -2.14341257
O      -2.65599066     -3.34537911      2.36715932
O       1.61696608      3.94952750     -0.23819564
O      -1.49565173     -4.04306648      0.05348151
O       2.63802972      0.46383414     -3.34383963
O      -2.32865406     -0.77572267      3.39739621
O       0.00856723      2.20749893      1.10924991
O      -0.20687538     -2.13312199     -1.55380767
C       0.50509619     -1.16927626     -2.26622754
C      -0.56623422      1.28852945      1.97234061
C       2.14761186      2.26058995     -1.80493137
C      -1.91163334     -2.41518429      1.67657949
C       1.38801865      2.72723617     -0.70207756
C      -1.33714524     -2.73600695      0.45409576
C       1.87645205      0.97732988     -2.34114017
C      -1.67258244     -1.08712461      2.20978379
C       0.58623507      1.80780631     -0.02123612
C      -0.66660103     -1.80153575     -0.32231562
C       0.90112965      0.13000413     -1.73385795
C      -0.81761491     -0.09254754      1.46310161
C       0.29491382      0.48150668     -0.51989164
C      -0.46324240     -0.45149442      0.21941795
H       3.08580281      3.90725518     -1.80777426
H      -3.15243822     -2.98092507      3.17429113
H       0.96363529      4.19531666      0.38678691
H      -1.96288878     -4.44289308      0.82846800
H       2.25785644     -0.37071501     -3.73083519
H      -2.12296161      0.20960623      3.59328230
