12
charge=0
Br      2.34960185      0.36965408      1.81832600
Br     -1.43627425      0.75220337     -0.90088653
Br      1.33324773      3.60721099      1.25675323
Br      3.00364675      2.24135145     -1.06807233
Br      1.04475994     -2.52561130      1.12549538
Br     -1.03221163     -0.76610815      2.85602912
C       1.06095924      0.85597433      0.53384219
C      -0.07945768      0.10412946      0.26328331
C       1.29866332      2.19928655     -0.12781112
C      -0.45215057     -1.18061944      0.98991219
H       0.50709304      2.37270885     -0.84366819
H      -1.24775118     -1.68005321      0.44692346
