42
charge=0
C       1.74051370      0.78609589      1.31887973
C       1.58207030      1.95722748      1.54924729
O       3.18954809     -1.06766368      1.58450883
O      -0.52165994      2.97974491      3.35382211
C       0.32395464      3.66776471      0.43154604
C       0.54312249      5.16475506      3.29085812
C      -2.06709722     -2.49187813     -0.83742274
C      -0.00687287     -3.69768036     -0.67178985
C       2.63054784     -0.17231546     -1.31914001
C      -0.61857581      0.17890413     -0.66887447
C       1.86774775     -0.66999388      1.09785538
C       1.22827764      3.43713259      1.61678037
C       0.81010616      3.61512991      3.07338231
C      -0.60434243     -2.36486437     -0.33401045
C       1.79827424     -1.07234809     -0.42834424
C       0.25128245     -1.12297787     -0.92286920
H       3.44106341     -0.70832869      2.43174934
H      -1.04975270      3.49952228      3.83820243
H       0.53132468      3.20110815     -0.51827441
H       0.37155007      4.79276262      0.16458559
H      -0.64011110      3.38143600      0.62581741
H       0.44165958      5.40214689      4.35284460
H       1.39069627      5.78164568      3.00366542
H      -0.28944097      5.54709157      2.72589225
H      -2.59104713     -3.11197235     -0.09911070
H      -2.51514182     -1.48975752     -1.05192514
H      -2.18484613     -3.05784753     -1.71058102
H      -0.69911405     -4.49595433     -0.47268400
H       0.18300286     -3.87871600     -1.73247770
H       0.89516019     -3.90389716     -0.05431578
H       3.43648587      0.30648151     -0.80139013
H       1.95628931      0.62503594     -1.65221400
H       3.00919627     -0.66924496     -2.17051800
H      -0.00653378      1.00277371     -0.96909151
H      -1.47048231      0.27548632     -1.39608960
H      -0.85748611      0.18925311      0.40551169
H       1.16209718     -1.23650856      1.70839532
H       2.12287607      4.02717566      1.37005872
H       1.59167226      3.23653951      3.79627102
H      -0.65804334     -2.28440372      0.76624814
H       2.11433314     -2.12009134     -0.44357052
H       0.39313806     -1.21332688     -2.02598575
