25
charge=0
O       0.23799504      1.74636779     -2.43384015
O       4.36978916      0.08850186     -0.63824126
C      -2.04050250     -0.12467627      0.77492070
C      -1.72951773      0.04236280      2.09844220
C       2.26507085      1.00441834     -1.49402192
C      -1.25315713      0.37042981     -0.35877709
C       0.88571082      1.04096191     -1.47182320
C       3.00370277      0.20405152     -0.51173540
C      -0.54742777      0.68746215      2.62309599
C       2.34923850     -0.39634576      0.52379517
C       0.71775043      0.63240868      2.00220933
C       0.14277416      0.39486940     -0.40208302
N      -0.63273772      1.37347743      3.80651971
C       0.87545424     -0.19993578      0.76383093
H       0.90356364      2.09091414     -3.07867874
H       4.65169981      0.16168540     -1.55564162
H      -3.02857406     -0.56402070      0.57973249
H      -2.49080926     -0.30344984      2.77996333
H       2.77771405      1.57323731     -2.27363775
H      -1.76488588      0.75206459     -1.23230459
H       2.91235806     -0.95398355      1.27581005
H       1.61559958      1.16978294      2.38599762
H       0.13129493      2.03491475      3.97518732
H      -1.58968894      1.61919480      4.14853014
H       0.46701510     -1.21526352      0.94218043
