21
charge=0
O      -0.38862991     -5.24252914      0.11703001
N       0.39358368     -4.25074982      0.20366981
N      -1.45895556     -1.19181765      2.05174677
N       0.60626280      4.49977766      0.11813941
N       0.04303633      0.32786356      1.47085311
N       1.15102412      0.70772536      1.00415661
C      -0.35818253     -0.92208836      1.40254108
C       1.45471399      3.64610888     -0.28612338
N       1.63524434      3.38448441     -1.63964008
N      -0.21913974     -3.27723122      0.96500324
N       1.36277921      1.96639001      1.31761303
N       0.21743527     -1.90465499      0.57887065
N       2.04095367      2.82402013      0.44842973
H      -1.80326144     -0.33387457      2.65282769
H       0.33739749      4.64305544      1.08125501
H       0.98982532      4.00064251     -2.18179191
H       1.62112703      2.38957265     -1.85769361
H      -1.21302118     -3.41213110      1.27724758
H       0.56562704      2.35853211      1.78219859
H       1.17684279     -1.67701388      0.41466013
H       2.95805855      2.57664027      0.19172796
