23
charge=0
F      -1.89840954     -1.91444356      0.01290257
F      -1.15587570     -3.66808972      1.22850928
F      -1.55538298     -1.68433465      2.13189591
S      -0.69780496      4.49274518     -1.56014182
O       0.86293211     -2.50482324     -0.55003953
O      -1.24109582      1.14757917      0.79786588
O       1.29980550      1.86376003     -1.78146127
O       2.08263641     -0.33859774      0.24251128
C      -0.78778714      2.82817880     -1.33073086
C      -1.07456343     -2.26918587      0.97781618
C       0.42780555     -1.80898015      0.66647184
C      -0.25908447      0.68325534     -0.11448608
C       0.31099247      2.04214758     -0.70275349
C       0.78654731     -0.30436357      0.71065430
H       0.15545350     -2.95602324     -1.02661587
H      -1.43543638      0.47101417      1.43923902
H       2.21319329      1.70889204     -1.38057008
H       2.11124246     -0.96607129     -0.51667296
H      -1.78904875      2.34288706     -1.52505149
H       0.99005406     -2.25215779      1.48075636
H      -0.82338264      0.29158544     -0.97726099
H       0.73368837      2.74649082      0.06436256
H       0.74352052      0.04853520      1.71279952
