22
charge=0
I      -0.19938872     -5.47755510     -1.68139864
O      -0.95468503      0.86586818     -0.76641430
O       0.86652386     -0.75191344      0.76581873
C       0.57350975      3.33779705      1.44743537
C       1.44054016      2.58520692      2.17203905
C      -1.37963583     -2.45219903     -2.21999261
C      -0.28070444      2.76754005      0.48743208
C       1.51121212      1.20892332      1.95372247
C      -1.54315298     -1.09752609     -1.97822775
C       0.18606119     -2.64102968     -0.41318033
C      -0.52806683     -3.26415314     -1.42327792
C      -0.22641721      1.38062888      0.26566019
C       0.70299138      0.60667896      1.01222175
C      -0.81772897     -0.47727079     -0.97771386
C       0.07229271     -1.27634777     -0.20699544
H       0.49528744      4.40728711      1.60073777
H       2.04678240      3.12521091      2.90920846
H      -1.89794815     -3.00467222     -2.96598453
H      -0.94917064      3.42510698     -0.06168225
H       2.18932224      0.51881519      2.51644133
H      -2.18604899     -0.56341845     -2.61492071
H       0.87842463     -3.22297746      0.17907124
