22
charge=0
C       0.34096817     -0.53919502     -1.47228648
C      -1.91160534      1.38816109      0.64644581
C      -2.01207687      0.02077605      1.15459638
C       3.01113670      1.60970235      0.70611038
C       2.95231448      0.26250665      1.39264199
C       1.93077558      2.06949462      0.14004299
C       1.89241844     -0.65797792      1.55697746
C      -0.63260329      2.12777811      0.32086528
C      -0.73909747     -0.74159870      1.52893461
C       0.47041025      0.10549363     -0.28202407
C       0.57527424      1.49017891     -0.07189981
C       0.50086327     -0.53797758      0.94585892
H       0.31323427      0.01893570     -2.35348851
H       0.25204228     -1.64396970     -1.57785081
H      -2.79744964      1.95233275      0.36014132
H      -2.93551930     -0.54483778      1.34063486
H       4.00123700      2.13013186      0.76595076
H       3.80763880      0.01424350      1.96160139
H       1.87776429      2.96939605     -0.43994240
H       1.99919056     -1.62228864      2.09121038
H      -0.59074089      3.21386855      0.55698854
H      -0.66427731     -1.44325613      2.37038992
