33
charge=0
Cl     -7.54693365     -1.32344845      0.85174052
Cl      6.69921232     -1.08569642     -2.07045915
Cl     -6.14553979      0.18831410     -1.34523133
Cl     -5.53320931     -2.16826468      3.52543368
Cl      5.91563262     -1.71791818      0.76685985
Cl      6.09216061      1.80811428     -3.17459494
Cl     -3.23534194      0.70894924     -1.58136718
Cl     -2.50938059     -1.81463881      3.42231746
Cl      4.17950583      0.23452668      2.51018830
Cl      3.98087740      3.75741855     -1.66156982
S      -0.81412315      1.63420183      0.72441141
S       1.64929238      3.02958818      0.36439957
C      -5.79630815     -0.91978975      1.08308781
C       5.82345749      0.10970383     -1.05910801
C      -5.17266464     -0.31159406      0.00835659
C      -4.91119435     -1.29611465      2.16432882
C       5.42958187     -0.20292393      0.16450342
C       5.42788115      1.33736313     -1.59448286
C      -3.81582544     -0.06054149     -0.01219759
C      -3.53512724     -1.06421255      2.12494090
C       4.64614296      0.66650407      0.93210547
C       4.57088917      2.22660975     -0.91051827
C      -3.01801324     -0.30617795      1.08930892
C       4.25111570      1.97529024      0.44274643
C       1.08132150      1.49634539      0.92246326
C      -1.53542369     -0.06159959      0.94697359
C       3.36777780      2.98520738      1.25644841
H       1.53179416      0.72414520      0.25958704
H       1.40470015      1.22587519      1.86204657
H      -1.23422912     -0.54719544     -0.00001339
H      -0.92895613     -0.43032416      1.83155208
H       3.83028705      4.01102872      1.31909283
H       3.31348796      2.65410221      2.29949717
