13
charge=0
S       0.48986219      1.41505394     -3.12661135
N      -0.20537148      1.31551855     -0.53462132
S       0.52646408      1.56087724      3.14597047
C       0.55945439      0.87346493     -1.57626150
C       0.14179915      0.48680510      0.46609844
N       1.51367904     -0.01359020     -1.23651134
N       1.12868535     -0.43586372      0.09016936
C      -0.36144363      0.53765390      1.90577333
H       0.48801115      0.89012593      4.39854131
H       2.43890041      0.15549362     -1.48294949
H       1.95915983     -0.47845624      0.76533009
H      -1.35547851      1.00827535      1.84673221
H      -0.44441810     -0.43605458      2.21764315
