31
charge=0
O      -0.86243521      2.26309989      0.79177398
N       0.45433649     -0.28411612      0.37186716
P       0.39664909      1.40682680      0.04944979
C      -0.70745095      2.20509446      3.30762529
C       2.92285706     -0.39811842      0.13277884
C      -0.98539016     -2.43540890      0.74001255
C       1.27731634      1.39002191     -2.63713470
C      -0.48239299      3.00127559      2.01091274
C       1.74761922     -0.81900179      0.94372224
C      -0.76507782     -0.99096832      1.01394246
C       1.32917914      2.26243626     -1.29205363
H      -0.42642640      1.13402834      3.24308650
H      -1.74176665      2.20847091      3.46211415
H      -0.29189411      2.60510300      4.13795140
H       3.71668949     -1.07956666      0.34597354
H       2.86414511     -0.60804735     -0.95482955
H       3.27022978      0.61018788      0.40343990
H      -0.77913022     -2.60751503     -0.30457985
H      -1.94063354     -2.69942244      0.92991953
H      -0.35684811     -3.14827577      1.37308064
H       0.30534151      1.60652537     -3.19827346
H       2.11795839      1.58735828     -3.20515908
H       1.32388712      0.23629959     -2.47915533
H      -0.95232542      3.99244023      2.15999149
H       0.52151195      3.24583035      1.87612793
H       1.82230451     -1.91832896      0.88654238
H       1.87324151     -0.50696038      1.98962682
H      -1.73089647     -0.55694325      0.57251752
H      -0.79414375     -0.94263431      2.12158086
H       2.36195776      2.38889035     -0.91741701
H       0.91608067      3.25591200     -1.47094104
