25
charge=0
S       4.47002829      3.01374253      0.94472671
C      -5.08890678     -1.05035747     -0.62711086
C      -3.80898726     -0.58857229     -0.85008927
C      -1.29976929     -0.42202833     -0.22459754
C      -0.09322544     -0.99838213     -0.58749969
N       1.71759987     -0.15690003      0.83961474
C      -2.59043270     -1.20034859     -0.11714549
C       1.10728488     -0.15482188     -0.55158783
C       2.90503616      2.01342634      0.76043032
C       3.04855214      0.51306768      0.84650818
H       5.33604112      2.03061288      0.54349821
H      -5.52597699     -1.86122927     -0.03187437
H      -5.89207951     -0.63849435     -1.26762821
H      -3.69226634      0.16457602     -1.60627026
H      -1.17785086      0.59415020      0.18234883
H      -0.01193927     -1.96128231     -0.97758044
H       1.83341706     -1.13573436      1.03928479
H      -2.86753266     -1.30657808      0.89528762
H      -2.43263679     -2.23489959     -0.50527613
H       1.83857194     -0.39075564     -1.34818689
H       0.70391888      0.85951908     -0.83244127
H       2.22716033      2.25242526      1.63991285
H       2.41622793      2.20699250     -0.15648867
H       3.60248382      0.17721651      0.05455031
H       3.27528146      0.27465514      1.93761414
