26
charge=0
O      -3.80824086      0.57653672     -0.21400085
O      -0.18940208     -1.06372050     -0.30195979
S       1.94259125     -0.64420019      2.34114749
C      -2.70845439      0.06488182     -0.06777571
C      -0.31534042      0.09847819      0.05383014
C       2.91999638      0.57606997      3.16368110
C       3.34682093      1.60949821      2.37687282
N      -2.83422315     -1.27708798      0.06789880
N      -1.52319357      0.74940697     -0.11146251
N       0.83672630      0.82805039      0.33884935
N       2.84806731      1.50903172      1.09730530
C      -1.51275008      2.20285552     -0.20157842
C       2.77649680     -0.55477787     -0.32439820
C       2.10634055      0.27913784      0.75946881
H       3.20786255      0.50164237      4.20752066
H       3.95558093      2.46932021      2.70952251
H      -3.71438369     -1.64985748     -0.28478631
H      -1.96705175     -1.74035927     -0.17934976
H       0.70894185      1.83415134      0.45755163
H       3.36827465      1.98766381      0.38133665
H      -0.84877752      2.51567601     -1.05047355
H      -1.13387959      2.61847555      0.71275250
H      -2.52349475      2.58376460     -0.32027564
H       2.15742225     -1.42074086     -0.53204369
H       3.79412141     -0.88241872     -0.03011159
H       2.86855561     -0.01287107     -1.29091435
