26
charge=0
O       0.93526870      3.25687590      1.93654514
O      -0.53829331      4.05201011      3.52574329
S       2.54122758      0.25969475     -1.58854815
S       3.00125995     -1.82399652     -1.19251484
C      -0.05734299      3.12681625      2.66098960
N      -0.85011185      1.97062009      2.47403225
N       1.24289103      0.19626622     -0.45817981
N      -0.54870558      0.93660801      1.54009018
C       1.62665864     -2.80379905     -1.89356541
C       1.69207529      0.34652198      0.92293922
C       0.07506844      0.97357531     -0.78776777
C       0.61097503      0.05485990      1.83241227
C      -1.03581757      0.89442357      0.14855745
H       0.07548013      4.72919834      3.59044584
H      -1.78157356      2.02135421      2.94555881
H       0.70667466     -2.55041320     -1.24258117
H       1.73809964     -3.93287842     -1.70875427
H       1.54512445     -2.60166902     -2.90972195
H       2.40298634     -0.43192038      1.11707092
H       2.18517719      1.32571552      1.12003998
H       0.32777727      2.05259548     -0.78684317
H      -0.22126129      0.70624096     -1.75339723
H       1.01406036      0.42177612      2.78873563
H       0.38598491     -0.99015935      1.69544757
H      -1.76511386      1.64304592     -0.11306176
H      -1.54996176     -0.07475510     -0.10506485
