18
charge=0
Cl     -1.86992877     -1.69471354     -1.65990897
Cl      0.31012798      0.25787427     -3.16663590
Cl     -1.79940342     -1.92961069      1.41882364
Cl      2.19951920      2.01081710     -1.48918195
Cl      0.08857822      2.59720477      2.98201489
C      -0.72165973     -0.76801439     -0.73838962
C       0.25343695      0.11408495     -1.40599007
C      -0.70011587     -0.87359948      0.61549863
C       1.11789062      0.89688973     -0.64878007
N       0.08621651      2.06537367      1.24142032
N       0.19479334     -0.15007488      1.43077923
C       2.31151597      1.05042333      1.56042594
C       0.95933569      0.96494709      0.87058999
H      -0.87799655      1.97143701      0.86024409
H       0.01117732     -0.09103421      2.41536546
H       2.78884514      1.97991017      1.34108401
H       2.96153164      0.18823448      1.24589831
H       2.21132553      0.93504040      2.65193216
