37
charge=0
O      -3.04125043      1.19889327     -1.75141732
O       2.20712169      0.89724829      3.40216956
O       2.58126778      0.90038521     -4.17204212
N      -2.06915952      1.10716792      0.08501467
C      -2.05806237     -1.62656603      3.31138881
C       0.45271444     -2.45767865     -1.27274624
C      -0.97600753     -1.69468755      4.20601248
C       1.66296218     -2.47652982     -2.03737132
C       0.13331319      1.93952719      0.82270255
C      -0.38532389      2.14116354     -2.72852609
C      -2.02538483     -0.72399039      2.24404307
C      -0.33103726     -1.32690475     -1.28927811
C      -0.98487225      1.06453629      0.95314404
C      -0.78152661      1.05528185     -1.93662613
C       0.11796253     -0.86495322      4.00616226
C       1.99480012     -1.34370889     -2.82467872
C       1.19733626      1.82127853      1.69575251
C       0.79615060      2.04733526     -3.48037865
C      -0.95522622      0.13697026      2.04348897
C      -0.00564057     -0.13990148     -1.99587467
C       0.14474492      0.09837307      2.91646450
C       1.16366807     -0.16119455     -2.78824434
N      -1.96462432      1.15718530     -1.16853945
N       1.21282360      0.92718249      2.67010431
N       1.50644810      0.90908755     -3.51602424
H      -2.94599711     -2.24436832      3.36357018
H       0.14438118     -3.31751794     -0.68756333
H      -0.96840574     -2.38153565      5.04478967
H       2.28705093     -3.38994764     -2.09414007
H       0.11375866      2.77369340      0.08124203
H      -0.99676280      3.04738158     -2.72830605
H      -2.88421655     -0.78948363      1.56416335
H      -1.26648931     -1.35973206     -0.76319171
H       0.91492675     -0.85307214      4.76347149
H       2.83371445     -1.40632062     -3.52039260
H       2.07088824      2.45627064      1.61841522
H       1.10395347      2.87913157     -4.03675895
