15
charge=0
O       2.97081491     -0.34700331     -0.73879612
O       1.42798908     -2.24186192     -0.91108091
N      -0.86506772      2.08263187      1.51349925
N       0.35708896      0.19769779     -1.15835536
N       1.25521704      0.44393479      2.99181897
O      -1.61144583      2.59492698      0.39881365
C      -0.03395191      1.18425603      1.04594672
C      -0.15231154      1.10934062     -0.38231733
C       0.90758990      0.27508546      1.75808656
N      -1.02357874      2.11049102     -0.78338118
N       1.48026053     -0.79347002      1.19114847
S       1.62410429     -0.84643910     -0.46537583
H       0.84572444      1.22899552      3.50482603
H      -1.58513095      1.95518283     -1.63728734
H       2.34035568     -1.01611030      1.61011239
