21
charge=0
F      -1.70929640      1.00667311      1.39463491
F      -0.92925829      3.01092197      1.71937413
F       0.41345660      0.43471637      2.99158708
Cl      1.67369080      2.68023895      3.13945679
Cl      3.00781097      1.86170530      0.39818882
O       2.12931305     -1.26811887      1.58071061
C      -0.64680564     -0.75560732     -0.76733095
C       0.40102300     -1.30061624     -0.05768905
C      -0.49526438      0.74857138     -1.15013541
C       1.65911337     -0.59642314      0.48285409
C      -0.53827268      1.79265961      1.31688985
C       0.82398041      1.41965621      2.11686907
C       0.23543855      1.67948887     -0.02320967
C       1.47763666      1.00742071      0.68233440
H       2.96239865     -0.79184009      1.90012338
H      -1.46866199     -1.36544093     -0.96786316
H       0.37314029     -2.33090536      0.27926013
H      -1.51148653      1.21061381     -1.41519562
H       0.17500310      0.68552185     -1.92732381
H       2.51065234     -0.68060530     -0.25741957
H       0.56910972      2.66409050     -0.32339452
