41
charge=0
O       3.00498184     -1.08411834      2.32939692
Cl      2.93009266     -1.64879138     -2.73398023
N      -0.72002336     -3.82188417     -0.61732147
S      -1.37809004      2.80415282     -1.87576129
C      -0.66922219     -2.55880953     -0.67099690
C      -1.57139277      0.60869736      2.90434856
C       2.04472653      0.84210935     -2.81684206
C       1.08606116      1.84133282     -2.70707641
C      -0.42459883      0.29549879     -1.75244771
C      -2.01749770     -0.25203801      1.85952768
C      -0.23472621      0.69229108      3.19785736
C       0.25562751     -0.83470349      1.33602451
C       1.74149325     -0.46481105     -2.47661385
C      -0.12758910      1.58868933     -2.11381069
C       0.49480028     -0.74398500     -1.92777574
C      -1.10745634     -1.02649494      1.12103038
C       0.66883366     -0.01268718      2.40967867
N       0.20267890     -2.05583415     -1.61977882
N      -1.56179838     -1.88312280      0.11507139
S       2.38968847      0.22797126      2.65112672
C      -0.63668172      3.30034831     -0.27270875
C      -2.99718152     -2.22933543     -0.08821283
C       2.93572394      1.12854607      1.12476715
H      -1.37287499     -4.15078901      0.06231268
H      -2.27639422      1.17072313      3.50931702
H       3.03581647      1.08832785     -3.17062097
H       1.28612801      2.82324547     -3.06829707
H      -1.42763266      0.12230153     -1.38347328
H      -3.08452248     -0.30236242      1.73241058
H       0.12094746      1.36891704      3.99569682
H       1.02888388     -1.34179155      0.77598270
H       0.83118290     -2.78623124     -1.96466482
H      -1.01133039      4.29558052      0.01450345
H       0.44792566      3.36984566     -0.37874312
H      -0.90092072      2.56793257      0.49832361
H      -3.37499877     -2.78190729      0.73259287
H      -3.60591048     -1.33862252     -0.19094753
H      -3.14042195     -2.82154173     -1.03132418
H       2.47507791      2.12813340      1.11246537
H       4.01188766      1.26862290      1.16205176
H       2.64870661      0.60659398      0.21691132
