45
charge=0
N      -2.64728674      2.46560918      0.48683702
S      -5.88209677      2.84429445      2.82301207
S       1.77204301      1.50068258      2.89070172
C      -6.99928225      4.07157134      2.17359064
C      -6.48666403      4.65134856      1.05431554
C      -5.15747025      4.10767517      0.67277577
C      -4.72180099      3.10763553      1.54339320
C      -3.51523924      2.29451792      1.44397717
C      -1.15597776      0.89706163     -0.53586456
C      -0.50066301      1.90001210      1.49895853
C       0.06296339      0.21107438     -0.57572269
C      -1.46875863      1.72661377      0.50901985
C       0.70316296      1.21973281      1.52931525
C       1.01659257      0.32112502      0.48534902
N      -3.34139252      1.24816173      2.32609365
N       5.30026003     -2.32438890     -0.85252332
N       2.25436821     -0.33911757      0.39632655
C       6.74062091     -2.02069260     -0.94305646
C       3.13025325      0.33240256      2.58132178
C       3.40557729      0.27619654      1.09031988
C       4.36761103     -1.48340962     -1.62475606
C       2.39076971     -1.77484578      0.07852533
C       2.92439073     -1.97183317     -1.34398267
H      -7.93344927      4.35174898      2.64100975
H      -6.97345260      5.45866760      0.48089616
H      -4.62558200      4.42090846     -0.23228316
H      -1.86132566      0.84748514     -1.36223316
H      -0.72842013      2.53352012      2.32344014
H       0.29597500     -0.43905028     -1.44007348
H      -2.42591165      0.79200322      2.36624437
H      -3.93564751      1.23114362      3.12930777
H       4.97119975     -2.45186948      0.09653714
H       7.14431979     -2.12396009     -1.93950990
H       7.25599156     -2.70545493     -0.28910944
H       6.93237760     -0.99287008     -0.63789058
H       2.88545827     -0.66768334      2.92421132
H       4.01568651      0.60213643      3.15455428
H       4.29064240     -0.37250265      1.00257493
H       3.69384341      1.24788719      0.65476404
H       4.46158175     -0.42902163     -1.44999855
H       4.61747610     -1.58305666     -2.68922926
H       1.43727537     -2.31131536      0.11912038
H       2.99645354     -2.30170356      0.85614219
H       2.25050250     -1.51313564     -2.07992284
H       2.85599808     -3.04233091     -1.52350469
