40
charge=0
O       1.31461533      3.17884016      3.28422307
O       0.33087839     -0.80391641     -1.48148433
O       0.39479938      1.41003911      1.13389133
S       2.51428415     -3.04002032      0.71631718
Cl     -2.21379636      0.74519449     -2.58764924
S       3.74806841     -0.42268341      1.23864379
S      -2.69851329     -2.92914920     -0.41239075
C       2.31417504      3.26137926      2.59719266
C      -0.47134182     -1.23132517     -0.70477927
C       1.30000535      0.62479174      1.39328531
C       2.32593998     -1.38788757      0.94964244
C      -1.81947487     -1.55593609     -1.13048119
C      -2.64758096     -0.77811011     -1.93742893
C       2.72289809      0.98865463      1.58704539
C       3.18324435      2.18857029      2.12449200
C      -6.47421400     -2.55612699     -1.93194072
C      -6.27759691     -1.39876406     -2.73525198
C       6.93770482      2.84511226      2.41081769
C       6.82350671      4.15890550      2.83342503
C      -5.41117732     -3.10107920     -1.22028378
C      -5.02092669     -0.75283515     -2.77091296
C       5.78069035      2.08678424      2.10945419
C       5.57475869      4.72131500      3.02280400
C      -4.16216183     -2.45520505     -1.27858734
C      -3.96182688     -1.31916121     -2.04444215
C       4.53155425      2.68416371      2.30553117
C       4.43290631      4.00132229      2.67695713
N       3.11872953      4.34971216      2.85326256
N      -0.13737640     -1.31351946      0.64220254
N       1.11655187     -0.75309536      1.14087069
H      -7.50128337     -2.89679022     -1.86840772
H      -7.09116316     -0.94448554     -3.28910921
H       7.91788598      2.39717187      2.30712868
H       7.70390243      4.74453049      3.00318978
H      -5.57276931     -3.97456457     -0.59885927
H      -4.85861909      0.21716051     -3.25239980
H       5.85735669      1.03329628      1.78135807
H       5.52660529      5.75297983      3.33828355
H       2.87491587      4.95301423      3.62272306
H      -0.85906684     -1.56119505      1.33875524
