47
charge=0
N       1.63070225      0.33829324     -1.56367774
O       0.44029529      1.84688941     -0.45344415
O      -0.38431318     -1.59398980      0.93376695
S       2.91420235      3.22215586      0.95149947
C       1.66491926      1.37993938     -0.78099406
C       4.16419941      1.37555613     -0.42863853
C       5.18241624      2.05917527      0.36963387
C       2.88138211      1.89667110     -0.19474365
C      -0.44463012      1.10422511     -1.14651092
C       4.66927065      3.06697233      1.15824484
C       0.26701133      0.13938115     -1.82620656
C      -2.09064402      0.72693295      3.23392763
C      -3.39246035      0.23118791      3.06410181
C      -1.05026159      0.11673375      2.51074394
C      -3.66882274     -0.84061479      2.18779437
C      -1.33510098     -0.89327944      1.59999907
C      -2.63670195     -1.37800286      1.44694042
N      -1.16919980     -1.86916926     -2.20216187
C      -1.93255414      1.31712666     -1.16474262
C       5.46855394      3.98274490      2.02961352
C      -2.14693461     -2.55126053     -3.05392680
C      -0.21087745     -0.88742333     -2.80639378
C      -2.61886237     -2.40209939      0.36395455
C      -0.55901028     -2.76978781     -1.20326327
C      -1.10943461     -2.64814669      0.25577771
H       4.28768306      0.51810545     -1.07205046
H       6.26118477      1.80509892      0.34826168
H      -1.88029581      1.52473531      3.96714704
H      -4.18292593      0.62158234      3.64684493
H       0.00166245      0.38961990      2.69514164
H      -4.68196897     -1.26963765      2.14662651
H      -2.48530212      0.61658940     -1.77824973
H      -2.11283568      2.32328697     -1.53777264
H      -2.34395543      1.19011971     -0.13779194
H       6.44232790      3.52313368      2.18292614
H       5.01633376      4.01650204      3.02326501
H       5.60146545      4.97441142      1.61544566
H      -2.89573068     -1.85486207     -3.43095375
H      -2.72227685     -3.26812938     -2.43452927
H      -1.64074932     -3.07324680     -3.90209374
H       0.66855332     -1.37170568     -3.23679487
H      -0.67306015     -0.34684547     -3.62869196
H      -3.12497246     -3.33218722      0.67194585
H      -3.02524051     -1.96837207     -0.55546616
H       0.55123703     -2.61314177     -1.16864038
H      -0.78145526     -3.82621669     -1.46789011
H      -0.81282333     -3.54905316      0.77202633
