16
charge=0
N      -0.55821872      0.70913388     -0.17976706
N       1.97978514      1.42376215      2.33978869
N      -1.61526297     -0.16048345     -0.18439720
N       3.26208503      2.51650466      0.63810948
O       3.01888252      2.36516414      2.06438882
O      -0.37413833     -0.41052268      1.66672759
C       0.18883604      0.51881759      0.84976281
C       1.33221267      1.40097650      1.17598562
C      -1.36452799     -0.85920404      0.87137506
C       2.18183809      1.94031724      0.07323443
N      -1.92214395     -2.06204630      1.31517362
N       2.23731364      1.96521137     -1.24430345
H      -2.67297736     -2.43991150      0.64793179
H      -1.35133914     -2.77723159      1.74948711
H       1.38620616      1.62938747     -1.71888688
H       2.73828450      2.70696033     -1.59777490
