26
charge=0
C      -1.57984007      1.32893993      0.15120999
C      -0.86177000      2.25492006     -0.49361003
C      -1.47484007     -0.15011000     -0.08102999
C      -0.96675997      3.73396990     -0.26137001
H      -2.30171996      1.66406007      0.90763999
H      -0.13989000      1.91979008     -1.25003996
H      -0.72160996     -0.36168003     -0.85851997
H      -2.44538986     -0.55681002     -0.41152999
H      -1.17578010     -0.66442001      0.84775993
H       0.00379000      4.14066976      0.06914001
H      -1.26582000      4.24828000     -1.19016008
H      -1.72000004      3.94552981      0.51612001
C       1.13144005      0.15613999      4.18161961
C       3.24547002      2.84639006      2.29862007
C       2.15549999      0.73913002      3.20836999
C       2.22140995      2.26340016      3.27187019
H       1.10607003     -0.94446006      4.11357972
H       0.12586000      0.54617002      3.95077982
H       1.38949996      0.43882000      5.21607976
H       2.98740014      2.56371990      1.26415991
H       4.25105009      2.45636022      2.52946995
H       3.27084017      3.94700015      2.36667005
H       3.15770009      0.32902000      3.43827010
H       1.89666997      0.43614999      2.17558002
H       1.21920998      2.67351003      3.04197992
H       2.48024011      2.56637997      4.30465991
