26
charge=0
C       4.77563992      1.53475993      0.39261999
C       1.89290998      4.66498000      3.16832021
C       4.20116999      2.94540993      0.52136998
C       2.75439989      4.51638055      1.91442993
C       3.33710996      3.11234000      1.76936009
H       5.40193998      1.30009997      1.26971007
H       3.95755996      0.79701994      0.33697004
H       5.39423983      1.44334003     -0.51599003
H       1.05128000      3.95280982      3.13535968
H       2.49566007      4.45589976      4.06810002
H       1.48597003      5.68712992      3.24716998
H       5.02987941      3.67836011      0.55957002
H       3.58849002      3.17631987     -0.37124002
H       3.58565003      5.24658006      1.95017999
H       2.14425989      4.74453958      1.01937011
H       2.50712980      2.38075998      1.73240011
H       3.94852019      2.88280022      2.66320002
N      -0.19346001      2.18903988     -0.96722003
C      -0.93048002      2.23577997      0.13119000
C       0.24604999      0.88946999     -1.05052994
C      -0.22960999      0.14450999      0.00682000
N      -0.97886001      1.02203000      0.75032003
H      -1.44675004      3.11310002      0.52090995
H       0.88377998      0.55490000     -1.86873007
H      -0.10613000     -0.90098999      0.28927002
H      -1.48288994      0.80467000      1.61359002
