12
charge=0
O       1.39975004     -0.39454998      1.99139995
C       0.00000000      0.00000000      0.00000000
C       0.26644999      0.32175002      1.49021008
H       1.29348990     -0.40529999      2.96555985
H      -0.72222004      0.68140001     -0.48031999
H      -0.32602000     -1.03894995     -0.17579001
H       0.98663005      0.14372001     -0.47171997
H      -0.63670998      0.04462000      2.06722994
H       0.33248996      1.42671997      1.47858000
O      -3.53576993     -1.41361994      3.86280020
H      -3.53616003     -1.81896995      2.96616999
H      -3.67809011     -0.45350001      3.70100988
