24
charge=0
S       0.36688998     -0.63830005      2.71402006
C       2.17799004     -2.53319007      1.72789007
C       1.95685011     -1.51436992      2.83701999
H       0.60118999     -0.07379000      1.51030007
H       1.36300997     -3.27638995      1.72048994
H       3.13421006     -3.06116997      1.88117998
H       2.20624005     -2.03224988      0.74561002
H       1.91479998     -2.01354998      3.82418997
H       2.77745995     -0.77209005      2.86991012
S       1.76808002      2.54698024     -0.80597998
C       4.26997999      2.06761008      0.18399999
C      -0.76310005      3.52653006     -1.12681003
C       3.01039005      2.87729006      0.46787000
C       0.44353999      3.62134003     -0.20064000
H       4.69051998      2.33958001     -0.79874999
H       4.04309979      0.98820000      0.18304000
H       5.02922991      2.26682985      0.95889001
H      -1.13888004      2.49027002     -1.16653001
H      -1.57230003      4.18039984     -0.76040994
H      -0.49145998      3.84165004     -2.14834009
H       2.58863005      2.61269010      1.45658995
H       3.23471011      3.96127983      0.47683000
H       0.17380999      3.31269008      0.82767997
H       0.81988993      4.66127023     -0.15210000
