22
charge=-1
C      -2.03968003      0.12440000      1.04976998
C      -1.42602997      1.31931009      1.02797997
C      -2.59919996     -0.65476000     -0.10714000
C      -0.92605999      1.95131005      2.30188978
C      -1.17136998      2.13960993     -0.20954000
H      -2.15182983     -0.35270003      2.03232003
H      -2.45748007     -0.12695999     -1.06524004
H      -3.67877015     -0.82024995      0.04702000
H      -2.09814003     -1.63547989     -0.16826001
H       0.16357002      2.11167004      2.24186999
H      -1.41712003      2.92656003      2.45796000
H      -1.13946999      1.30684996      3.17122000
H      -0.08600000      2.30108005     -0.32144999
H      -1.55081994      1.65323001     -1.12389989
H      -1.66383991      3.12076988     -0.10269000
O       1.46268994      2.55387998     -0.33892000
O       1.71488995      2.34365995      1.91257997
C       2.09828991      2.63889017      0.74750995
C       3.53534980      3.21949982      0.64075000
H       3.48098021      4.31580993      0.74927002
H       4.18700032      2.81919000      1.43556003
H       3.98839990      2.98480996     -0.33713999
