17
charge=1
C       0.83930002      1.57162996      0.62181001
N       2.13383003      1.87625005      0.50857000
N      -0.01768000      1.97167988     -0.31087999
N       0.41312002      0.86470998      1.67501996
C       0.36178999      2.74471011     -1.48912997
H       2.46286003      2.41655016     -0.29539000
H       2.79682007      1.56989998      1.22488996
H      -1.00240007      1.72085999     -0.19276001
H      -0.57835003      0.62938001      1.76515991
H       1.07829995      0.55962995      2.38985981
H      -0.54617002      2.93480016     -2.08586007
H       1.08484000      2.19434010     -2.11434008
H       0.80666998      3.71378995     -1.20704004
S       4.78400016      0.86430997      4.12915992
S       3.69082982     -0.85614005      4.41796022
H       6.01119000      0.30366000      4.08232974
H       3.69132994     -0.85680999      5.76796024
