15
charge=0
C       0.49708003      3.11665007      2.29943005
C       1.03683005      3.35358997      1.10273004
H       0.04215000      2.14760026      2.53437023
H       0.49322002      3.88431019      3.08167013
H       1.04068006      2.58592985      0.32049000
H       1.49175005      4.32265013      0.86780003
N       5.22467064      2.25838003      3.51825006
C       4.18608007      3.01443013      3.19947001
C       4.88397032      0.98987995      3.11349012
C       3.62854006      0.97944996      2.54518010
N       3.19931004      2.28168990      2.60936992
H       4.09616986      4.08704985      3.37123979
H       5.56058978      0.14658001      3.25173995
H       3.01919011      0.18560000      2.11319992
H       2.30081005      2.63843017      2.27473993
