17
charge=1
C       2.04435018      3.09630989      1.97545009
N       1.89228003      1.84100012      2.40265982
N       2.77488995      3.95102004      2.68264997
N       1.45936989      3.48565995      0.83668000
C       3.44606992      3.60998992      3.93287994
H       2.33818007      1.54016992      3.27283990
H       1.33037999      1.17987998      1.86069988
H       2.87058006      4.90515000      2.32626019
H       1.57370993      4.44702022      0.50613999
H       0.89801999      2.82245997      0.29670001
H       3.97538995      4.50634988      4.29753962
H       4.18247981      2.80215007      3.78555022
H       2.72308002      3.29095981      4.70236037
N       0.11625999     -0.16731999      0.64630003
H       0.15789001     -1.04206000      1.17895001
H       0.46673999     -0.37430001     -0.29442001
H      -0.87485004      0.07505000      0.54838001
