14
charge=1
C       0.00000000      0.00000000      0.00000000
C       1.34972005     -1.94052995     -0.33771001
N       1.35912999     -0.55555997      0.14484000
H      -0.11778000      1.04129007      0.34416001
H      -0.72880998     -0.63189998      0.53494002
H      -0.22391000     -0.04129000     -1.07924001
H       2.40831002     -2.24967006     -0.31682000
H       0.99348003     -1.97567996     -1.38100990
H       0.76185000     -2.65799998      0.25915000
H       1.91204994     -0.01059000     -0.55018001
H       1.78862004     -0.39672000      1.08082995
O      -3.79628994     -0.27494003      3.07466011
H      -4.26869966      0.13496999      3.83430013
H      -3.57768015     -1.18443002      3.38007972
