13
charge=0
S       1.80880996     -0.06088000     -0.11949000
S       2.36858979      1.66556006      0.57792996
C       0.00000000      0.00000000      0.00000000
C       2.22994002      1.57474991      2.39340027
H      -0.19455000      0.10140000      1.08096003
H      -0.48018001     -0.92601003     -0.35853999
H      -0.45670001      0.85785003     -0.52165001
H       3.11651987      1.14115998      2.88592004
H       1.34136006      0.99473998      2.69441013
H       2.10658998      2.61382004      2.74230010
O      -2.67616985     -0.50956999     -2.03139990
H      -1.82168012     -0.16614000     -2.37803001
H      -3.22618004      0.29356000     -1.88741988
