22
charge=0
O      -0.37815002      1.40802008      0.52541000
C      -1.92093996      5.15169994      1.50022990
C      -2.58614988      4.30175003      0.61505005
C      -0.71687995      4.74118004      2.06989002
C      -2.05709985      3.05274993      0.29919002
C      -0.17993000      3.49173029      1.75896000
C      -0.85143003      2.64813988      0.87302997
H       0.47394998      1.25541991      1.00162005
H      -2.34211998      6.13545007      1.74608000
H      -3.53531977      4.61447992      0.16021999
H      -0.18239999      5.39905028      2.76784991
H      -2.56882002      2.37341991     -0.39526001
H       0.76867998      3.16985010      2.20857991
N       5.53979970     -0.48385001      3.19923030
C       5.87077063     -1.42184998      4.07243003
C       6.68066042      0.26199002      3.02268010
C       7.70993012     -0.22972001      3.79598992
N       7.17297050     -1.30499003      4.45905995
H       5.21385016     -2.20275005      4.45551975
H       6.70378003      1.11676005      2.34670988
H       8.74641952      0.07960000      3.93051004
H       7.66168032     -1.90990992      5.12371034
