25
charge=0
O       3.55046016      3.97403013      3.05112012
C       3.56243984      4.95998009      2.03799988
C       4.75288014      3.23070006      3.03421997
H       2.60760032      5.50939024      2.09309000
H       3.65241010      4.51065970      1.03469003
H       4.38921968      5.67652999      2.17800997
H       4.89374008      2.70747004      2.07349987
H       5.63054058      3.87333983      3.21680997
H       4.69390979      2.47875009      3.83902024
C      -1.57273997      0.21574000      2.52615987
C      -0.77804992      1.12602994      3.18565008
C      -0.37517998     -0.93478000     -0.89395997
C       0.80192993     -0.15666000     -0.91496997
C      -1.24331999     -0.90007996      0.18652999
C       1.13453010      0.67322997      0.14662999
C      -0.93573999     -0.06911999      1.27939997
C       0.25701999      0.70625995      1.23519000
N       0.32014998      1.41921993      2.40872006
H      -2.50865993     -0.19784001      2.90179017
H      -0.90786999      1.59596997      4.16054010
H      -0.60373002     -1.57914994     -1.75311992
H       1.46688999     -0.20871000     -1.78716005
H      -2.15595015     -1.51057006      0.19021999
H       2.05073996      1.27808003      0.12887000
H       1.06743002      2.06838991      2.66694992
