23
charge=0
S      -1.50281996      1.13843001      1.78817998
C      -0.02165000      0.41297998      2.57779973
C      -1.45235003     -0.00405000      0.36134998
C       0.22986000     -0.91394001      1.86763004
C      -0.07613000     -0.66225999      0.39434001
H       0.83709004      1.10100990      2.45681997
H      -0.20811000      0.29492000      3.66258006
H      -2.25849005     -0.75621998      0.46043997
H      -1.63709998      0.56672002     -0.56898999
H       1.26547998     -1.26862000      2.03237011
H      -0.45736998     -1.68627999      2.26344003
H      -0.05957000     -1.59080008     -0.20814000
H       0.67877003      0.02754000     -0.02962000
S       3.45582984      4.84592026     -1.33019995
S       2.13311997      4.57642987     -2.85748003
C       2.55322973      5.96617005     -0.23833999
C       2.47385991      6.00246993     -3.91202980
H       3.18414972      6.14191026      0.64916001
H       1.59761000      5.52479053      0.09117000
H       2.34511994      6.93649010     -0.71978005
H       2.25735985      6.95641973     -3.40240978
H       3.52443016      6.01351952     -4.24785003
H       1.82209987      5.92114959     -4.79814990
