20
charge=0
S       3.15572005      1.08871998      1.79167994
S       3.97601977      2.48387999      3.03077994
C       3.48377983      1.78932001      0.15972001
C       2.63637013      3.68434995      3.19193994
H       3.10390002      1.07413005     -0.58915000
H       4.56455969      1.93281997     -0.00741000
H       2.97368997      2.75624998      0.01321000
H       2.38198000      4.15409000      2.22692995
H       1.72654993      3.21954979      3.60763996
H       2.97873988      4.47003990      3.88625995
N      -0.68539000      1.86810997      2.40986010
N      -0.23248001      1.39917990      0.10060001
C      -0.43322998      2.21668000      1.14188001
C      -0.74061001      0.55110998      2.65157991
C      -0.29312000      0.08778000      0.36990001
C      -0.54826999     -0.39301997      1.64924986
H      -0.38576002      3.29349019      0.93253002
H      -0.94672000      0.25148001      3.68761007
H      -0.13027001     -0.59386999     -0.47534998
H      -0.59574001     -1.46983003      1.85861007
