14
charge=-1
N       2.23439013      0.26533002      2.45824009
C       1.22173998      0.98977000      3.23430991
H       2.11624998      0.45590999      1.45704011
H       3.17328004      0.59917999      2.70257986
H       0.22707001      0.61284001      2.94248012
H       1.23837998      2.08373002      3.09435003
H       1.38180991      0.76936001      4.30314037
O       1.51128000      1.48994992     -1.13088997
O       1.79723993      3.51371011     -0.13104000
C       1.42359990      2.74647997     -1.06017991
C       0.72899999      3.43968997     -2.26460984
H      -0.35412000      3.49326017     -2.06312994
H       1.11102998      4.46424032     -2.40932995
H       0.88577996      2.87085006     -3.19651976
