17
charge=-1
O       4.15406982      4.23781986     -0.51320003
C       3.31539003      3.55785977      0.05521000
C       2.31328986      4.16040990      1.01271008
C       3.21902998      2.06474019     -0.15780000
H       2.47204993      5.24828027      1.10179995
H       2.41827989      3.70650994      2.01249006
H       1.28613999      3.98314005      0.65196001
H       3.37080982      1.53234008      0.79620006
H       2.22527996      1.79809004     -0.55527004
H       3.98663989      1.72789007     -0.87467997
O       1.79260990      1.56711992      2.43953981
O       0.34896001      1.90486998      0.71360998
C       0.69379995      1.43736003      1.83346008
C      -0.39445999      0.62127002      2.58401996
H      -0.98259004      1.31224998      3.21110981
H      -1.07678004      0.12136000      1.87610004
H       0.05984000     -0.14449000      3.23505025
