23
charge=0
O       0.67516995     -1.79936002      1.47062008
O       1.18762996     -0.39411004      3.15845002
C       1.03077997     -1.63018005      2.61563026
C       1.35276014     -2.70311001      3.61242012
H       0.95404997      0.24463000      2.43080007
H       1.22071009     -3.69894000      3.15690020
H       0.68697994     -2.62586003      4.48842022
H       2.39701012     -2.60849004      3.95476009
C      -0.00382000      3.43220002      0.06905999
C       1.32299009      3.40734008     -0.14025999
C      -1.06299997      2.58342016     -0.57615998
C       2.23795986      4.34337006      0.60733004
C       2.03117987      2.48738991     -1.10014996
H      -0.37207003      4.16123956      0.80287996
H      -0.63421998      1.87201000     -1.30187008
H      -1.78475016      3.23060013     -1.10230991
H      -1.60184992      2.01320000      0.19915000
H       2.96954013      3.76581008      1.19710992
H       2.78640005      4.98380017     -0.10377001
H       1.66490008      4.98974005      1.29319997
H       2.75661990      1.87032001     -0.54374998
H       1.33592989      1.81770994     -1.63379003
H       2.57928016      3.09024990     -1.84360998
