26
charge=0
S       2.85995994      0.97110000      4.74541012
S      -0.11820000      1.10651009      3.99300999
C       2.43442001      2.18095998      6.00750041
C      -0.06990000     -0.68780002      4.11894984
C       1.60166988      1.39635997      3.52003000
H       3.09922003      2.01919009      6.87264976
H       1.38943007      2.06105994      6.33954981
H       2.57240010      3.21388974      5.64608015
H       0.15438000     -1.15948000      3.14744004
H       0.68549996     -1.01653006      4.85237994
H      -1.06165996     -1.03255997      4.45682026
H       1.67487007      2.47030002      3.26168004
H       1.84580993      0.81405994      2.61076001
O      -0.23211001      0.83901999     -2.06104997
C       1.31582009      3.89065001     -4.43529993
C       1.39456993      2.55416991     -4.83035999
C       0.70766001      4.21197986     -3.22297998
C       0.87206998      1.54514009     -4.02507021
C       0.18169999      3.20746993     -2.41029991
C       0.26465002      1.87383991     -2.81278003
H      -0.62954996      1.21487001     -1.23828989
H       1.72925997      4.68254984     -5.07369978
H       1.87139015      2.28915991     -5.78326010
H       0.63840004      5.25884993     -2.89916996
H       0.92656005      0.48960001     -4.32248006
H      -0.29704999      3.46227994     -1.45558996
