49
charge=0
C       8.07369614      0.63309884     -0.43734240
O       7.12686518     -0.35799675     -0.09368273
C       5.79281379      0.00277566     -0.08507165
C       5.33905684      1.25632328     -0.46763090
C       3.97567939      1.58386867     -0.46701452
N       3.58932666      2.82236930     -0.89437806
C       2.33783257      3.09185119     -0.85089918
C       1.29799460      2.22596468     -0.44086592
C       1.66410376      0.94734158     -0.03507461
C       3.05268852      0.60533678     -0.04453957
C       3.55564044     -0.67392323      0.33414913
C       4.84188094     -0.98309162      0.35357528
C       5.16492620     -2.41362803      0.77772169
O       4.27347324     -3.15868845      1.07751510
N       6.45515061     -2.76318598      0.88115957
O       0.82852782      0.01683265      0.42518310
C      -0.52322947      0.05888969      0.18770320
C      -1.03824554      0.24288419     -1.08809316
C      -2.42665956      0.18542151     -1.25616027
C      -3.27204419     -0.07902404     -0.17590309
C      -2.75952725     -0.27702740      1.07431337
C      -1.35413076     -0.20275813      1.26442889
N      -4.66535472     -0.09564667     -0.43629457
C      -5.68916926     -0.42345779      0.40804365
O      -5.53493344     -0.79775416      1.56054845
N      -6.91119432     -0.24884214     -0.15740902
C      -8.10681085     -0.41094120      0.63463656
C      -9.26822102      0.52243544      0.39359482
C      -9.36485707     -0.91009555     -0.05489764
Cl     -3.07162475      0.46187664     -2.84707921
H       7.94175932      0.96173062     -1.48960780
H       8.02247321      1.49410009      0.18571506
H       9.01414494      0.14893219     -0.33564601
H       6.01540449      2.00960841     -0.78611029
H       2.03438215      4.09893521     -1.17971700
H       0.27884680      2.51805347     -0.43783405
H       2.83973281     -1.45073388      0.66628661
H       7.20286668     -2.15210422      0.58343249
H       6.66176925     -3.71303904      1.17471145
H      -0.40501275      0.49865161     -1.92779393
H      -3.40841159     -0.47797426      1.89723077
H      -0.90879409     -0.37233706      2.23173735
H      -4.89505214      0.03276465     -1.41949748
H      -6.98733646      0.45978273     -0.89414540
H      -7.89849991     -0.74029799      1.61173993
H      -9.16266239      1.28923890     -0.35122657
H      -9.80973754      0.88159107      1.25835665
H     -10.00338573     -1.61459024      0.50918170
H      -9.29326735     -1.12786078     -1.11471769
