111
charge=0
C      -7.74578250      3.79281947     -0.94452372
C      -8.67589365      2.57308727     -1.00527949
C      -9.36703449      2.37640930      0.36010503
C      -8.38499350      2.15572456      1.49331351
C      -7.31315777      1.16306816      1.11272768
C      -7.11511549      0.77736372     -0.17030450
C      -7.89087212      1.32565284     -1.31873007
C      -6.07820187     -0.22052663     -0.54235850
C      -5.03948418      0.10407402     -1.40408336
C      -4.01890851     -0.78130089     -1.71292286
C      -4.05159985     -2.08223121     -1.21927349
C      -5.12656350     -2.45056899     -0.35746289
C      -6.09829261     -1.54870030     -0.05477806
Cl     -2.83905484     -3.21591744     -1.63337493
C      -6.55055700      0.64482944      2.29433522
N      -5.96782872      1.75732299      3.08114635
C      -5.16152478      1.24044167      4.18849926
C      -3.91327912      0.43472913      3.76669036
N      -3.17699930      1.05860144      2.66584222
C      -3.91018277      1.82246768      1.68800827
C      -5.12481120      2.58474969      2.27456597
C      -2.10048213      0.33860876      2.18626472
C      -1.68219615      0.45447965      0.86533996
C      -0.65003547     -0.31826680      0.32065611
C      -0.08942777     -1.32412588      1.10155333
C      -0.41384566     -1.38108946      2.45027746
C      -1.40475514     -0.58692514      2.98291509
C       0.78760850     -2.35190164      0.46044221
O       1.19087765     -2.28009128     -0.67256940
N       1.16733615     -3.41447469      1.28335154
S       2.61683704     -4.24200466      1.06782970
O       2.70143415     -5.07615327      2.22837331
O       2.64523638     -4.81741729     -0.22507509
C       3.75548838     -2.92059617      1.20419611
C       4.13799613     -2.22262956      0.04244103
C       5.01473800     -1.17454655      0.17212868
C       5.41421664     -0.67958422      1.44126272
C       5.02952134     -1.42408562      2.54180190
C       4.22959210     -2.53362920      2.44635208
N       6.10482367      0.51648925      1.64823194
C       5.75156155      1.76616876      1.00449961
C       6.91913915      2.78667524      1.12792311
C       6.39955713      4.15201687      0.77738135
C       5.78586647      4.16034192     -0.64436294
O       6.51240858      3.27684220     -1.51940571
C       7.86698892      3.14784864     -1.15818649
C       8.10047464      2.50028981      0.19014689
N       5.60073084     -0.71187955     -1.06727287
O       6.66790058     -0.09750250     -1.02399922
O       5.02987414     -0.92663107     -2.09871635
O      -0.35238130     -0.06313021     -0.98610087
C       0.90518899      0.37066360     -1.34556347
C       1.85285460      0.93337103     -0.50447463
N       3.00787578      1.38854495     -0.92094465
C       3.26734892      1.34812008     -2.20240132
C       2.37357347      0.79149160     -3.17773631
C       1.18272715      0.25223979     -2.72661572
C       3.05348666      0.89182401     -4.46398399
C       4.20690122      1.54327898     -4.18454233
N       4.34169696      1.84344664     -2.87080456
C      -9.72665735      2.83036915     -2.06808091
H      -7.31594398      3.99289316     -1.92360001
H      -8.29085798      4.68410171     -0.66844244
H      -6.89826137      3.68767114     -0.26614866
H     -10.01009478      3.25524667      0.57648308
H     -10.02767740      1.51321678      0.25974032
H      -8.87859765      1.78857956      2.38961310
H      -7.86905791      3.07688189      1.79152461
H      -8.61989372      0.54662177     -1.67301164
H      -7.24719051      1.50631079     -2.15943091
H      -4.99852623      1.08324672     -1.84012031
H      -3.19318695     -0.49938808     -2.32245676
H      -5.14086191     -3.44596367      0.01888017
H      -6.90815019     -1.83257329      0.62416190
H      -5.77610241     -0.08158248      1.97079295
H      -7.21824162      0.13118450      2.98136704
H      -4.88236410      2.08134339      4.78320880
H      -5.79967249      0.59936848      4.82170057
H      -3.28525581      0.39171392      4.61419705
H      -4.20344432     -0.58585870      3.49698858
H      -4.30980201      1.17645314      0.86330084
H      -3.27852915      2.59286465      1.21250325
H      -4.74838347      3.42886504      2.93612787
H      -5.69556117      3.01941168      1.46642609
H      -2.14691972      1.11187945      0.16555897
H       0.13546883     -2.01040203      3.12130276
H      -1.64757902     -0.70864698      4.01897684
H       0.66501673     -3.61616872      2.11614767
H       3.75390623     -2.49957318     -0.90367435
H       5.36549594     -1.08542690      3.53672552
H       3.93678587     -3.11121262      3.30431182
H       6.39819503      0.63768857      2.61723813
H       5.53313443      1.54238300     -0.01581042
H       4.86383230      2.19124601      1.42752284
H       7.26338515      2.77608171      2.14220321
H       5.60323320      4.48905548      1.48770557
H       7.19848258      4.88105137      0.84221216
H       4.77239081      3.82413885     -0.63481119
H       5.80524078      5.17361739     -1.05042653
H       8.32109357      2.53912355     -1.96718864
H       8.36445369      4.11950004     -1.15911054
H       9.00277416      2.82475725      0.60095226
H       8.16091553      1.40364699      0.06764694
H       1.67096765      0.98264529      0.57053323
H       0.49940906     -0.24642355     -3.34506393
H       2.70548629      0.54152955     -5.41263822
H       5.02419296      1.79894124     -4.87653359
H       5.16163273      2.27045232     -2.44668080
H     -10.43579948      2.01731914     -2.10284004
H     -10.28913438      3.73591477     -1.87999188
H      -9.26539265      2.90927691     -3.05812273
