64
charge=0
C       7.27748574      2.62975400     -2.61961150
C       6.22829922      2.75079378     -1.86283201
C       6.24659673      2.19263005     -0.46889063
O       7.26811025      1.77830486      0.01931897
N       5.07290290      2.20694479      0.25079688
C       3.73641189      2.07709176     -0.36231726
C       3.32838273      0.61067670     -0.42732341
C       3.37713913     -0.00658353      0.96546931
C       4.76995378      0.16198968      1.57973821
C       5.12458652      1.65401934      1.59903404
C       3.01202332     -1.49594488      0.97486296
C       3.83455373     -2.40461661      0.14731098
C       3.22970154     -3.81578718      0.08139614
N       1.94770523     -3.70651211     -0.56915695
C       1.09606175     -2.70615513     -0.13050591
C      -0.26679756     -2.51864357     -0.24285572
C      -0.49729745     -1.29601321      0.45016346
N       0.63422096     -0.81070556      0.89840769
N       1.59302605     -1.65763119      0.52048435
C      -1.72681918     -0.53673045      0.68236752
C      -3.02138059     -1.13284310      0.76175764
C      -4.13042288     -0.35232156      0.95604530
C      -4.02570566      1.00705070      1.06872701
C      -2.78120979      1.61198148      0.98956032
C      -1.66219115      0.86373553      0.81929284
O      -5.10160397      1.80914804      1.30337027
C      -6.19768318      1.75297125      0.47666931
C      -7.41581968      2.19533590      1.00696446
C      -8.56176271      2.22883502      0.22068235
C      -8.49460666      1.82340545     -1.09297288
C      -7.28043439      1.38965191     -1.63981366
C      -6.14103550      1.33312406     -0.87770018
C      -1.17909393     -3.44980705     -0.98626345
O      -2.36979077     -3.55021178     -0.79518192
N      -0.52062911     -4.22244953     -1.94301698
H       8.14842967      2.11247021     -2.27797329
H       7.30276464      3.03057015     -3.62336882
H       5.35289754      3.31849464     -2.20060268
H       3.05144234      2.63039475      0.27239952
H       3.72357672      2.54254594     -1.33823239
H       3.96648411      0.08292365     -1.10181446
H       2.32536933      0.55429697     -0.82201002
H       2.68981070      0.48072725      1.59378619
H       5.51574969     -0.35001806      0.95164920
H       4.82702937     -0.24408616      2.56206975
H       6.09608993      1.82123261      2.00491390
H       4.42739556      2.23500956      2.21007378
H       3.00863798     -1.87253754      2.02176658
H       3.90642111     -2.04327370     -0.89635508
H       4.84681694     -2.44944455      0.55045076
H       3.13357953     -4.20952163      1.08867604
H       3.86323101     -4.48174955     -0.44483004
H       1.44745287     -4.57457680     -0.68802535
H      -3.09740642     -2.20980990      0.65359276
H      -5.07840903     -0.84531539      0.99284018
H      -2.73465366      2.71645743      1.11236310
H      -0.67348629      1.31393062      0.77941661
H      -7.40666959      2.51265607      2.02541076
H      -9.49628619      2.56217801      0.67655585
H      -9.38435658      1.83567917     -1.70285701
H      -7.21281910      1.07843285     -2.67087669
H      -5.18728857      1.03199563     -1.25389905
H       0.30283228     -3.85494016     -2.38866881
H      -1.12246289     -4.69531580     -2.54845271
