110
charge=0
O      -2.42046609     -5.61840203     -0.41410332
N      -3.92573554     -1.28504197     -0.28502027
N      -2.24593274     -1.91298289      1.37975763
N       1.32451208     -3.74212850      1.31104145
N       2.79263873     -4.76138574      2.60405066
N       8.34586199      3.95883447     -0.87641498
O       1.64671152     -5.44424870      2.67168705
C      -2.37273054     -4.50976190      0.10470233
C      -4.53968081     -1.94812650     -1.23269333
C      -1.52629444     -2.92294322      1.73236142
C       0.76563267     -4.79857398      1.84888623
C       2.58093088     -3.75196215      1.77089848
C      -3.08794208     -2.16220984      0.32530141
C      -3.18824476     -3.40464223     -0.30438888
C       5.08556609     -0.00735679      1.37000001
C       3.76730989     -0.09931570      1.13914323
C       6.16267034      4.00341549     -1.46132895
C       7.35985706      1.03683380      1.13513424
C       5.96714522      1.02055772      0.80493200
C       8.21848686      1.96435866      0.63509165
C       5.46940004      1.97548670     -0.04662467
C       7.72496483      2.95236580     -0.24920261
C       6.33871146      2.94710600     -0.58942842
N       7.40562267      4.55791787     -1.57897120
N      -4.13185989     -3.26108414     -1.29284069
N      -1.52020180     -4.18928744      1.15276110
C      -4.58445737     -4.27871041     -2.21980636
C      -0.63552154     -5.24606105      1.63223840
C       5.54622540     -1.11975025      2.28957303
C       3.58766934     -2.69098538      1.44373963
C       3.16802715     -1.27076482      1.86023530
C       4.30403253     -1.98114132      2.60296013
H      -5.25817936     -1.50660759     -1.90819366
H      -0.84556115     -2.76586984      2.55265344
H       3.20315505      0.57272851      0.51944128
H       5.25560889      4.30446574     -1.95618571
H       7.73378246      0.28670144      1.81062103
H       9.26173853      1.96463960      0.89446809
H       4.42759802      2.01524444     -0.29982801
H       7.62216902      5.38314012     -2.16465895
H      -5.49182667     -3.94034981     -2.71040583
H      -3.81906371     -4.46080229     -2.96994682
H      -4.79041119     -5.20228714     -1.68385704
H      -0.65025600     -6.05371604      0.89548591
H      -1.04539180     -5.64662127      2.56230108
H       5.97750210     -0.69910341      3.20409633
H       6.31916762     -1.72504056      1.80618381
H       4.10875443     -2.81253527      0.49096028
H       2.22601397     -1.11079638      2.39401078
H       4.12582858     -2.29305178      3.64006695
O      -1.82503722      2.52319576     -0.04431245
H      -1.84017473      2.01853765      0.79366647
H      -1.14169702      2.09262455     -0.59329957
O       7.71828175      6.99033649     -3.39140995
H       8.15116574      6.70099582     -4.20888878
H       8.35886510      7.56727548     -2.94859840
O       0.63264064     -3.43728292      4.61244828
H       1.05302670     -4.10124132      4.02499706
H      -0.30202504     -3.71399615      4.66570099
O       2.48043144      2.63424022     -0.84338813
H       2.70873913      3.26358020     -1.55219456
H       1.71213770      2.13378986     -1.17758490
O       0.17245589      1.04592235     -1.69661292
H       0.29859852      0.27570745     -1.11084149
H      -0.14853570      0.67585543     -2.53218435
O       4.80997544      6.87684892     -3.11774396
H       4.55350922      7.78837561     -2.91105089
H       5.78083397      6.89750115     -3.20896595
O      -2.10736301      0.86622770      2.38854753
H      -2.88504511      1.00500545      2.94741469
H      -2.19275676     -0.05213199      2.04465736
O      -2.16535450     -4.29320117      4.59136138
H      -2.83855906     -4.09848393      3.92170499
H      -2.64240142     -4.67741467      5.34218450
O       2.02451269      3.01959105      1.96715943
H       2.19553018      2.92829513      1.01524489
H       2.13499709      3.96216403      2.16104665
O      -6.83429797     -4.15534105     -4.24642927
H      -6.78057568     -3.18322865     -4.16707692
H      -7.74440459     -4.34060747     -4.52369737
O      -6.79046683      1.02419515     -2.22614240
H      -6.04435278      1.25192239     -1.64240875
H      -7.48689758      1.65806073     -1.99873606
O      -4.58303398     -5.91039251     -5.13886011
H      -4.21730642     -6.32153877     -4.33031377
H      -5.33692700     -5.35851674     -4.84735230
O      -6.56933902     -1.27918705     -3.93582346
H      -6.18749280     -0.89915824     -4.74299225
H      -6.69392158     -0.51653733     -3.34243989
O      -3.42897105     -7.06065762     -2.67194880
H      -3.06503901     -6.58264838     -1.90026823
H      -3.00429268     -7.93173251     -2.65138992
O      -4.56266426      1.61114068     -0.47423887
H      -4.35305458      0.65239080     -0.38529391
H      -3.70015377      2.04654945     -0.36247430
O       0.57928186     -1.07892638      0.15308039
H       0.78924260     -1.98047393      0.47211495
H       0.59165637     -0.53937821      0.96824195
O       0.74556367      0.54132306      2.65321389
H       1.17134023      1.39631806      2.48235464
H      -0.21219569      0.72403988      2.64707525
O       3.20759234      4.49557357     -2.93965749
H       2.72719968      4.44631488     -3.78074610
H       3.72416411      5.32080737     -2.99395061
O       8.53159153     -1.15017842      3.18588583
H       8.66268328     -0.95588180      4.12694167
H       9.09969294     -1.91204231      2.99287020
O       1.99720433     -0.89356329      4.92355953
H       1.56315744     -0.35588692      4.23199594
H       1.54421703     -1.75820029      4.88460036
