103
charge=0
O       1.35146347      1.37060017      2.41975302
F       2.08759056     -7.01375970      0.82225040
N       1.15684544     -2.47023157     -0.19626569
S      -3.43867454     -1.60470473      0.07662686
C       0.43860684     -1.53247054     -0.75335685
C      -1.84892924     -1.09558673     -1.84681388
C      -1.02282119     -1.57965047     -0.77413982
C      -1.76194005     -1.98047059      0.31535302
C      -3.16962540     -1.06187451     -1.56328443
C       0.27822153     -5.94238275      1.93439362
C       1.58492357     -4.73612550      0.34987748
C      -0.54645892     -4.84465335      2.08259319
C       1.33873858     -5.90269948      1.05224427
C       0.76651479     -3.62423302      0.46682025
C      -0.33659813     -3.68514882      1.35135097
N      -1.27226181     -2.62701281      1.44966933
N       1.09885425     -0.35624919     -1.14834643
C      -4.23416322     -0.62244087     -2.48255161
C       2.48653587     -0.20679043     -0.69105545
C       0.39600405      0.93899169     -1.07901794
C       2.34576831      2.69305892      0.77511705
C       2.50510647      0.18304666      0.78113864
C       0.26183830      1.36278977      0.36997565
N       1.61542926      1.40523288      1.11030993
H      -1.44806920     -0.80417399     -2.80364405
H       0.09860833     -6.84742607      2.48709074
H       2.43338255     -4.67520413     -0.30577849
H      -1.38616325     -4.88803131      2.75411019
H      -2.01251084     -2.76040482      2.14676493
H      -5.20834865     -0.97685033     -2.14432904
H      -4.06512471     -1.00803500     -3.48862348
H      -4.27173173      0.46551849     -2.53890923
H       3.00507956     -1.15748740     -0.86054903
H       2.99133651      0.54156365     -1.30988532
H       0.96790779      1.67581100     -1.65075189
H      -0.57936874      0.86867129     -1.56763751
H       3.27346154      2.74665219      1.33659602
H       2.56866074      2.74962728     -0.28608855
H       1.73210700      3.54412970      1.05431767
H       3.51961846      0.39934580      1.12307189
H       2.14834018     -0.64866931      1.39040122
H      -0.20477921      2.34586846      0.45034343
H      -0.38092728      0.66603311      0.91058907
O       0.73492337     -7.62507734     -1.68937001
H       0.32136892     -8.49883399     -1.62324341
H       1.14909641     -7.46540922     -0.82462197
O       0.84399307      3.58301114     -2.89402243
H       1.58239032      3.96274250     -3.39482110
H       0.57652678      4.27890620     -2.26512695
O       0.36568658     -1.13500682      3.54496049
H       0.73105441     -0.32030033      3.14910642
H      -0.08910082     -1.62328013      2.82157598
O      -1.31301493      2.39037887      3.10763272
H      -1.51561709      2.91584092      2.31078573
H      -0.40094252      2.07310012      2.95931625
O      -1.63612632      4.12827397      0.75551635
H      -1.06569595      4.64498703      0.15439742
H      -2.38779985      3.85730068      0.20608530
O      -3.79579264      3.29762054     -0.93559054
H      -3.73345649      2.98818332     -1.85796207
H      -4.74456298      3.32054549     -0.73877139
O      -0.94205483      1.68057789     -4.20558347
H      -0.33682811      2.33311769     -3.80350497
H      -0.41692976      0.86316916     -4.26984793
O       2.38050243      6.59044980      0.46923836
H       3.11130046      7.22319234      0.52471572
H       2.28501151      6.23991021      1.37349038
O      -3.58538107     -2.51680211      3.32401870
H      -4.44878300     -2.61412228      3.75350639
H      -3.21364912     -1.68719250      3.68155800
O       4.74866829     -7.11305444      1.87928633
H       3.81648555     -7.10682988      1.60597193
H       4.76191444     -7.53564984      2.75211109
O       2.86796717      2.97767850      4.23480320
H       2.35856819      2.38340905      3.65154241
H       3.05837908      2.45736969      5.02953824
O       1.67203562     -3.33371120     -4.73010746
H       1.87242368     -4.07904340     -4.13596478
H       1.88533909     -3.66253350     -5.61699400
O      -0.84421363      5.17746519      3.40728210
H      -1.14923563      4.93577501      2.51162670
H      -1.14744396      4.44446619      3.96949753
O      -3.65192291      2.35532661     -3.66779295
H      -2.72718456      2.11799487     -3.86444243
H      -4.03766380      2.58437683     -4.52649039
O      -2.27881528     -0.09621414      4.27868625
H      -2.11735487      0.80649712      3.95108895
H      -1.39612328     -0.50745220      4.20734641
O       0.63776495     -0.73676545     -4.10341477
H       0.82316889     -0.66161649     -3.13892534
H       0.98267852     -1.61155685     -4.35307418
O       2.03019725      5.50304653      3.07176379
H       1.07026526      5.46548071      3.24297576
H       2.38144273      4.70427976      3.50502423
O       4.23267076     -6.08443546     -0.96175213
H       3.55814230     -6.47119843     -0.37821701
H       5.06462050     -6.20612247     -0.48339775
O       2.29292903     -5.57798270     -3.07257051
H       3.05323054     -5.66805088     -2.46998189
H       1.67371319     -6.25155247     -2.73697276
O       0.12082379      5.69297278     -1.03140235
H       0.89504893      5.99804377     -0.52353159
H      -0.32907924      6.50525700     -1.30884540
