97
charge=0
S      -1.97202891      0.11129432     -2.30595985
Br      0.13843473      2.88363311     -0.32213390
N       0.84996586      0.18456480     -1.77508998
S      -2.94124694     -2.41473685     -1.23757809
S       1.64580931     -0.09795315      0.71002886
C      -1.68781045     -1.16230139     -1.30479527
C       0.56663595     -0.40206377     -0.65777786
C       3.92484621      3.00715891     -1.95236022
C       4.04176843      1.80672509     -2.62109974
C       2.76761398      3.29781738     -1.25208113
C       3.01310748      0.89457059     -2.58118778
C       1.72686106      2.39915331     -1.21727569
C       1.83962013      1.16707183     -1.87288278
N      -0.55616313     -1.26134289     -0.51746174
C      -2.71815917     -3.07633729     -2.86472229
C       0.57884029     -3.74808401      2.27562441
C      -0.32411691     -1.45681049      2.70934928
C       1.77012739     -1.74726783      1.33130100
C      -0.45932263     -2.45467018      0.37106104
C       0.38770053     -2.34214493      1.67396363
H       4.72712907      3.72565504     -1.98162128
H       4.93881553      1.58360560     -3.17551906
H       2.66779226      4.23913167     -0.73715571
H       3.09978563     -0.05256462     -3.08423867
H      -3.45503919     -3.85169156     -3.05956557
H      -1.72596168     -3.50921461     -2.94912429
H      -2.82380725     -2.29501218     -3.61324573
H       1.07046078     -4.41344424      1.56701156
H      -0.37911536     -4.19031059      2.54519360
H       1.19021444     -3.70117066      3.17636630
H       0.25116616     -1.41036867      3.63338142
H      -1.31129207     -1.84894751      2.94871046
H      -0.44005960     -0.43930035      2.34194916
H       2.26293578     -2.35758938      0.57187762
H       2.41871221     -1.74650216      2.20808525
H      -0.06873715     -3.27150786     -0.24073016
H      -1.47404475     -2.74003356      0.65373590
O       3.88720457      6.59510350      0.23900145
H       2.91996328      6.47758498      0.18078976
H       4.06364937      6.78086872      1.18134430
O      -5.58901967     -0.65098397     -2.35853591
H      -4.77810606     -1.05771750     -2.00865125
H      -5.86818422     -0.01399906     -1.68511117
O      -3.74160588     -1.51473240      1.84910169
H      -3.21861130     -0.72765661      1.61072775
H      -4.53197815     -1.17071522      2.29351494
O       0.25219784     -1.32522190     -4.27283452
H      -0.20714095     -0.68280976     -4.83456660
H       0.42761746     -0.85030023     -3.43270611
O       0.33813780     -4.19909878     -3.86407242
H      -0.29770049     -4.49996410     -4.54018156
H       0.37734870     -3.23284435     -3.98919366
O       1.82849567      5.57635752      2.94404297
H       2.65143731      6.08793776      3.05941686
H       1.50180524      5.81964494      2.05550326
O       1.56084612      2.69787269      2.83914167
H       1.18098057      2.62228342      1.94622833
H       1.65735528      3.65692473      2.98120724
O      -1.66773397     -4.95341034     -5.81337333
H      -1.59943321     -5.36730436     -6.68754689
H      -2.61633460     -4.75784088     -5.69640363
O      -2.78815753     -4.18005073      2.70951729
H      -2.59553905     -4.65685623      1.87917100
H      -3.14629781     -3.31459331      2.42808852
O       0.97345363      6.16063317      0.17719387
H       0.32694022      6.74900746     -0.23774123
H       0.68810116      5.25984867     -0.05113780
O      -2.10104168      0.77750367      1.11514523
H      -1.65554288      1.60871063      0.89683035
H      -1.63031607      0.12878353      0.54835594
O       0.43593431     -5.52997869     -1.32579100
H       1.15849141     -6.17151853     -1.39793451
H       0.41608778     -5.07548088     -2.18839307
O      -2.07158917     -5.36375183      0.09924733
H      -2.41582968     -4.56312254     -0.33959604
H      -1.21842908     -5.52353905     -0.34462431
O       4.33787677      7.10898350      3.12545105
H       5.06398588      6.62565104      3.54699012
H       4.36019741      7.99767132      3.50993563
O       5.85499385      5.46632520     -1.55440974
H       5.19551322      5.85013496     -0.94454073
H       6.33850588      6.22441148     -1.91973687
O      -5.85792468     -1.93140961     -4.94425791
H      -5.77487163     -1.50489244     -4.07171476
H      -6.37500255     -1.31091207     -5.47958979
O       4.91810547      1.04317093      0.66808767
H       4.47932952      1.41641728     -0.11161196
H       5.86528985      1.04647801      0.46239789
O       2.39484170     -1.70547112      4.66214699
H       2.80017650     -1.64194601      5.54138414
H       2.74975041     -0.94659100      4.16155541
O       3.41644504      0.49956518      3.12567266
H       3.95738706      0.63060938      2.32464811
H       2.77641612      1.23531068      3.09593194
O      -4.48669741     -4.40428985     -5.49680850
H      -5.19359574     -5.06577588     -5.44251383
H      -4.92790532     -3.55176819     -5.32756506
