106
charge=0
O      -2.16557991      1.61328545      0.18403826
O       0.29437045      2.26509965     -0.51953221
C       1.52363579      0.61224135     -1.79162752
C       0.38567573     -0.26543873     -2.01324202
C       2.29035956     -0.01523433     -2.73558519
C      -0.79899742     -0.24508691     -1.36158442
C       6.26098396      0.43249495     -4.17116734
C      -4.03730755     -2.94870172     -1.78399330
C       0.75720705     -0.97382994      3.69608542
C       5.46872094     -0.60101827     -4.62912762
C       5.75733727      1.32856017     -3.25078915
C      -4.15124434     -1.84755401     -0.96300015
C      -2.86284556     -3.16811182     -2.47392843
C       0.37640877      0.35208596      3.72783001
C       0.68937327     -1.68138701      2.51335068
C       4.17944353     -0.74031219     -4.16560240
C       4.46674583      1.19522900     -2.79047300
C      -3.10221092     -0.96950557     -0.83349631
C      -1.80868463     -2.29097881     -2.34438440
C      -0.07143469      0.96746798      2.57464928
C       0.23875235     -1.05872949      1.36484914
C       3.65586166      0.15501117     -3.23504714
C      -1.90605308     -1.16637509     -1.52238554
C      -0.14066942      0.26043321      1.40123782
C       1.58570391      1.76169714     -0.82651893
C       1.18537500     -0.99563081     -3.07174179
P      -0.75241433      1.05584422     -0.09817395
H       7.27174978      0.53814697     -4.52988928
H      -4.86667192     -3.62932420     -1.88928737
H       1.11385381     -1.45427866      4.59265270
H       5.86090663     -1.30227692     -5.34723455
H       6.37710294      2.12710025     -2.87824755
H      -5.06602181     -1.66984194     -0.42414100
H      -2.76737257     -4.03162584     -3.11163953
H       0.43187184      0.91272384      4.64666422
H       0.98550130     -2.71718871      2.48133174
H       3.56374941     -1.55255966     -4.51186961
H       4.07409041      1.90563092     -2.08652353
H      -3.19643966     -0.11164500     -0.19434860
H      -0.88737502     -2.48913280     -2.86137026
H      -0.36410210      2.00207007      2.58894655
H       0.18442401     -1.60301356      0.43796706
H       2.16951793      2.59364712     -1.24573527
H       2.06712094      1.45479320      0.11298534
H       1.42608324     -2.03477223     -2.81121832
H       0.78519098     -0.88600652     -4.08991603
O      -5.47537735      0.46744645     -3.34437717
H      -5.49895152      0.67055268     -4.29252646
H      -4.72307304      0.98206937     -3.00112044
O       4.79670624     -1.36692259      3.86257619
H       5.16356872     -0.81996307      4.57303129
H       5.15847310     -2.25482295      4.00122336
O       5.26634029      1.72352449      0.52578529
H       4.65090982      2.38357489      0.15142484
H       4.69777588      1.00124754      0.84724800
O       3.32395485     -2.42679932     -0.63935233
H       3.43708033     -1.73632279      0.03242850
H       2.45297247     -2.82735517     -0.44796185
O       0.70625334     -3.65994354     -0.29167386
H      -0.18052358     -3.74889493      0.10289530
H       0.61817924     -3.98761852     -1.20735351
O      -7.22488496     -1.23911875     -1.80406741
H      -8.11204826     -0.99409143     -2.11114157
H      -6.61497400     -0.66966259     -2.30960760
O      -0.68023758      3.09041228     -3.14751499
H      -0.33269086      2.82513664     -2.27280962
H      -0.03754243      3.72322771     -3.50180683
O      -2.50335836     -2.03420344      3.27222081
H      -2.65990154     -2.17942939      4.21673709
H      -1.66593542     -1.54926822      3.21559300
O      -0.53025357      3.98608177      4.32844430
H      -1.12229044      4.69367999      4.63061268
H      -0.63794748      3.95840243      3.35869342
O      -4.54958481      1.52414672      1.71761018
H      -3.71654942      1.59066115      1.21364878
H      -4.96629052      2.39522406      1.63841242
O      -1.96350645     -3.68449824      0.88154976
H      -2.55461494     -3.32532812      0.20170516
H      -2.18881495     -3.19607008      1.69501328
O      -7.12856568     -2.85845173      0.65221386
H      -6.47348783     -2.36202310      1.18103940
H      -7.21781867     -2.34448410     -0.17505561
O       3.99692318      3.96824992     -1.01217769
H       3.71677127      4.89564910     -1.01173335
H       4.96255394      3.98695414     -1.15543799
O       3.49862941     -0.36985731      1.49196196
H       3.96389379     -0.70481435      2.28132897
H       2.56075107     -0.40418716      1.73294788
O      -5.06005634     -1.29820910      2.00974682
H      -4.96524969     -0.33123836      1.92642655
H      -4.23439908     -1.58332554      2.44682139
O      -3.24025459      2.00366902     -2.45102714
H      -2.44592006      2.40453824     -2.84378254
H      -2.97115452      1.87093893     -1.52257129
O      -0.84071415      3.80051912      1.46382785
H      -1.37821736      3.11364365      1.02906130
H      -0.07999930      3.89491514      0.86488720
O       3.53330428     -3.79205331     -3.17502564
H       3.53118536     -3.30927144     -2.32685750
H       4.46097071     -4.02307422     -3.33166553
O       0.69910791     -4.47825183     -3.11826034
H       0.51667728     -5.17270900     -3.76874966
H       1.65336988     -4.28738065     -3.20389426
O       6.93560754      3.51436823     -1.08225802
H       7.87318345      3.57447686     -0.84645073
H       6.56062868      2.83181383     -0.49317834
