72
charge=0
O      -0.15613436      2.01648234     -2.01577330
O      -0.83652131     -0.70170278      1.69599975
Cl      1.98798486      0.21395214     -1.94420289
Cl      1.61901498     -1.57726539      0.30988355
Cl     -2.45867971      3.60846295     -0.47514147
Cl     -2.93742973      1.69351719      2.20749723
C      -0.55575125      1.58066604     -0.95226902
C      -0.89444952      0.21725422      0.89743912
C       1.06186477     -0.29869539     -0.62890593
C      -1.62383467      2.12876590     -0.14322297
C      -1.82088052      1.34040148      0.93433952
C      -0.05813695      0.41179362     -0.26624523
O      -0.19947091     -3.52922997      1.33684739
H      -0.52420257     -3.66883134      0.42701256
H      -0.43552785     -2.59594197      1.52054425
O      -2.84183959     -1.27901422     -1.42124553
H      -2.88800831     -0.66714942     -2.17915048
H      -3.46301719     -0.95809739     -0.74235253
O      -2.43822467      3.22635426     -3.36786532
H      -2.50324056      2.26319884     -3.51641128
H      -2.87420349      3.63896932     -4.13092015
O       2.78650623      2.92739499     -1.70699817
H       3.15743831      3.80525360     -1.52564168
H       2.72109879      2.50019302     -0.83130950
O       2.73372416     -3.58187535      1.71040804
H       1.76083721     -3.66487110      1.69404102
H       2.98729705     -3.69817359      0.77390629
O       0.60810337      2.47358149      2.93112370
H       0.75342582      1.58512488      3.31377298
H      -0.14057380      2.81504976      3.45048836
O       0.29629050      0.13071068     -4.13549474
H       1.17300592      0.42578567     -4.43577622
H       0.12006559      0.77334641     -3.41320137
O       0.86764617     -0.29546562      3.94059782
H       1.75792013     -0.50990411      3.60957453
H       0.28500608     -0.50870120      3.18168768
O      -1.67037467      2.99499743      4.66958330
H      -2.21313712      3.51451663      5.28057086
H      -1.67856018      2.08262865      5.01998703
O      -1.22781211     -3.60784987     -1.43411503
H      -1.80143075     -4.34921618     -1.67858974
H      -1.80959116     -2.82408096     -1.42013669
O      -3.15115486     -0.94090771      3.36374385
H      -2.36696775     -0.93924630      2.77474650
H      -2.78601852     -0.59583787      4.19878261
O       1.11621841     -2.53328914     -2.83859561
H       0.31508329     -2.89378495     -2.41130446
H       0.82937499     -1.72260870     -3.30113972
O      -1.50087821      0.19677078      5.59710167
H      -1.41639883     -0.26181777      6.44542233
H      -0.67196387      0.00362474      5.11674547
O      -2.62743353      0.31118819     -3.92931754
H      -3.04486486     -0.07578415     -4.71357455
H      -1.66872077      0.19273428     -4.06544654
O       2.63908115      1.65482970      0.97617796
H       1.98004207      2.04137054      1.58258710
H       2.95379734      0.85855153      1.44740847
O       0.47648235      4.23980831     -3.31925270
H      -0.41231227      3.83729577     -3.22573130
H       1.07116502      3.68981776     -2.76729567
O       2.92335862      1.42346520     -4.29926947
H       3.40383145      1.98411541     -4.92640976
H       2.89489102      1.93518688     -3.46657522
O       3.40522702     -0.86724498      2.59320501
H       3.22218194     -1.78155020      2.30376791
H       4.31360191     -0.89051673      2.92790952
O      -4.59909848     -0.51914930      0.79576568
H      -5.54797984     -0.60758235      0.97043175
H      -4.16650342     -0.68041010      1.65522998
O       3.23555663     -3.71533024     -1.18651341
H       2.54306928     -3.32370526     -1.75228865
H       3.82652541     -4.18269997     -1.79577122
