84
charge=0
O       2.69630024     -2.00809808     -1.81236908
O       4.21704575      0.04033696     -1.44704300
F       0.64174200      2.90473909      0.61433791
F       1.19932531      1.36681961      2.09047240
Cl      4.35598281     -2.07193382      0.57411332
C      -0.87781355      2.10383156     -1.50155937
C       0.43871166      2.13661887     -1.97607304
C       0.25232583     -1.13352348      1.72119285
C      -1.38730538      1.41135800     -0.39899584
C       1.54733849      1.45969528     -1.46354309
C       1.54020074     -1.18343170      1.16680014
C      -0.79741903     -0.29572665      1.32301499
C      -0.60009845      0.91831864      0.65045086
C       1.57517842      0.89544926     -0.17453876
C       2.06911565     -0.37534296      0.15640896
C       0.72462023      1.57777726      0.84862542
S       3.37214066     -1.05537321     -0.87292186
H      -1.61676222      2.56890965     -2.13496739
H       0.59165621      2.63013243     -2.92331579
H      -0.00910998     -1.94342156      2.38548310
H      -2.43961136      1.16796589     -0.39203881
H       2.37866295      1.24919358     -2.12088412
H       2.12361542     -2.05609433      1.42045901
H      -1.81067478     -0.66439058      1.39158798
O      -2.85694324     -0.13614111      4.88308687
H      -2.77010800      0.82047888      4.73654428
H      -1.96054534     -0.41902094      5.14982624
O      -0.05769170      5.10992622     -1.12999884
H       0.18462933      4.39565860     -0.51818981
H       0.23220337      5.92627963     -0.69718893
O       1.61804699      2.43546150     -4.88832164
H       2.39872383      2.80917169     -5.31998267
H       1.83606226      1.49797656     -4.72466252
O      -4.53298226      1.21444803     -0.92235935
H      -5.36267793      1.62343705     -0.63391759
H      -4.27899202      1.71223376     -1.72077980
O       2.18686461     -0.44816636     -4.20253233
H       3.10080267     -0.14852489     -4.35877494
H       2.28638928     -1.03896378     -3.43150053
O      -3.70590832      2.77389910     -3.18291069
H      -2.98540040      2.54998576     -3.79962272
H      -3.73957193      3.74458120     -3.20933217
O      -0.61738304     -3.59174669      4.08999801
H      -0.87174975     -4.34576720      4.64126876
H      -1.45413878     -3.25763695      3.71518840
O      -0.69692195     -0.48814562     -4.73645616
H      -0.92119207     -1.34937611     -5.11802816
H       0.26497812     -0.51967502     -4.56975876
O      -1.92931155      4.93676384     -3.39028795
H      -1.60454051      4.17458739     -3.90958079
H      -1.29518763      5.04878185     -2.65561133
O       4.85324169      0.64418087     -4.16847765
H       4.74008747      0.47010829     -3.21289159
H       5.80463463      0.76947703     -4.29493574
O       2.54793861      0.15403823      4.29230675
H       2.15908097      0.58749077      3.51467119
H       3.12417558      0.81872247      4.69629305
O       3.97955437     -2.41302695      4.03632803
H       3.32050099     -2.94699092      3.55182058
H       3.54504459     -1.54515630      4.15910100
O      -1.24847833      2.33271131     -4.74457693
H      -0.31324706      2.54186239     -4.91980719
H      -1.23868129      1.35881705     -4.78278332
O      -3.84985033     -1.20900615      0.49629584
H      -4.29173805     -1.91512106      0.00019447
H      -4.10385346     -0.38757573      0.03699763
O      -0.83711975      1.70431323      4.10648232
H      -0.22456149      1.78146958      3.35883391
H      -0.52902955      0.90432716      4.57529826
O      -0.00506718     -0.91838099      5.26159403
H       0.91086018     -0.66632526      5.03842337
H      -0.10694195     -1.83862049      4.95204262
O       2.10647160     -4.80301709     -1.94223243
H       2.31209192     -3.85095527     -1.88391497
H       2.33759950     -5.05640243     -2.84860879
O      -2.96559751     -2.35345182      3.01977909
H      -3.33560655     -2.01030621      2.18621528
H      -3.05622893     -1.61894110      3.65532790
O       1.86091555     -3.77345152      2.57855604
H       1.04300103     -3.79699200      3.11122934
H       1.79257697     -4.52831275      1.96730677
O       1.58955942     -5.90850627      0.67421216
H       1.67040072     -6.86900017      0.57588807
H       1.75544536     -5.54430403     -0.21563284
