70
charge=0
Cl     -2.08971265      4.12649158      1.71963264
Cl     -0.28475276     -0.68960864      0.13213867
C       1.34630438      2.28923893      2.16944709
C       0.38298939      3.19007912      2.21093898
C       1.18498951      1.10458495      1.54635027
C      -0.81781921      2.96129124      1.61770222
C      -1.03228042      1.76366919      0.95761600
C      -0.02387884      0.82012448      0.92614189
H       1.98158763      0.38161756      1.53500330
H      -1.95846415      1.58462598      0.44136519
O      -3.87066274      1.56890179      2.79498577
H      -4.67404198      1.95544594      3.17340232
H      -3.33942928      2.32170053      2.48223727
O       3.47268309      3.96984390     -0.33371676
H       4.38955411      4.23510568     -0.51233503
H       3.50640570      2.99519243     -0.37101979
O       2.54686731     -2.38764337     -0.61938956
H       2.15430407     -1.66010555     -1.13912380
H       1.80794274     -2.80260621     -0.13464919
O      -0.05355359     -1.84868047     -3.84635496
H       0.22981452     -2.02524536     -4.75481075
H      -0.73759006     -1.15636173     -3.91947332
O      -4.37130988     -0.07119794     -2.10534872
H      -5.21593908     -0.47043007     -2.35878583
H      -3.98722586     -0.68283004     -1.44913591
O       1.94208048     -2.53963986      3.24646996
H       2.28935018     -3.30326426      3.72982273
H       1.42154706     -2.91756050      2.51160910
O       6.01133203      2.87487534     -1.09016108
H       5.32208051      2.19704673     -0.95104035
H       6.80063432      2.38739884     -1.37178719
O      -2.05969777     -3.84134318      2.70477159
H      -2.82724167     -4.25087418      3.13021604
H      -2.25492901     -2.88515253      2.68234118
O       0.31598453     -3.61074721      1.06797843
H      -0.10029424     -3.53290851      0.18809662
H      -0.44926141     -3.75989212      1.65498887
O      -0.00917313     -0.49213943      4.00223534
H       0.65855798     -1.16349839      3.76642129
H       0.40342925      0.04881977      4.69208563
O       0.79501843      4.53881053     -1.17491925
H       1.71123676      4.36624808     -0.89065500
H       0.60661230      5.44348318     -0.88394157
O       1.48910062      0.00059241     -2.12730311
H       0.86234733      0.74830904     -2.08629068
H       1.04996079     -0.63080054     -2.72871615
O       3.72599857     -0.96612860      1.54376213
H       3.47967605     -1.50658918      0.76851199
H       3.24596165     -1.41175510      2.26537215
O      -3.27407523      2.41443947     -1.09389920
H      -3.69702525      1.59976406     -1.42592461
H      -3.97450775      3.08279849     -1.07044959
O       3.78071655      1.06233745     -0.59313353
H       3.85755983      0.43215114      0.14532033
H       3.05158503      0.71341816     -1.13944030
O      -1.96432921      0.25811687     -3.81824408
H      -2.79660604      0.15542763     -3.31937819
H      -1.47381516      0.94948494     -3.33528351
O      -0.94332538     -3.33471521     -1.50726118
H      -1.17392351     -4.20065321     -1.87770229
H      -0.61150319     -2.82058220     -2.26582163
O      -0.53339758      2.18433005     -2.11441314
H      -1.42699926      2.31500810     -1.73964019
H      -0.05380924      2.98816396     -1.84710372
O      -2.48685645     -0.97707106      2.55714072
H      -2.99573160     -0.15023105      2.64435226
H      -1.65263322     -0.79163828      3.03001160
O      -3.15823663     -1.80799320     -0.21084513
H      -2.90879753     -1.55419729      0.69684944
H      -2.40153609     -2.31154729     -0.56650089
