64
charge=-3
O       0.10249958      1.20933153     -1.28787709
O      -0.02387558     -1.60367088     -0.54552720
O      -0.08743773      0.40155824      1.51459679
P       0.51844358     -0.01086899     -0.07166055
O       1.51563264      2.60868893      0.71681604
H       1.61649783      2.85461590     -0.21774499
H       1.03533498      1.74101487      0.64185398
O      -1.82126641      0.91192242     -3.37838302
H      -1.14603656      1.06456682     -2.69114361
H      -1.59556455      0.01583419     -3.69764690
O       1.28325276      4.60545295     -2.68456639
H       1.66988814      3.71889586     -2.81808991
H       0.51881052      4.42543019     -2.10535996
O       1.42346052     -0.80321154     -2.76822542
H       0.94945019     -0.45600191     -1.96322210
H       1.80593928     -1.62801935     -2.41284553
O       0.20193684     -4.52526725      2.19577189
H      -0.66749576     -4.39964351      1.76917940
H       0.61834974     -3.64946571      2.09529734
O       1.31128058     -1.87194918      1.94218543
H       0.88069223     -1.48212841      1.13489874
H       1.10212197     -1.16458796      2.57638847
O      -0.10532029      4.02626141      2.58786535
H      -0.91661119      3.57965056      2.27895538
H       0.55392234      3.63457161      1.98491807
O       3.37782211      0.31100919     -0.55343025
H       3.28129268      0.85167042     -1.35773975
H       2.42208475      0.18556957     -0.30566668
O       2.29512736      1.82653278     -2.95007590
H       2.35863667      1.01011211     -3.47848602
H       1.56463055      1.60114329     -2.34307450
O      -2.48732122     -3.94282222      0.96705071
H      -2.42251405     -3.64816026      0.04075661
H      -2.38984871     -3.09285712      1.43642200
O       0.33502358      1.45720362      4.09097816
H       0.27562465      1.01506043      3.22429461
H       0.24537268      2.39054132      3.82019129
O      -0.96157734      3.78267884     -0.92446992
H      -0.58082895      2.89910746     -1.08278829
H      -1.45956709      3.59448381     -0.10927671
O      -0.91531276     -1.89376344     -4.11010887
H      -1.44285400     -2.17039227     -3.33656596
H      -0.10243948     -1.54473767     -3.69754355
O       4.01733648     -2.04069954      1.01531165
H       3.94691364     -1.23527100      0.46792963
H       3.13457676     -2.06076355      1.43133991
O      -2.24977818     -1.28498972      2.00152939
H      -1.41498653     -0.87750270      1.71937397
H      -2.86301925     -0.89954069      1.34826622
O       2.21830759     -3.28694052     -1.14851265
H       2.87542839     -2.98863622     -0.48912327
H       1.42933880     -2.76477994     -0.90795659
O      -2.41011914     -2.48389013     -1.61150726
H      -1.55882297     -2.18580627     -1.24258926
H      -2.97941546     -1.71947940     -1.40483383
O      -2.38051780      0.13403991     -0.42313315
H      -1.38390118      0.06075275     -0.24653848
H      -2.36763130      0.46182123     -1.34334122
O      -2.17366445      2.33967504      1.33827833
H      -2.81023145      1.89693192      0.74856960
H      -1.43510374      1.70267997      1.31725982
O      -1.98624186     -0.29470193      4.75506182
H      -1.22500935      0.30061042      4.61836758
H      -2.12187244     -0.66885443      3.86425624
