98
charge=0
N      -2.59728632     -0.84316867     -2.32509123
N       0.95891908      1.64305143     -4.46444703
N       5.20229749      1.65354344      2.00970011
N      -0.33429200     -1.27928227      1.41050513
N       2.47772408     -0.33504866      3.53960110
S      -1.53564565     -1.63015811     -3.30062776
C      -2.08184114     -0.59393241     -1.16638964
C       1.13719532      0.39618011     -4.81058926
C       5.15345783      1.97546439      0.74405460
C      -0.27237109     -1.63502354     -2.12540323
C      -0.72660277     -1.03434284     -0.99692488
C       3.60940557      0.30280512      3.45250361
C       0.08183380     -0.79379875      0.22018491
C       2.02184585      3.01842684     -2.64532504
C       2.82381364      2.91866468     -1.54283369
C       3.41332385      0.63001219     -2.05981636
C       1.86167332      1.89449094     -3.46853772
C       4.09276315      0.89582989      2.26042193
C       2.58620294      0.71192496     -3.18413938
C       3.49303126      1.71701078     -1.21385954
C       0.46478267     -1.09527122      2.43446823
C       1.25424648     -0.10006313      0.07572678
C       3.32695463      0.79111914      1.10368700
C       1.70448384     -0.43553285      2.40051355
C       2.09358323      0.09596781      1.16147916
N       2.11937503     -0.22890893     -4.07546850
N       3.98818953      1.52342620      0.12941959
H      -2.63055213     -0.06789246     -0.39571617
H       0.49554977     -0.11342539     -5.51539790
H       5.88577091      2.59899641      0.25251460
H       0.70936745     -2.04062219     -2.26636273
H       4.20449255      0.39434200      4.34480548
H       1.47201316      3.91736422     -2.86217590
H       2.89732836      3.74803425     -0.86191495
H       3.83042887     -0.31588611     -1.76651128
H       0.12749759     -1.48065817      3.38296273
H       1.52162667      0.27204311     -0.89214663
H       2.29842911     -1.24112590     -4.04246194
O       1.18460902      5.74387731      0.79543122
H       1.84395387      5.14598937      1.19431090
H       0.58823751      5.98444586      1.52021246
O       6.49825146      3.68714837     -1.32314607
H       6.34300328      4.63218322     -1.47525155
H       6.89383775      3.34887616     -2.14128907
O       7.12524006      2.40630147      4.15994739
H       8.00607543      2.21379872      3.80068235
H       6.48932160      2.15387187      3.45170765
O      -3.55293073      0.77446478     -4.71601651
H      -4.48869133      0.96576380     -4.56427722
H      -3.26580983      0.26971088     -3.92982974
O       3.12113823      3.95554568      1.94063797
H       3.69963576      3.95489249      2.71655904
H       3.39287497      3.16681634      1.42432603
O      -1.58051968      2.85383414     -5.55379572
H      -0.74041712      2.48463325     -5.19716203
H      -2.27270902      2.22572921     -5.26602705
O      -1.17067334     -2.18440829      6.06965769
H      -0.20696306     -2.05678351      5.99916336
H      -1.41815649     -1.62373074      6.82366085
O      -3.18662376     -2.20660302      1.67871323
H      -2.25690103     -1.90478108      1.56762434
H      -3.19666528     -2.60309197      2.56836302
O       3.23152448     -2.36789136     -1.48806138
H       2.96883985     -2.70597399     -2.36611723
H       2.68158175     -2.86167712     -0.84999281
O      -0.13346834     -0.33331614      8.00258674
H       0.28234463      0.40127035      8.47894632
H       0.55490064     -0.68768416      7.40627737
O       2.33223213     -3.23623531     -4.11662535
H       1.49937551     -3.17076901     -4.62183367
H       2.85038418     -3.91856880     -4.56919080
O      -5.41609690     -3.00537743     -0.02934101
H      -5.89079509     -3.71233791      0.43281169
H      -4.66032869     -2.77904822      0.54669577
O       1.42499078     -3.74757503      0.37656574
H       0.99366039     -4.53712707      0.73550087
H       1.00371959     -2.99175281      0.82299294
O       1.72055930     -1.58111404      6.09059338
H       1.97596246     -1.15595914      5.24225470
H       2.44812540     -2.18440251      6.30113766
O      -3.07486000     -3.35910059      4.28996132
H      -3.61766010     -3.92781352      4.85666128
H      -2.41926732     -2.95696756      4.88914775
O      -1.45425800     -0.46786075     -6.45855160
H      -1.39635401      0.10443688     -7.23745274
H      -2.16393715     -0.07630652     -5.91546522
O       1.29499405      5.79772358     -2.08552391
H       0.76745623      6.56134624     -2.36606130
H       1.25365330      5.79927693     -1.11039930
O      -0.08446727     -2.92198724     -5.61823813
H      -0.53045766     -2.10545438     -5.91080113
H      -0.63271106     -3.64150035     -5.96603314
O      -5.52863190     -0.73020103     -1.81626195
H      -5.65626414     -1.53910623     -1.28498596
H      -4.56657432     -0.75275718     -2.02699294
O      -4.56455792      0.33202110      0.88672533
H      -4.98765142      0.08229737      0.04311807
H      -4.14776084     -0.48817696      1.21895373
