94
charge=0
N      -0.22254178     -0.96538544      3.87234630
S       2.38122772     -1.50456330      3.48910747
C      -0.98791121      0.17561302     -0.10588123
C      -0.12513662     -0.05952733     -1.08598726
C       0.72130865     -1.07027338      3.00118202
N       0.44733618     -0.87287635      1.63608467
C       0.01308276     -1.05190306      5.22701283
C      -0.92528257     -0.53206395      1.20084766
C      -1.66688705      0.57533252     -2.96718709
C       0.08481801      2.19015118     -2.16066619
C       0.74110449      0.16475504     -3.47252980
C       0.97339391     -1.04676553     -0.82053516
C       1.51645813     -0.89511362      0.60589478
C      -0.23550025      0.70663278     -2.41061089
H       2.02438373     -2.78408881      3.29043339
H      -1.76915172      0.89969033     -0.25494054
H       0.72716475     -0.28703279      5.53606041
H       0.41547786     -2.03448395      5.47836942
H      -0.91664919     -0.90417705      5.77894988
H      -1.50068872     -1.45948885      1.14107655
H      -1.38334027      0.07080021      1.98984546
H      -1.93339387     -0.47222827     -3.09990643
H      -1.75581308      1.07191220     -3.93299891
H      -2.39957163      1.02590874     -2.29972438
H      -0.60996713      2.62827840     -1.44508361
H       1.09223129      2.30517063     -1.76203125
H       0.02015810      2.76332337     -3.08476281
H       0.59435164     -0.90276872     -3.63172717
H       0.59025490      0.66603243     -4.42824037
H       1.77826693      0.32939168     -3.18340582
H       1.78675709     -0.92745739     -1.54288943
H       0.58336440     -2.06027012     -0.96588281
H       2.08757631      0.03303963      0.69077145
H       2.20266110     -1.71155326      0.84987039
O       2.64184830     -2.31604862     -3.59955058
H       2.03752220     -3.03003009     -3.31440662
H       3.25195685     -2.21924012     -2.84448214
O       2.43348713     -4.45157506      0.07463219
H       1.64058076     -4.27299764      0.61381424
H       2.94328550     -5.09829596      0.58451676
O       0.05547927     -3.87217654      1.53881477
H      -0.90720674     -3.96395733      1.63656240
H       0.19631563     -2.90249586      1.61349702
O      -3.89941512      0.27883614      1.01394309
H      -3.78554584     -0.52346017      0.46656949
H      -4.33174921      0.91159973      0.41029312
O      -2.83287057     -3.68067070      1.75706289
H      -3.02193404     -3.00676232      2.43544857
H      -3.10357130     -3.25145868      0.92182138
O       3.46071794      2.36405809      1.88085388
H       2.48509382      2.30831036      1.87344406
H       3.67782789      2.15265755      2.80626276
O       4.51616405     -0.32141206      1.13880898
H       3.99050030     -0.73580613      1.84905808
H       4.32416335      0.62739323      1.24468297
O       0.55592895      5.68643019     -1.81627339
H       1.01848233      5.07442490     -1.21593210
H       0.86465558      6.56741592     -1.55553678
O      -3.21348195     -1.30170347      3.44851639
H      -2.24995783     -1.16514802      3.59431037
H      -3.46551987     -0.70972323      2.71260932
O      -1.48049965      4.86133320     -3.65036260
H      -0.80956796      5.12756094     -2.99631382
H      -1.26221351      5.37026906     -4.44632983
O      -3.76033217      3.17851637     -3.19729484
H      -2.97960681      3.75191578     -3.30066738
H      -4.12703620      3.09612311     -4.09154275
O      -2.31189353      2.43939183      2.29046448
H      -2.90336944      2.91290107      2.89383510
H      -2.86451767      1.75082687      1.87517117
O       0.92905376     -4.45102844     -2.43819962
H       1.06186226     -5.33161121     -2.81981937
H       1.42291317     -4.46302143     -1.59686959
O      -3.53092775     -2.15483267     -0.67979900
H      -4.36583921     -2.42224628     -1.09500027
H      -2.84152093     -2.39865623     -1.32556288
O      -1.56902466     -2.95989872     -2.65945522
H      -1.69496277     -2.92494847     -3.62055716
H      -0.73690604     -3.45292405     -2.53936383
O       0.52913079      2.17943241      1.83449681
H       0.54091438      1.19867625      1.81677308
H      -0.40493126      2.38065324      2.01846785
O       4.12215447     -2.23602693     -1.09211532
H       4.32186887     -1.60096172     -0.37918731
H       3.62666481     -2.96582166     -0.66657117
O       3.70671828      1.33660383      4.54205366
H       3.92750075      1.26498032      5.48179777
H       3.29403816      0.48692046      4.29963377
O      -5.03235613      2.15577354     -0.82797490
H      -4.57804020      2.49432274     -1.62128887
H      -5.83001579      2.70018112     -0.74367511
O       1.92275281      3.93818472     -0.01529365
H       2.82664359      3.75553894      0.28928949
H       1.36544984      3.39332853      0.57028188
