108
charge=0
O       0.84658943      1.62613502      1.81298526
O       1.94852906      3.12116343      3.54304303
O      -0.42252752      3.42530329      2.98917068
C      -0.98905172      1.62195473     -1.81531406
C      -2.64848783     -0.85854651      0.38086286
C      -3.06761709     -2.16098210      0.57660838
C      -1.53196129      0.97822335     -0.72395391
C      -1.95084450     -0.34379805     -0.70105691
N      -2.66746351     -3.29996404     -0.07207679
N      -0.51295930      2.90073151     -1.81871428
C      -0.20427951     -3.16772849      0.07699283
C      -0.87137194      1.06239072     -3.20655063
C      -4.01658508     -2.53990825      1.68443243
C      -1.39495728     -3.49095564     -0.79637500
C      -3.28747348     -4.53027453      0.47706093
C      -0.03964567      3.36099378     -3.14056889
C      -0.25451738      3.73517182     -0.63325302
C      -4.25631994     -4.05886731      1.57025074
C      -0.35706539      2.20883323     -4.10684122
C       1.19669325      3.62429909     -0.17615363
C       1.44044844      4.13926397      1.23496652
S       0.89650798      2.93465371      2.51139983
H      -2.92349261     -0.15107382      1.14291003
H      -1.67923891      1.54882980      0.17476915
H      -1.75353546     -0.96017172     -1.55618371
H       0.74075758     -3.32944175     -0.44183069
H      -0.23264737     -2.12891505      0.40764040
H      -0.20151250     -3.78525788      0.97587088
H      -1.83995652      0.67691369     -3.54409722
H      -0.17508900      0.21801331     -3.20063398
H      -4.94733991     -1.96825115      1.59617411
H      -3.57007618     -2.27459801      2.64971123
H      -1.35058127     -4.53031331     -1.13731409
H      -1.40485251     -2.88905769     -1.70810060
H      -2.50077321     -5.17695117      0.87805994
H      -3.79028033     -5.07716208     -0.32659560
H       1.03242475      3.57152966     -3.08337402
H      -0.54688724      4.29479185     -3.40390916
H      -0.93122177      3.43585513      0.17009237
H      -0.51068500      4.77180842     -0.87111615
H      -4.07954867     -4.57373073      2.52255405
H      -5.29485643     -4.27108479      1.28862489
H      -1.12235981      2.50947248     -4.83252649
H       0.52361727      1.90943811     -4.68811776
H       1.83851497      4.15073785     -0.89400291
H       1.50529628      2.57256394     -0.23131132
H       0.92169930      5.08330168      1.40123088
H       2.50133884      4.32348760      1.41168066
O       0.22157662     -4.15231966     -4.89178042
H       0.79643006     -4.31362802     -5.65397946
H       0.46120096     -4.84303946     -4.24703131
O       3.10538121      6.44256381     -0.69801507
H       3.12546538      6.77145428      0.21900791
H       4.03675824      6.31594548     -0.93632500
O      -2.64921891      1.82266749      2.06313416
H      -2.73095017      1.17930716      2.79331418
H      -1.92613616      2.41523280      2.34624826
O       3.25979939      7.38658960      2.00128785
H       3.48119009      8.25369644      2.37320689
H       3.02399270      6.83969337      2.77200820
O       0.81581747      6.27019000     -2.45919335
H       1.59064100      6.32671652     -1.86774861
H       0.54379035      7.18937675     -2.61128067
O       2.54813468      5.82627265      4.28794833
H       2.06851651      5.92707467      5.12263425
H       2.39801003      4.89512579      4.04058470
O      -2.64071750     -3.76642766     -4.64091865
H      -2.91199837     -3.39221388     -5.49234880
H      -1.67516251     -3.87779293     -4.71301111
O      -1.40900129     -7.08636190     -1.44914559
H      -2.17846188     -6.69356679     -1.90439127
H      -1.71462077     -7.94621672     -1.12266672
O       2.79455527     -1.93819234     -1.44309527
H       3.53597053     -1.39809076     -1.75551003
H       2.53837836     -1.53887946     -0.59143937
O       0.89046248     -6.06572317     -2.92608546
H       0.16821451     -6.44938274     -2.39502453
H       1.53610278     -5.71771142     -2.28319209
O      -1.58090121      2.25285695      5.43150638
H      -1.23994947      2.63499361      4.59928204
H      -1.09659980      2.73538251      6.12119342
O      -4.67708077     -1.31940648      6.01258283
H      -4.52420900     -1.92402096      6.75465286
H      -5.53935958     -0.90869873      6.17837816
O      -2.65758860     -0.15117712      4.26917362
H      -2.31617706      0.61398267      4.77223917
H      -3.33229487     -0.55271568      4.84617626
O      -3.64190557     -5.84621878     -2.81505790
H      -4.58654544     -5.64602570     -2.74014505
H      -3.29834297     -5.19083602     -3.45116457
O       2.03355511     -0.82713219      1.03699567
H       1.71738519      0.07036935      1.23809574
H       1.59789874     -1.36597697      1.71905292
O      -4.41759434     -2.79009189     -2.50531879
H      -3.82811686     -3.04815193     -3.24085634
H      -3.87551894     -2.90805401     -1.69398943
O      -0.34270776     -0.90667746      2.63162618
H      -0.00483514     -0.01997779      2.39610789
H      -1.11647014     -0.72444838      3.19668974
O       0.29623486     -1.83828772     -3.05303047
H       0.30312986     -2.59655449     -3.66806300
H       1.12716314     -1.89767785     -2.54253954
O       2.78319592     -4.83562952     -1.11207243
H       3.49857920     -5.04332192     -0.49239991
H       2.81450073     -3.86730592     -1.23202823
O       0.68921524      3.97647578      5.72579449
H       0.33743694      3.90493499      4.81277723
H       1.49688272      3.43597256      5.68402089
