99
charge=0
O      -0.26702568      0.67756663      1.36080136
O       2.37705332     -2.97664573     -0.13204781
O       0.79601055     -2.21413748     -1.79139786
O      -3.02527556     -0.99564659     -0.40385478
C       0.67370762      0.10998782      0.84842489
C      -2.57434701      1.21103472     -1.13910409
C       3.28106246     -0.81677027      0.59740540
C      -1.75314896      2.22237148     -1.68725241
C      -2.16074724     -0.09657862     -1.04090906
C       2.17917958     -1.78148764      0.53301962
C       0.91830604     -1.33635220      1.00781695
C      -0.37791924     -1.71807477     -1.24709520
C       3.03267999      0.46967869      0.35026616
C      -0.53680006      1.95737982     -2.17498588
C      -0.88266044     -0.46600720     -1.58008433
C      -0.26334321     -2.20784372      1.07168434
C      -1.01163880     -2.32304403     -0.07674717
C       1.35185243     -3.30883184     -1.06899517
C      -2.50574340     -2.29845533     -0.08256660
C       0.18870151      0.15910062     -3.71894164
C       1.63816889      0.86255973     -0.05787542
C       1.45699247      0.54498327     -1.57508588
C       0.03991618      0.56150224     -2.24299488
H      -3.53486832      1.46881320     -0.72987381
H       4.28045671     -1.17208344      0.77973245
H      -2.11528065      3.23641952     -1.69129178
H       3.82130855      1.20261865      0.35977674
H       0.06476631      2.75505894     -2.57316738
H      -0.71593276     -2.43903216      2.02513842
H       1.80312541     -3.98103014     -1.80570623
H       0.56845077     -3.87666805     -0.56069005
H      -2.90190858     -2.58542201      0.89748404
H      -2.90058549     -3.00287144     -0.82228865
H       0.83761410      0.85271047     -4.25021051
H      -0.78167939      0.15469992     -4.21323931
H       0.61401520     -0.84052499     -3.80122207
H       1.47636027      1.93540368      0.11891168
H       1.87066455     -0.45270314     -1.74345496
H       2.10754832      1.21533719     -2.14359941
O       2.88259992      1.84772021     -4.81733516
H       3.45623928      1.14398850     -4.46574905
H       2.91060961      1.72561303     -5.77894000
O      -1.90673564      3.00054057      1.57441594
H      -1.37397897      3.74998701      1.24765406
H      -1.32071638      2.22261419      1.49600477
O      -0.56332304      5.34049340      0.39568196
H      -1.22007092      5.55578897     -0.29406393
H      -0.49401608      6.13544267      0.94474229
O      -1.56735001     -2.91563670      4.67078160
H      -1.73353960     -2.03993510      4.27567186
H      -2.10639987     -3.53227976      4.13637488
O       4.58032848     -0.26298368     -3.92689453
H       5.40592254     -0.47795118     -4.38783749
H       4.54823203     -0.89524093     -3.18828393
O      -4.12634948      3.93294009     -0.11395065
H      -3.65671361      4.60330043     -0.64900025
H      -3.44720624      3.58872820      0.49812853
O       2.73471720     -4.75177235      2.12420088
H       1.84968953     -4.80293535      2.52713211
H       2.60846997     -4.16904337      1.34891766
O       1.77328407      4.17281803     -3.57747675
H       2.46853760      4.83889345     -3.69517401
H       2.13685376      3.36496693     -3.98425271
O       0.06443425     -4.71175455      3.21984096
H       0.04846349     -4.13972418      4.00652179
H      -0.87988830     -4.84634429      3.01744265
O      -5.32227160     -3.41131263      2.42843003
H      -6.25554720     -3.51488245      2.66711465
H      -5.23438657     -2.47529174      2.17309534
O      -5.05262791     -0.66461955      1.63713801
H      -4.39686495     -0.73474000      0.91565235
H      -4.78694147      0.13567420      2.12572514
O      -2.06181351     -0.45546206      3.29684750
H      -1.42007180     -0.10643637      2.64677216
H      -2.76996970      0.21351587      3.30668953
O       6.34907217     -2.37517621      0.51562508
H       7.26831798     -2.16554569      0.74057451
H       6.08256254     -3.05902091      1.15796650
O      -2.52541270      5.87572762     -1.68684907
H      -2.01581538      5.60933387     -2.47514088
H      -3.11932667      6.57586676     -1.99538649
O       4.62445930     -2.14493564     -1.80038074
H       3.80251258     -2.43637137     -1.36484852
H       5.28823250     -2.22663147     -1.09161877
O      -2.88536495     -4.87096866      2.82995946
H      -3.16130434     -5.79991989      2.86111802
H      -3.71043108     -4.37219330      2.68184167
O       1.80191500      3.91697477     -0.60958603
H       1.02517749      4.39945465     -0.26586962
H       1.77765943      4.02695670     -1.58064345
O      -4.05929650      1.71215918      3.02661396
H      -3.36549929      2.20369722      2.54605274
H      -4.59523939      2.38827438      3.46550424
O      -0.96309838      5.06934824     -3.94455381
H      -0.04158026      4.77732017     -3.81558690
H      -1.14968794      4.91856337     -4.88327185
O       5.56276610     -4.37930137      2.43655467
H       4.60309908     -4.52138957      2.34229860
H       5.84364498     -5.01903705      3.10780331
