106
charge=0
O      -2.51576941     -2.19605835      1.42374092
O      -2.06850753      1.77197199      1.91398189
O       7.10093490     -0.97274379      2.81075375
C      -2.94661843     -1.17282491      0.96564934
C      -1.25156177      0.89205125      1.85154165
C       7.06759985      0.17134092      2.43902316
C       3.94802541      0.03511784      0.43241488
C       4.85638808      0.15457839      1.39487574
C       2.59859794     -0.39777360      0.72570828
C       1.52632842     -0.21471839     -0.04886936
N      -1.62469051     -1.39002155     -1.09039104
C      -4.24073652     -0.59374164      1.42347312
C      -0.59433869      0.39755819      3.09108129
C       7.75085928      1.24224857      3.21895742
C       1.62146583      0.48309163     -1.35570742
C      -0.34418526     -1.86459706     -0.55199439
C      -2.17331731     -0.43086779     -0.09984916
C      -0.94020045      0.29550395      0.49489102
C       0.19757537     -0.77108212      0.40638102
C       6.47124165      1.94508240      0.69730236
C       6.29171296      0.50348540      1.17584730
H       4.22874184      0.22019539     -0.58888308
H       4.55699884     -0.04334020      2.40987721
H       2.46510501     -0.92645024      1.65352652
H      -1.42860928     -0.87574683     -1.96453720
H      -4.60983547     -1.13628347      2.29337424
H      -4.11887987      0.45271330      1.70309070
H      -4.99726746     -0.65871140      0.64166093
H      -0.82797379      1.06427475      3.92023076
H       0.48771592      0.36413791      2.98040365
H      -0.95645510     -0.59345248      3.35839174
H       8.51300010      1.74280991      2.62285570
H       8.23953646      0.80610074      4.08942441
H       7.03601957      1.98526091      3.57229821
H       2.35555787      0.00123496     -2.00190737
H       0.66843976      0.47083827     -1.88354896
H       1.91627923      1.52449162     -1.22268143
H       0.37069822     -2.08511455     -1.35228813
H      -0.53453083     -2.80533208     -0.02322021
H      -2.84666180      0.28769748     -0.58997339
H      -0.67404549      1.13397259     -0.16210789
H       0.32944217     -1.21556641      1.40055948
H       5.91000922      2.13222131     -0.21850145
H       7.51842328      2.17419771      0.49879424
H       6.11248199      2.64743129      1.44775775
H       6.67512619     -0.17152645      0.39340154
O       4.85896152     -2.95445100      2.76319172
H       5.57125972     -2.29126016      2.87551528
H       4.04491438     -2.53835774      3.10711664
O      -1.00979432      0.65204550     -6.51120627
H      -1.79708138      1.03604231     -6.92525847
H      -0.25622667      1.08374302     -6.94008728
O       0.37728842      4.28277359      1.43363935
H       0.63579096      5.21467881      1.51951015
H      -0.45042850      4.31331580      0.92381812
O      -1.28260184     -2.26305255     -6.04579705
H      -0.37263772     -2.59333432     -5.99381731
H      -1.20120095     -1.30290946     -6.19984601
O       2.13059746      1.19928508      4.58883843
H       2.40102828      1.67150760      3.77564023
H       2.81436470      1.39210963      5.24774056
O      -2.09535678      4.72560632     -0.10559769
H      -2.74576521      4.45958725      0.56872769
H      -2.42364441      5.57166699     -0.44587887
O      -0.27695518     -2.78771038      3.11859171
H      -1.04282488     -2.61385596      2.53708343
H      -0.44715539     -3.66395848      3.49547888
O       6.75422302     -2.90381437      0.60377320
H       6.95902373     -2.27190410      1.32218339
H       6.03614023     -3.44548805      0.97585080
O      -6.70962594     -2.65799617      2.15988930
H      -7.36469899     -3.34888037      2.34726447
H      -6.04767785     -3.08307073      1.58217583
O       5.11130802      3.33185628      3.41211779
H       4.96016484      4.19248790      3.83350077
H       4.27566605      3.11203527      2.95630271
O      -1.94554151      2.66633049     -2.18728439
H      -2.81299154      2.22019014     -2.17358503
H      -1.98670121      3.34237493     -1.48732498
O      -3.52430651     -3.48091629     -4.67331530
H      -2.77320921     -3.06776312     -5.13901714
H      -3.84471294     -4.17540491     -5.26798832
O       0.05543257      3.45389515      4.35680575
H       0.09578535      3.69003674      3.40865879
H       0.68937702      2.71978316      4.47862083
O      -3.92061989      3.88422076      1.94346821
H      -3.31777489      3.11525671      1.99643730
H      -4.43990004      3.85681034      2.76012214
O      -4.01811431      0.47171418     -2.68492828
H      -3.14306646      0.34270600     -3.10178975
H      -4.32428820     -0.43332623     -2.49972763
O      -1.13575227      0.28971406     -3.59555482
H      -1.07095667      0.43199392     -4.55883111
H      -1.25063073      1.17594433     -3.20031091
O      -4.25263661     -2.47151564     -2.09575686
H      -4.05776440     -2.86573219     -2.96515256
H      -3.37636359     -2.17262202     -1.75310784
O       2.38215686     -1.65139278      3.68875625
H       1.49663188     -2.04086918      3.55525868
H       2.23731461     -0.76290216      4.06908215
O       2.62406883      2.62150459      2.08816284
H       1.86587088      3.16903583      1.81755273
H       2.62235251      1.85513218      1.49454261
O      -4.68221509     -3.84243242      0.44863465
H      -3.91061698     -3.39853578      0.85248283
H      -4.66767224     -3.50128693     -0.46447374
