89
charge=0
O      -1.56084200     -1.25640437      2.45718131
O       0.36943289     -2.40527977      0.37644212
O       2.39557180     -1.52184187      2.56466821
O       1.92750804      0.98701912      2.46081261
O       1.59902861      0.81704315     -0.46585774
O       4.00040711      0.05885063      1.46742276
C      -1.65936748     -0.35724653      1.65098652
C       0.33226462     -1.21086047      0.29417142
C       0.38965452      1.44686856     -0.54497013
C      -2.38585827      0.85447475      1.98839864
C      -2.62076327      1.83928702      1.07941820
C      -3.01265775      1.00853651     -1.22193255
C      -2.90034185     -0.37521967     -1.42842689
C      -2.12232498      1.64292772     -0.29180330
C      -0.82066076      0.92963048     -0.23764116
C      -1.98359280     -1.14848719     -0.72833681
N      -1.94184141     -2.48044824     -0.91284436
C      -1.00889755     -0.47895443      0.25362139
C       1.64058712     -0.45540912      0.19646714
S       2.48278193     -0.23844773      1.81909491
H       4.43664173      0.46565793      2.24264040
H       0.45042690      2.46093343     -0.91307164
H      -2.75686145      0.94495364      2.99400828
H      -3.22057753      2.70004705      1.33329745
H      -3.87543193      1.53037519     -1.61115425
H      -3.58676923     -0.86893219     -2.09375943
H      -2.67127559     -2.99425015     -1.40531603
H      -1.47102329     -3.09128250     -0.24912474
H       2.32140290     -1.05763390     -0.41728906
O       5.19555693      1.40388039      3.76206459
H       5.92123892      0.96533675      4.22871161
H       4.49856999      1.52284589      4.42391355
O      -1.45733214     -0.04233255      5.08794315
H      -1.48925936     -0.53885543      4.24454044
H      -1.39347789     -0.71666771      5.77923765
O      -1.08218310      2.39563568     -3.53534355
H      -1.02136659      3.08591805     -2.84915867
H      -0.22471398      1.92735769     -3.50849266
O      -4.00129131     -4.01981646     -2.24299448
H      -4.78251302     -3.46046090     -2.40788332
H      -4.04130011     -4.71397031     -2.91659670
O      -5.31826953      0.34326420     -3.61607661
H      -5.79109200      0.99235012     -4.15765110
H      -4.42100706      0.30728297     -3.99494108
O      -0.21941341      4.10036066      1.41834718
H      -0.36608956      3.58201780      2.22947979
H       0.74007019      4.00532133      1.26474258
O       5.38361112      1.62547951     -0.59234287
H       5.53653512      2.34782165      0.04684696
H       4.95227213      0.94440409     -0.04185370
O       2.57283776      3.41961030      0.96896176
H       3.51262701      3.57004755      1.18086629
H       2.35486435      2.59711036      1.45434131
O      -3.74223140     -5.45533325      0.36715829
H      -2.84050786     -5.23433224      0.67253802
H      -3.84656704     -4.99722814     -0.49142243
O      -0.87379659      4.33232126     -1.37180932
H      -0.81197882      5.26798328     -1.61378092
H      -0.70073308      4.30816952     -0.41284808
O      -0.52300308     -1.50453444     -3.55401291
H       0.14546935     -0.81351835     -3.37932172
H      -0.87236125     -1.80665776     -2.68799137
O      -0.32149219      2.27168862      3.69174220
H      -0.71352480      1.58748807      4.26374277
H       0.47461726      1.83799053      3.32337732
O       5.43307872      3.51512124      1.69063142
H       5.41120878      2.85626026      2.41339482
H       6.08245210      4.18082751      1.95768397
O       3.04034206      2.70192684     -1.89761438
H       2.75228774      3.02678835     -1.02381078
H       3.90564376      2.30952377     -1.68560651
O       1.40434750      0.80474965     -3.38411292
H       1.96399678      0.57211775     -4.14082470
H       1.95790869      1.40152701     -2.84733628
O       3.12950218     -3.28965350      0.50305411
H       3.35335507     -3.13177723      1.43746124
H       2.17174668     -3.09365722      0.44981258
O      -1.04445314     -4.68155104      1.21534806
H      -0.42228942     -3.95850437      1.01046325
H      -0.83565212     -4.89050368      2.13989048
O      -6.19534490     -2.26470005     -2.75013459
H      -5.93369111     -1.37602780     -3.05601320
H      -7.16166578     -2.24452583     -2.69196398
O       0.24433958     -3.34549984      3.27260636
H       1.06206897     -2.84472066      3.09196511
H      -0.44665558     -2.70086853      3.01624979
O      -2.64618981      0.23812555     -4.55753660
H      -2.17345919      1.05538231     -4.31634023
H      -1.98826027     -0.45550024     -4.37259819
