103
charge=0
O       4.59017788     -0.35894837     -1.88035995
O      -5.40538553     -0.68014781      3.16506434
O      -5.98880682     -3.18079539      2.92668660
Br      7.73891980     -1.01658392     -6.73604596
Br      4.61057824     -2.11205882     -8.03827700
N      -0.72743745      3.08318388      1.18483469
N      -1.31930700      1.02634440      2.12377970
O       3.03470532     -0.90153654      0.36455029
O      -5.19838440     -2.21371642      5.19201286
C       3.96610340     -0.84408249     -2.81005082
C      -0.57599064      1.81383035      1.28209262
C      -0.94281454     -0.20608844      1.92893648
C       5.95087449     -0.82711033     -4.41526541
C       6.13065791     -1.13728034     -5.76096188
C       4.91677857     -1.55479450     -6.26117574
C       4.62337340     -1.06518909     -4.10470344
C       0.12079645     -0.27138618      0.93253127
C       0.70243499     -1.41384120      0.50731761
N       3.99354410     -1.48567801     -5.25756416
N       0.39033404      1.05831674      0.57944972
N       2.63045346     -1.18638300     -2.72454409
N      -1.37698642     -1.28887532      2.68076000
C       1.92558771     -1.44609619     -0.34080463
C       1.73423074     -0.71894042     -1.67700140
C      -2.67470947     -1.21207801      3.33248856
C      -3.51279483     -2.45439106      3.15919778
S      -5.25033887     -2.09204332      3.61590040
H      -0.11709145      3.59836690      0.59604776
H       3.71600016     -0.69867339     -0.31610011
H      -5.88124299     -1.66677055      5.62663410
H       6.71371358     -0.47115832     -3.74266656
H       0.32572259     -2.34646124      0.88927994
H       3.03956147     -1.87055009     -5.31152698
H       1.36035448      1.40326852      0.59115555
H       2.16041140     -1.61027716     -3.53479647
H      -1.17957331     -2.24079818      2.34620896
H       2.18633375     -2.49738067     -0.55755168
H       1.90638528      0.34749807     -1.52488023
H       0.69641884     -0.82574743     -2.01210513
H      -2.52879712     -0.96933827      4.39260942
H      -3.21198026     -0.36025621      2.89201688
H      -3.13674869     -3.28042778      3.76329808
H      -3.50478006     -2.78317160      2.11996507
O      -7.15257556     -0.59521933      6.42831026
H      -7.92686931     -0.72685165      6.99442217
H      -7.13050260      0.36206587      6.25068737
O       7.35720370      0.51253551     -1.83180575
H       7.37958082      1.43888940     -1.54806921
H       6.41258157      0.25416156     -1.80247294
O       2.78309789      1.27509332     -5.79941172
H       2.97988579      1.48477982     -6.72349236
H       3.22098086      0.41375375     -5.62977071
O      -2.69587606      2.21146982      4.58212086
H      -2.23298151      1.80471821      3.81338833
H      -3.64281481      2.17961163      4.35218848
O      -3.78423138      3.60255592      1.59620131
H      -2.85829071      3.35239671      1.40275694
H      -3.71075601      4.48595418      1.99679088
O      -0.75981763     -4.00561606      1.73098411
H      -1.44476764     -4.54369385      1.29359225
H      -0.17136052     -4.64823616      2.15527565
O       4.56803190      2.47387500     -1.81528913
H       4.58553283      1.49841680     -1.88717705
H       3.85364013      2.74807893     -2.42158038
O       0.08155321      0.31011908     -4.89657867
H      -0.09249378      0.77652424     -4.05957012
H       0.91128245      0.70560315     -5.23314918
O      -7.08220128      2.23449887      5.87870858
H      -6.53801353      2.23945156      5.06908635
H      -7.21245513      3.16818754      6.10156484
O       3.07612282      2.37676460      0.62683431
H       3.63513850      2.10284223      1.36734480
H       3.66372694      2.39900906     -0.15010112
O       6.52790632     -2.46339447     -1.13798002
H       5.84385938     -1.80658297     -1.37840826
H       7.35142991     -1.95572921     -1.06304889
O       1.14221466     -2.34148068     -5.20673347
H       0.66462485     -1.49157932     -5.15101805
H       0.48349781     -2.98914390     -5.49588834
O      -1.95612130      4.79607792      3.34157001
H      -1.48066087      4.29584113      2.64131208
H      -2.21884657      4.09495876      3.96473622
O      -5.44502047      2.15055173      3.52114640
H      -5.47868605      1.19958890      3.30147684
H      -5.00478942      2.59339861      2.77167516
O      -5.56534320     -5.25658925      1.04070500
H      -5.74136367     -4.55061576      1.68982843
H      -6.44065565     -5.59648565      0.80360901
O       1.27634537      4.43739834     -0.39103879
H       1.93813644      3.79878082     -0.06029114
H       1.73428167      5.28925846     -0.43893833
O      -2.77244119     -5.61597616      0.50590202
H      -2.74487480     -6.35150373     -0.12411018
H      -3.71937939     -5.48682644      0.69544036
O       1.88443455     -1.16920156      3.27253243
H       0.91401049     -1.18389745      3.12707918
H       2.29045163     -1.07238564      2.38689204
O       2.30819425      3.08787103     -3.55534942
H       2.08287848      3.95917428     -3.91226611
H       2.47117563      2.51679956     -4.33165641
O      -0.04363172      1.72365350     -2.35547751
H       0.71195394      2.28762714     -2.61176039
H       0.05754425      1.55130920     -1.39471965
