76
charge=0
I       2.60995744      0.17875512     -3.36967126
C       0.12401364      0.06332572      0.87102960
C       1.70728119      0.24292763      0.72292610
C       0.16303233     -1.14431292     -0.17890206
C      -0.10013718      1.09901776     -0.33013576
C       1.74436058     -0.96364375     -0.32795215
C       1.47786054      1.26945344     -0.47937957
C      -0.06226957     -0.11184537     -1.37430967
C       1.52235974      0.06701383     -1.53494760
H      -0.43536031      0.04854281      1.83096798
H       2.40675693      0.40383256      1.57161942
H      -0.37189514     -2.11134958     -0.06232303
H      -0.81051304      1.95168520     -0.33363293
H       2.48418228     -1.79262080     -0.33439214
H       2.00386851      2.23946121     -0.61174637
H      -0.77619635     -0.26763221     -2.21020939
O       4.96878268      0.25703721     -0.51336176
H       5.81795912      0.03066998     -0.92084458
H       4.32246911      0.21102188     -1.23651908
O      -1.98965477     -0.90608252     -4.83985911
H      -2.09022724     -1.49830579     -4.06865810
H      -1.63099707     -0.06531233     -4.49295140
O      -0.53832284      1.98690601      3.26931044
H      -1.30253427      2.07329481      2.66747664
H       0.15927093      2.53318472      2.86089952
O      -1.34269379     -2.39607045      2.45801567
H      -0.37745304     -2.39803591      2.59811168
H      -1.54565292     -3.24335665      2.01698795
O      -0.20774852     -4.47755006     -1.40603414
H       0.46896623     -4.35565847     -0.71365150
H       0.25884856     -4.92741187     -2.12654986
O       0.48748578      5.23742700     -0.17914780
H      -0.43336278      5.11679540     -0.47774073
H       0.71011459      6.15313995     -0.40821773
O       1.67251707     -2.24130214      2.81586320
H       1.36139699     -1.59263561      3.47481611
H       2.55384583     -1.90428123      2.56015520
O       4.28665860     -1.17942049      1.99706046
H       4.51072418     -0.71778028      1.16620686
H       4.88623611     -0.81419282      2.66598903
O       1.50208505      3.51782937      1.93785497
H       1.17813636      4.11124371      1.23340418
H       2.39393374      3.24192012      1.65243397
O       1.68881023     -4.23171402      0.71419546
H       1.65031236     -3.55710722      1.41528215
H       2.29980262     -4.90242354      1.05450886
O      -2.78897193      2.21772867      1.34640775
H      -2.79058148      2.23630946      0.37017210
H      -3.42813099      2.89471500      1.61535602
O      -2.73983284      2.15123093     -1.70345124
H      -2.10461772      2.03124079     -2.43618812
H      -3.17198719      1.28065060     -1.64206519
O      -3.74665859     -0.50163419     -1.42293497
H      -3.29162541     -1.27907094     -1.79807294
H      -3.72985894     -0.63927996     -0.45749350
O       0.67609142     -0.24401211      4.62807774
H       0.27384408      0.52328697      4.18086749
H       0.23811816     -0.28626438      5.49140114
O      -1.95917583     -4.82692649      0.96364331
H      -2.63327454     -5.49769986      0.77774957
H      -1.42120184     -4.75463748      0.15220654
O       4.16371916      2.65363293      1.02090927
H       4.98404429      3.14235441      1.19037749
H       4.42830087      1.86090194      0.51580433
O      -2.30538451     -2.79331309     -2.54629185
H      -2.94250632     -3.44803676     -2.87345917
H      -1.58622076     -3.31768610     -2.14789417
O      -0.78464465      1.68908718     -3.88005003
H      -0.73638879      2.29380866     -4.63569682
H       0.12457924      1.37551548     -3.74093481
O      -3.46873348     -0.69457986      1.44489709
H      -2.76670908     -1.23606599      1.85067722
H      -3.19752261      0.23799786      1.55593031
O      -2.24550772      4.92348465     -1.10184405
H      -3.04511068      5.40472175     -1.36277560
H      -2.42457462      3.99053197     -1.32247128
