72
charge=0
O      -1.29194370      2.12109202      2.51703324
O      -1.36647664     -0.18427343      4.01282182
Br      0.20243070      2.23003081     -0.19632770
Br     -2.35339311     -2.88937719      2.92403121
Br     -0.14317832     -0.53901842     -1.69441740
Br     -1.64953848     -3.00701438     -0.29670017
C      -1.12664706      1.02916819      2.02319129
C      -1.40813793     -0.21150605      2.80314884
C      -0.66387552      0.83558557      0.66528946
C      -1.64561295     -1.41938892      2.03508819
C      -0.78101528     -0.34980855      0.05315280
C      -1.35072555     -1.47675712      0.73004401
O       0.24276634     -5.72558813     -0.47346488
H       0.10356055     -6.64031803     -0.18668656
H      -0.47332240     -5.54748907     -1.11113867
O       3.78027477      0.32558866     -1.51913950
H       3.17866499      0.90957266     -2.02274625
H       3.29193096      0.06138362     -0.71581858
O       1.84421652      4.18589636     -1.60166031
H       1.87725514      3.39806330     -2.17858180
H       1.44784086      4.88740864     -2.14140149
O      -0.41301628      2.48763953      4.97017758
H      -0.75606075      1.61948588      4.66650099
H      -0.89375619      3.12881028      4.41755479
O      -1.89243750     -5.17341888     -2.34058296
H      -1.78150257     -4.33731557     -2.83291444
H      -2.67546750     -5.59366317     -2.72633016
O      -1.85044526     -2.10638856      6.12392205
H      -1.69504172     -1.45520952      5.40916800
H      -1.65848193     -1.63048196      6.94768292
O       2.62167115     -2.16660388     -2.56831271
H       2.49122094     -2.72472595     -1.78096062
H       3.14384528     -1.41072384     -2.24288912
O       2.16232609      2.41518680      3.51423915
H       1.34038078      2.55436983      4.02362476
H       2.16566079      3.09371612      2.81187968
O       2.23101808      4.43602646      1.29652739
H       2.13382639      4.33944621      0.32924266
H       3.02675444      4.97523662      1.41966930
O       1.93525585      1.80153561     -3.40324765
H       1.54448195      0.96624678     -3.72459909
H       2.53690588      2.08424549     -4.11023302
O      -4.16270454      2.21407788      2.02236922
H      -3.20750682      2.23640930      2.22973141
H      -4.58470677      2.76552286      2.69775391
O       2.21120706     -3.67616934     -0.07917184
H       1.52680077     -4.35747678     -0.20947160
H       2.89831417     -4.11467386      0.44504867
O      -3.03256917      1.20185292     -2.21864488
H      -3.44166807      2.06070611     -2.40683487
H      -2.57614018      0.94393705     -3.04194400
O      -0.60199066      4.87953779      1.99673795
H      -0.88031363      3.95466515      2.16176327
H       0.34848609      4.80755110      1.78127829
O      -1.58001093     -2.62944442     -3.77126658
H      -2.27418316     -1.95462966     -3.80964235
H      -0.75525007     -2.15136547     -3.97951998
O      -4.02257848     -0.10477415      0.21262075
H      -3.71245120      0.30816286     -0.61761301
H      -4.14337828      0.64254153      0.82947723
O       1.62251597     -0.42336603      3.41662239
H       1.91339857      0.50276853      3.50625426
H       0.70128647     -0.41631066      3.74002974
O      -1.65592220      0.43121421     -4.65871594
H      -0.77204167      0.01999151     -4.60587311
H      -1.77361125      0.68227764     -5.58681748
O       2.23234862     -0.80483741      0.61767050
H       2.20939917     -1.76870436      0.45941894
H       2.07252469     -0.69381501      1.57113780
O       0.91660283     -0.92901463     -4.46286332
H       1.26095203     -1.22470151     -5.31975115
H       1.48242220     -1.38352174     -3.81170285
