95
charge=0
O       2.47047185      0.59311269      2.46435906
O       0.76590934     -4.70700006      2.55423422
O       3.65852757      0.49332870     -2.34187720
N      -0.91801833     -4.11295389      1.17796100
N      -0.92222623     -1.82907744      0.46169023
O       2.08289238      2.08171606     -2.65066055
O      -1.82563275      3.93064139      2.57367874
O       0.06598587      1.98342351      1.89453983
S       1.82927345     -1.91679794      3.10516712
S       0.83347681      3.11549474     -0.34313345
C       1.68743250     -0.31780154      2.33595057
C       0.05264748     -3.84056440      2.09410590
C       2.69891226      1.10841587     -1.93731035
C      -1.43686172     -3.09783291      0.50841140
C      -0.17559634     -1.51016068      1.46334953
N      -2.48569875     -3.34384291     -0.32685652
N       0.54112172     -0.31291934      1.55328181
C       0.19432625     -2.42307084      2.56706488
C      -1.33063374      3.83166373      1.26082848
C       0.07747860      3.26614551      1.27883030
C       2.15920328      0.76675645     -0.57366416
C       0.05059521      0.92283254      0.92589572
C       0.77015067      1.33524733     -0.37242463
H       2.56624651      2.21109950     -3.49405667
H      -2.69235827      4.40698475      2.60229538
H      -2.85050314     -2.62955379     -0.94697684
H      -2.91385032     -4.25579577     -0.45475205
H      -0.48736483     -2.26773682      3.41284402
H      -1.98211493      3.15251620      0.69711578
H      -1.35369957      4.81712553      0.77599494
H       0.72545525      3.89033094      1.91148505
H       2.83169833      1.14649101      0.20210830
H       2.14264849     -0.32131466     -0.45917362
H      -1.01024834      0.74100044      0.69329511
H       0.15832945      1.05168115     -1.23960586
O      -1.56799165     -7.02128365      0.83577982
H      -1.35116129     -6.06542684      0.94659664
H      -0.88444150     -7.45283313      1.37242725
O      -5.47180976     -0.93456471     -0.24448261
H      -4.79804698     -1.04615154     -0.94603875
H      -5.09284231     -0.27192755      0.36418281
O      -2.33312796      1.29057167     -0.95268723
H      -1.87550742      1.77148347     -1.66612188
H      -2.69794958      0.50145513     -1.39354374
O      -4.01898657      1.09406466      1.36738407
H      -3.42164816      1.10691894      0.59021030
H      -3.41973836      0.98439808      2.12698361
O      -3.32028381     -1.20892849     -2.32019405
H      -2.36612868     -1.14068553     -2.51789904
H      -3.74936356     -1.38421559     -3.16989256
O      -1.85186108      0.98215063      3.37300332
H      -1.72782199      1.94290453      3.21771449
H      -1.07829172      0.57161186      2.92609537
O       2.84149845      3.41192175      2.48764857
H       2.94507480      3.63540361      3.42466182
H       2.67923415      2.44847591      2.47982572
O      -4.40099024      5.34102254      2.63847393
H      -4.51597413      6.29657151      2.53360263
H      -5.05685605      5.07345169      3.29860446
O       2.10156873     -1.80390786     -3.17095881
H       2.69823352     -1.06444957     -2.94450533
H       2.65231442     -2.44202196     -3.64573287
O       5.98677237      2.06909221     -1.49245231
H       5.60405658      2.73267002     -0.88739685
H       5.22074901      1.51804259     -1.75419844
O      -0.48687382     -0.84868578     -2.34036646
H      -0.56505082     -1.18174636     -1.41797428
H       0.35906475     -1.20045645     -2.66845141
O      -3.69305663     -5.96326540     -0.76022327
H      -4.39725860     -6.60795784     -0.91976333
H      -3.01667929     -6.44250086     -0.24732720
O       0.64720116     -7.61937198      2.57379798
H       1.14906504     -7.91395799      3.34849257
H       0.71253428     -6.64092500      2.57320526
O       5.69059349      0.83368770     -4.38354335
H       6.50303655      1.06388102     -3.91023075
H       5.04022707      0.63271626     -3.67816094
O       4.64495537      3.95898203      0.27969586
H       4.03755383      3.76625947      1.01815228
H       4.94894010      4.86747713      0.42834305
O       2.47513254     -4.38774392      4.81877472
H       3.28156078     -4.88845224      4.61449036
H       1.88440637     -4.51379728      4.04859339
O       3.42665588      2.48609520     -5.13408156
H       4.22941228      1.95391941     -4.98940324
H       3.58000087      2.95410908     -5.96693381
O      -2.05969791      4.83997514     -1.39370164
H      -1.70437106      4.13812856     -1.97396441
H      -2.88669769      4.48996044     -1.00848989
O      -0.83054755      2.66873908     -3.05106210
H       0.12945804      2.50917484     -2.96854719
H      -0.99165741      2.74528217     -4.00230872
O      -4.34843907      3.79268991      0.13521124
H      -4.39446212      2.88095121      0.47438919
H      -4.44453314      4.35018571      0.93171059
