96
charge=1
N      -1.03648429     -0.05645340      0.38714692
N      -1.27365219      2.20398885     -1.37746460
C       0.81340697     -0.01614905     -3.31566501
C       0.32161808     -1.10858263     -1.20026453
C       0.24977344      1.11654120     -2.90349419
C      -0.36887059      0.00948419     -0.74705540
C       0.98200077     -1.14465264     -2.42658398
C      -3.34221667      2.12778185      2.19320568
C      -3.58866511      3.15618964      1.22431818
C      -2.45968784      1.09118042      1.87483362
C      -2.91499297      3.13079819      0.04505599
C      -1.77276203      1.04428203      0.67701421
C      -1.95915889      2.12050366     -0.26489717
N      -3.93669013      2.15357034      3.40916283
N       1.75063001     -2.21669525     -2.77860272
C      -0.18170703      1.32278449     -1.47946734
C      -4.55555475      4.23982041      1.52909615
C       2.51105716     -2.26704906     -4.02733939
C       1.94579923     -3.35985545     -1.88619730
H       1.10949767     -0.11900277     -4.34473584
H       0.33560723     -1.97133049     -0.56452594
H       0.08447279      1.92513802     -3.59423173
H      -2.30403596      0.30390168      2.58761021
H      -3.08126634      3.90684410     -0.68099137
H      -4.40557877      2.97671956      3.77880269
H      -3.64888631      1.51990894      4.15076132
H       0.64893237      1.82671826     -0.95586342
H      -4.74175029      4.86297122      0.65479517
H      -4.17919269      4.88149344      2.32597363
H      -5.51031943      3.82684947      1.85510591
H       3.37591900     -2.91681638     -3.92445485
H       2.87245634     -1.27760446     -4.29625287
H       1.88056550     -2.65199830     -4.82525937
H       2.47080246     -4.16454922     -2.39367347
H       2.53047848     -3.05796614     -1.02018237
H       0.98458213     -3.74367585     -1.55507172
O       1.69921200     -0.20563923     -6.30997383
H       2.21939255      0.40885554     -6.85043138
H       1.20198897     -0.75473672     -6.94626186
O       2.08462831     -3.64072858     -6.75861119
H       2.78322918     -3.85510732     -7.39569356
H       1.45188236     -3.08377748     -7.24949034
O       0.53432438      1.82591626      2.93046090
H       1.05264628      2.47366078      2.41501749
H       0.87160049      0.95599312      2.64590651
O       4.20620257     -0.00819014     -2.11456102
H       3.63611413      0.36668071     -1.41860543
H       4.53521714      0.75850144     -2.60822981
O      -0.07730122     -2.86842516      1.32331050
H       0.02493601     -3.72478869      0.86900312
H      -1.03389976     -2.73599588      1.40262641
O       0.22190085     -1.90237209     -8.23584528
H      -0.71125760     -2.06313322     -8.03270492
H       0.25695875     -1.79174256     -9.19712301
O       0.22447925     -5.33313177     -0.10356183
H       0.09584466     -5.69187503     -0.99983331
H       0.40052895     -6.11170651      0.44617488
O       2.55993874      1.16016009     -0.06267524
H       2.27383522      0.50988659      0.60692122
H       2.47061281      2.02452145      0.38128180
O       2.00376545     -5.56693108     -4.56787284
H       2.90614523     -5.47961605     -4.20700852
H       1.98932791     -4.96628619     -5.33595476
O       1.69210278     -0.71187757      2.01782744
H       2.30072896     -1.12982215      2.64576256
H       1.06620196     -1.41734351      1.77394109
O       4.62365070     -5.08316579     -3.43344178
H       4.88897197     -4.28406085     -2.94025833
H       5.39232280     -5.67147510     -3.40129537
O      -4.30325199      0.42443752      8.08544503
H      -3.95967496      0.83790508      8.89115891
H      -5.19880979      0.12974358      8.30721532
O      -2.55872009      5.11402731      5.76247268
H      -2.06033178      4.30295988      5.54825272
H      -1.97381899      5.62639832      6.33975448
O      -0.03854787     -6.38758461     -2.74348875
H      -0.56096550     -7.05855698     -3.20663179
H       0.65233784     -6.12318100     -3.37816517
O      -4.15286517      5.65548057     -1.31211222
H      -3.80335020      6.55664299     -1.38474011
H      -4.74432872      5.54372362     -2.07191797
O       2.16408233      3.71657249      1.32985551
H       2.89232280      4.13269909      1.81419435
H       1.67073859      4.44763072      0.92932099
O      -2.92289267      0.34579475      5.56071157
H      -3.40169385      0.39734299      6.40862365
H      -2.59499381     -0.56544640      5.51877974
O      -5.12164769      4.64533416      4.54118744
H      -4.27720989      4.86015168      4.98239327
H      -5.80129947      5.10921645      5.05208542
O       5.30595209     -2.67451919     -1.99877318
H       6.09495830     -2.56911149     -1.44585157
H       4.91557948     -1.78267685     -2.05028785
O      -1.16942747      2.68772552      5.10224974
H      -1.71448457      1.89909163      5.28928920
H      -0.57511244      2.41466626      4.37951855
