68
charge=0
Cl     -3.49678494     -1.87303726     -1.20303406
Cl     -0.39078122      0.67930037      2.79699540
N      -2.93122916      0.51332701     -0.26969677
N      -0.19592416     -0.58200445      0.50745175
S      -0.70698106     -0.74471254     -1.08930059
S      -1.75564534      1.59884181      0.28310861
C      -2.44926179     -0.55032277     -0.78153430
C      -0.71402701      0.41462003      1.11273471
O       1.04435166      2.70383401     -1.30185863
H       1.91470506      2.27181579     -1.21390648
H       0.86128726      3.04253474     -0.40549709
O       2.25921559     -1.91852065      1.40315023
H       2.52691864     -1.51916924      2.25021619
H       1.42548862     -1.45133308      1.15995694
O       3.61040088      1.36694153      2.09245860
H       3.44003716      0.61642196      2.69052398
H       3.28719714      2.13956277      2.59333629
O      -1.09799160     -4.68937179     -0.02405021
H      -1.05387386     -4.27558846     -0.90576333
H      -1.65947054     -5.47073023     -0.14510826
O      -0.47985816      1.50792461     -3.43910284
H       0.05532041      1.94447962     -2.75177908
H      -1.27055627      2.06952401     -3.56104826
O       2.43617546      3.49399027      3.77788085
H       2.03533450      2.85596421      4.40073109
H       2.87498853      4.15696197      4.32903183
O      -0.99850427     -3.50159760     -2.66698903
H      -0.06488332     -3.48306744     -2.94815850
H      -1.37450629     -2.69854798     -3.07422983
O      -3.06071263      2.86177127     -3.89053968
H      -3.58074304      2.03892187     -3.97248446
H      -3.16086520      3.31495172     -4.74033515
O       1.67357624     -3.26188972      4.81978721
H       1.30742772     -3.63536417      3.99683567
H       1.73505817     -4.01235508      5.42889484
O       0.58851094      3.45277722      1.49335939
H       0.17136308      2.62555525      1.79257977
H       1.25059146      3.62497163      2.18708200
O       1.77369230     -3.18873652     -3.41843413
H       2.03487914     -2.50947924     -2.76762781
H       2.51981691     -3.25485171     -4.03338166
O       2.48830891     -1.21099903     -1.46322635
H       2.85512818     -0.31613379     -1.34520809
H       2.46884551     -1.56994411     -0.55722792
O       0.68238013     -4.24457591      2.24850458
H       1.24309676     -3.53156761      1.88360139
H       0.06307628     -4.44743444      1.52416446
O      -1.92148516     -0.96612687     -3.77915160
H      -1.34007390     -0.18492402     -3.73008136
H      -2.81712529     -0.58905219     -3.88129915
O      -5.64318153      1.13536234     -1.35031523
H      -5.87058679      2.00384176     -0.98893461
H      -4.76599973      0.92825665     -0.95896428
O       3.61119478      1.40373414     -0.78453829
H       3.64319972      1.38818670      0.19132336
H       4.49769699      1.67508094     -1.06430950
O       1.12868452      1.40545021      5.43859405
H       0.48801245      1.16932944      4.74466104
H       0.68467258      1.22760024      6.27965379
O      -4.60769241      0.36700114     -3.96470379
H      -5.02224901      0.57121866     -3.10482461
H      -5.26520535     -0.15567799     -4.44587188
O      -3.48667655      3.49461791     -1.05687298
H      -2.98446838      4.30637264     -0.88353811
H      -3.33552601      3.29369849     -2.00059028
O       2.79363605     -0.70452151      4.03576478
H       2.48620394     -1.56566451      4.37646843
H       2.31459234     -0.04313838      4.57223408
