64
charge=-3
O      -1.71047406     -0.24550096     -0.30578507
O       1.20027025     -0.71020030     -0.24437867
O       0.17285035      2.05877619     -0.40943333
P      -0.12119563      0.34047756     -0.69883718
O      -2.01964766      1.72264735      1.76503020
H      -1.65045081      1.12493360      1.09130440
H      -1.92707374      2.58212996      1.31559267
O      -1.68684493      4.15009854     -0.08032249
H      -2.34217453      3.63232853     -0.58605273
H      -0.92620643      3.54528006     -0.14999575
O       1.21430637     -2.08653031      2.15199726
H       2.10870749     -1.75803102      2.35855071
H       0.98857171     -1.54468799      1.37556777
O       3.66858977     -0.41843037      1.53937247
H       3.58119074     -0.92339193      0.70971286
H       2.84055865      0.09699737      1.56841996
O       1.18864970      1.06899471      1.80070261
H       1.03857992      2.01987494      1.66223554
H       0.78173923      0.73701716      0.94432819
O       0.72492361     -0.20047809      4.25554001
H       0.56517441     -1.10542686      3.93457172
H       0.89845606      0.27760245      3.42346624
O      -1.76833302     -0.93172673     -3.11531388
H      -0.80839711     -0.94959117     -3.29956403
H      -1.76717861     -0.63423147     -2.18659172
O      -2.19617173      1.58566373     -4.52441516
H      -2.13284337      0.69818564     -4.12179144
H      -1.43116345      2.04740815     -4.12972629
O       5.01558434      1.72160280     -0.02892846
H       4.25865045      1.80501293     -0.63765409
H       4.69080360      1.03632722      0.58469466
O       1.24960903     -0.65945397     -3.04919487
H       0.82531974     -0.32675668     -2.19789404
H       1.94004555     -1.25182664     -2.69903502
O      -0.60426917     -2.71634129     -1.04698837
H      -0.35671816     -1.79804737     -0.78407468
H      -1.32519198     -2.55408548     -1.68003236
O       3.40021065     -2.02950834     -1.20459379
H       2.67126705     -1.44336661     -0.93264613
H       3.03882783     -2.89506950     -0.93183950
O       2.67762741      1.69280921     -1.68389050
H       2.51033141      0.90393753     -2.23218935
H       1.86581206      1.70299978     -1.15057662
O       0.06253930      2.72854190     -3.16039533
H       1.02551417      2.80171426     -3.26619570
H      -0.01549237      2.33261666     -2.27445959
O      -3.02664568      2.02873761     -1.54114425
H      -2.42601570      1.38597237     -1.11989366
H      -2.81730778      1.94175411     -2.49298642
O      -1.43285606      1.78639661      4.58906824
H      -1.68394234      1.81964580      3.64717086
H      -0.71116626      1.12901121      4.58310957
O      -3.44026663     -1.98856227      1.10001247
H      -2.90337785     -1.35813865      0.58518071
H      -2.76597749     -2.63984798      1.37266522
O      -1.09381546     -3.78700409      1.58850716
H      -0.37955281     -3.24951629      1.97808126
H      -1.03473475     -3.51063754      0.65344133
O      -4.46779141      0.34460103      2.52571749
H      -4.23450812     -0.49006917      2.07784290
H      -3.69538144      0.89879426      2.30814465
O       1.67231001     -4.14372143     -0.04042713
H       1.67720066     -3.59201913      0.76495482
H       0.93017374     -3.73952117     -0.52656263
