75
charge=0
O      -0.06800183      2.53593554      3.06694424
O      -1.65060098      2.19054921     -1.17127474
I       2.00563343     -2.96120160      2.18559619
I       1.32020617     -3.04380400     -1.24001425
I       1.78879740      0.02780814      3.86962296
I      -0.33217352     -0.35818830     -2.68963560
O      -1.04342080      2.74075730      0.98357830
C      -0.31641032      2.11184219      1.96124909
C      -1.06183001      1.95792697     -0.14161272
C       1.21815371     -1.30365474      1.22764278
C       0.82189848     -1.37288590     -0.10678694
C       0.95240957     -0.18156947      1.99005420
C       0.10152511     -0.34011418     -0.67680445
C       0.17627429      0.82586321      1.43297949
C      -0.25867322      0.74245696      0.11444399
O      -1.51668203      0.80108662      4.94380081
H      -1.41147049     -0.10398315      4.58634417
H      -1.04498077      1.39376737      4.32430359
O      -0.82555172     -3.29019992     -6.02032241
H      -1.17842759     -3.66880309     -6.83930997
H       0.11187178     -3.53544842     -6.00720255
O      -2.46743326     -2.42654094     -0.68598013
H      -2.89897585     -1.56326462     -0.82291673
H      -2.38438088     -2.80143979     -1.58410145
O      -1.24918342     -2.09193717      4.02184304
H      -2.06677739     -2.30419744      4.50028227
H      -0.54110805     -2.55919546      4.50769986
O       4.23731330     -1.00823788      0.44099570
H       3.80143201     -0.15811247      0.24304563
H       5.18491860     -0.83529148      0.32243088
O       0.34669738     -6.11433507      1.99204336
H      -0.20490098     -5.32569762      1.83203650
H      -0.16816155     -6.85488804      1.63841068
O      -1.01703570      5.24783235      3.26277101
H      -0.71564452      4.31839396      3.21374414
H      -1.85087093      5.21324969      3.75465414
O       2.12998071      3.80881275      1.44851541
H       1.50854352      3.39325803      2.07716378
H       1.66178777      4.61976672      1.17887236
O      -1.25296688     -3.76540912      1.54837261
H      -1.69159283     -3.30447984      0.81122258
H      -1.30851970     -3.15716180      2.30995795
O      -3.67661748      0.15910737     -1.23890256
H      -3.00394044      0.86723974     -1.23153249
H      -4.52114263      0.61804482     -1.11908460
O      -1.11821873      5.12005121     -1.40263807
H      -1.30960155      4.18670100     -1.18462506
H      -0.61334334      5.45778229     -0.63939497
O      -0.92712935     -0.33726865     -5.82874916
H      -0.90707569     -1.31197872     -5.89033931
H      -1.83762733     -0.07781924     -6.04048198
O      -2.21794229     -3.48952403     -3.41748724
H      -1.74985544     -3.40387635     -4.26991315
H      -3.01529108     -4.00629480     -3.61337727
O      -1.25773583      3.48858443     -3.72874459
H      -1.23905222      4.41714780     -3.44438102
H      -1.41793588      3.00151125     -2.89636863
O       0.85863195     -3.55189203      5.41563136
H       1.37679272     -4.24552633      4.96560673
H       1.13386052     -3.59148645      6.34351819
O       0.40463311      6.15156284      0.91872975
H      -0.11303652      5.89133391      1.70503244
H       0.53192957      7.10859440      1.00257084
O       0.77409463      1.92529525     -5.02313240
H       0.26383058      1.16148722     -5.35331760
H       0.09456281      2.51256804     -4.64051622
O       2.77438026      2.28244953     -2.95274220
H       3.25759409      3.07255823     -3.24069882
H       2.10848088      2.13257921     -3.64824692
O       3.02574489      1.51536662     -0.15509975
H       2.75573321      2.29522184      0.36402369
H       2.93171093      1.78331282     -1.08853135
O       2.39602164     -5.61981110      3.99093118
H       1.72658717     -5.83210964      3.31092014
H       3.05545846     -6.32704654      3.93251944
