91
charge=0
C      -0.88711672      2.36714786     -1.59104332
C      -2.16121531     -3.97512980     -3.12119853
C      -2.00950197      2.22764193      0.62463861
C      -2.74650738      1.28712980      1.24438579
C      -2.03152505     -0.50778066     -1.91047010
C      -1.60928116      1.71607455     -0.66807308
C      -2.14767326      0.35658792     -0.76123114
C      -2.85308570      0.11635744      0.40668106
C      -2.06975669     -2.64304204     -3.11273036
C      -3.67186668     -1.06554156      0.70380982
C      -3.32354528     -2.27803799      0.25740755
C      -2.07730566     -1.86180085     -1.87057343
C      -1.96666886     -1.92712195     -4.41969347
C      -4.92371561     -0.90722492      1.49818051
C      -2.08132121     -2.52613059     -0.52089658
H      -0.64163212      1.91357239     -2.52839735
H      -0.54281533      3.36353276     -1.41188355
H      -2.24433104     -4.55730040     -2.22767641
H      -2.16398964     -4.52123048     -4.04358208
H      -1.78928443      3.21194263      0.99892188
H      -3.19282770      1.38809410      2.21868907
H      -1.89624670     -0.02231627     -2.86025944
H      -3.97325772     -3.11069896      0.47022777
H      -1.96848002     -2.62404487     -5.25916910
H      -1.04356243     -1.34851958     -4.47936775
H      -2.80752201     -1.24624692     -4.55988497
H      -5.17482281      0.14516536      1.63708285
H      -4.82530071     -1.36358349      2.48436736
H      -5.76640455     -1.38082836      0.99219384
H      -1.89055133     -3.59990067     -0.60533141
H      -1.22909354     -2.14268686      0.05288062
O       2.98216604      2.02440308      1.04275440
H       3.94055870      1.99292451      1.18072967
H       2.66412648      2.70245987      1.66575903
O      -2.10239379      5.29226102      2.10092416
H      -2.85647596      4.79360341      2.47034465
H      -2.48581645      6.12409443      1.78584269
O       0.69572806     -1.48870414      3.03958816
H       1.54546577     -1.49840463      3.50388587
H       0.83192091     -0.93848234      2.24419082
O       0.31547219      1.15628498     -4.49476983
H       0.77137358      0.93937995     -5.32327145
H       0.76180949      0.62701555     -3.80545349
O       1.60009182     -0.40647317     -2.37468128
H       1.38623434     -0.31077620     -1.42494098
H       1.51331845     -1.36124498     -2.54162100
O       0.45336554      5.01375982      0.63200212
H       1.04267998      4.69639300      1.34306003
H      -0.41076736      5.14027348      1.06778262
O       1.21096680     -2.90419735      0.27018285
H       0.92086718     -3.28469868      1.11110339
H       1.14570162     -1.93596606      0.38411238
O       2.74589557      2.30946381     -1.88660989
H       2.42246746      1.43049079     -2.15940032
H       2.86244666      2.24370272     -0.91764419
O       1.23456181      4.81306368     -2.17718602
H       1.80171574      4.01755381     -2.13349777
H       0.97316432      4.97537430     -1.25044425
O       1.09338730     -3.30883715     -2.54627365
H       0.13760336     -3.30389743     -2.71398027
H       1.17105511     -3.27875931     -1.57398343
O       0.97254927      0.02563591      0.54744412
H       1.63173579      0.72390349      0.71684311
H       0.14839635      0.48824392      0.33238433
O      -0.35705048      4.06003900     -4.54163154
H      -0.16786858      3.10040078     -4.56378165
H       0.15993255      4.39455835     -3.78330467
O      -2.07192020     -0.87924586      3.62720300
H      -2.48927433     -1.00359445      2.76062033
H      -1.14218889     -1.13785953      3.49168054
O       0.19396887     -7.56625682     -2.10797901
H       0.43162995     -8.47424203     -2.34977674
H       0.82264693     -7.00133077     -2.59470124
O      -2.68665346      1.64975379      4.84755076
H      -2.83117978      1.46005584      5.78635011
H      -2.48936023      0.78369211      4.44600618
O       2.04407189     -5.85621074     -3.54481345
H       1.76136590     -4.97809424     -3.22647651
H       2.79078488     -5.68519866     -4.13765781
O       2.05707763      3.96317378      2.93399106
H       1.19322362      3.77444751      3.34560568
H       2.49493887      4.58025013      3.53785526
O      -4.14646356      3.69436240      3.34368911
H      -3.69639408      3.00321443      3.86638424
H      -5.07208046      3.41532250      3.28788868
O      -1.73086142     -5.98917007     -0.60376534
H      -2.21536156     -6.63460823     -0.06448109
H      -1.07747506     -6.51352140     -1.10568087
O      -0.56768839      3.51781722      3.93489986
H      -1.23383566      2.88960562      4.26832620
H      -1.07016940      4.13081899      3.36485387
