90
charge=0
N       2.87414397     -1.15189795      5.29878353
N       0.05409060      3.14125426     -2.56464675
S      -0.64842378     -2.51850679      4.70984556
C       2.20418785     -1.39996129      4.38203729
C      -0.03070722      2.38498798     -1.68453453
O       1.51883185     -2.26061282      0.89420921
C       0.01456705     -1.85161386      3.34366852
C       1.43893775     -1.66936708      3.23967617
C       2.08333150     -1.73490155      1.99891628
C       0.35347610      1.62025444      0.59933625
C      -0.92901142      0.29705312     -0.92680643
C       0.15462744      0.68045997      1.58114238
C      -1.12551676     -0.64010335      0.05239457
C      -0.18695445      1.43993921     -0.66784108
C      -0.58375323     -0.46949234      1.31944382
N      -0.81941497     -1.45017196      2.32030298
C       4.36380016     -1.89040885      0.76010246
C       3.82632826     -0.50617804      0.52118549
C       3.48722556     -1.23198142      1.81765904
H       0.71280630     -2.79189927      1.12619132
H       0.91675138      2.51395302      0.80566522
H      -1.35723210      0.16153067     -1.90450031
H       0.53915394      0.84155108      2.57341731
H      -1.68392931     -1.53285272     -0.15712264
H      -1.76342149     -1.84758284      2.29222353
H       5.43295956     -2.01035391      0.94898589
H       3.93688712     -2.71408988      0.18444134
H       4.51469472      0.34093769      0.55842052
H       3.02233753     -0.37574357     -0.20525608
H       3.96751764     -0.88413668      2.73820577
O       3.06554561     -1.24138533     -2.86329138
H       2.18952376     -1.59730619     -2.62126529
H       2.95435146     -0.27344618     -2.90558408
O      -0.75904698     -5.76455156      3.68120240
H      -0.55803567     -4.92767825      4.13574927
H      -0.15115776     -6.42006372      4.04939868
O      -1.48351349      4.76238787     -0.39021522
H      -1.01039994      4.38625641     -1.15334003
H      -2.23793821      4.15957620     -0.24529332
O       3.68587904      2.12645102      2.33112254
H       2.82256854      2.40617480      2.68922517
H       4.14683302      1.73771539      3.09626892
O       4.88269495      0.87132678      4.65889426
H       5.49515245      0.93068032      5.40678897
H       4.22395992      0.20013685      4.91883852
O       1.11310417      2.89328738      3.40181280
H       0.81537405      2.94359674      4.32248853
H       0.71460612      3.66777309      2.96293399
O      -2.04235313      1.45099351     -4.09746339
H      -1.96176821      1.93346063     -4.93533522
H      -1.41443257      1.91477485     -3.51543612
O       2.74905500      1.65369590     -2.80700069
H       1.91934939      2.15278592     -2.85310270
H       3.21952639      2.03504744     -2.04070268
O      -3.65107441      2.88272931      0.09086392
H      -3.79603496      1.92399044     -0.00887877
H      -4.48647186      3.22445277      0.44563509
O       5.30188594     -2.77224966     -1.90543386
H       5.79040485     -3.05587620     -2.69414737
H       4.54963989     -2.25239664     -2.24705784
O       4.02278034      2.76313215     -0.43976261
H       4.62398307      3.52299579     -0.46485579
H       3.90129356      2.56672443      0.50762054
O      -3.59758704     -0.70600771     -3.05263986
H      -3.06208241      0.01672812     -3.42730877
H      -4.38187903     -0.74447199     -3.62032009
O      -0.05313463      5.15423702      2.07312504
H      -0.54668024      5.02204388      1.24347947
H      -0.00168936      6.11590310      2.17884587
O      -0.69969623      3.63673115     -5.36758007
H      -0.39404676      3.54980365     -4.44336099
H      -0.11536522      4.29620668     -5.77082330
O      -0.68707991     -4.11429516      1.21332352
H      -0.73780866     -4.73609036      1.96231998
H      -1.57258859     -3.71673996      1.13598103
O       0.51620653     -2.36724384     -1.90498994
H      -0.42304205     -2.62956958     -1.85559779
H       0.83312440     -2.36676878     -0.98021481
O      -3.41494909     -2.53331033      1.04900518
H      -3.25498359     -2.90437455      0.15784334
H      -3.55249545     -3.27408201      1.66624011
O      -2.49192150     -3.03970479     -1.71752008
H      -2.86418150     -2.27664274     -2.20157245
H      -2.59140095     -3.79621728     -2.31466074
O      -4.15778940      0.04710284     -0.21934475
H      -4.01155988     -0.19344887     -1.15566256
H      -3.96563842     -0.76648230      0.28217720
O      -3.20128075     -4.51059478      3.10008439
H      -2.87973369     -5.41390285      3.25408762
H      -2.63628798     -3.95069835      3.66076471
