94
charge=0
N      -2.55964933      0.16525832      1.88165330
O       2.83911929     -0.82415824     -6.47804118
O       4.58885489     -0.78894968     -5.18152625
C      -1.54694608     -0.08591668      1.35993216
N       1.22648746      0.08554415     -4.40984052
N       0.70446674      0.14682593     -3.27043747
N       2.83651695     -0.39664976     -2.99304197
N      -2.07044860      2.84662893     -1.93483700
O       1.96492736     -1.10137661      1.18774564
C       2.53047489     -0.25610728     -4.25975766
C       2.27392225     -0.81572540     -0.14236449
C       1.37989136     -0.29943068     -1.01025927
C       0.65738729     -0.95935424      1.61251132
C      -1.35595488      3.86502390     -1.49254912
C      -1.61372905      1.64987352     -1.62528212
C      -0.19645457      3.73625165     -0.76759206
C       0.27562227      2.48168327     -0.47973268
C      -0.44977812      1.40045710     -0.92273907
C      -0.30690533     -0.36003123      0.82983497
N       1.68669750     -0.12479637     -2.40617515
N       3.37599111     -0.64310680     -5.37643405
N       0.31331280     -1.46207000      2.85965761
C       3.65039037     -1.12965876     -0.57890643
C      -0.03090924     -0.01470314     -0.60420805
H      -1.73246678      4.85052921     -1.72614547
H      -2.21363711      0.81087759     -1.94592644
H       0.32943116      4.60633726     -0.41207867
H       1.18450321      2.33713408      0.08159150
H      -0.63973332     -1.80560512      2.95427216
H       0.92255704     -2.17943452      3.24468977
H       4.18655438     -0.21529655     -0.84228995
H       3.63821428     -1.78977079     -1.44700579
H       4.19030449     -1.63655823      0.21879169
H      -0.65652664     -0.68571661     -1.21268150
O      -1.70975238     -0.82408810     -4.74640011
H      -1.34124839     -1.12567356     -5.59315464
H      -0.91014480     -0.43931604     -4.32124674
O      -0.04741675     -1.49993249     -7.01415654
H       0.88618107     -1.27069632     -6.84213484
H      -0.06071466     -1.84089009     -7.92082623
O       3.61643207     -3.65623528      1.57027205
H       3.14022745     -3.61953290      2.42383238
H       2.91592605     -3.79345580      0.90602456
O       1.48274779     -4.01798015     -0.37017523
H       1.41433454     -4.67913527     -1.07592568
H       0.56550966     -3.73195937     -0.20362424
O       1.81421547      5.06773284      0.98201079
H       2.49807842      5.75117388      0.92583512
H       2.29465208      4.21855840      1.01339423
O      -4.35357402     -0.16316911     -3.64966450
H      -4.48105923      0.80119918     -3.71633567
H      -3.53294737     -0.34906676     -4.14692071
O      -2.54287415     -1.43667604     -1.93540365
H      -3.49754166     -1.27085236     -1.99716358
H      -2.24123675     -1.36326611     -2.85962680
O       3.02494444      2.47471132      1.19558403
H       3.83095211      1.95486445      1.02935312
H       2.85747149      2.39221666      2.15501093
O      -2.45896807     -2.60374381      2.74396232
H      -2.81666386     -1.71788066      2.55170187
H      -3.20019308     -3.10231465      3.13098358
O      -0.40101624      1.50321427      3.51462847
H      -0.16942546      0.56698993      3.32942579
H      -1.35673121      1.53868467      3.34396636
O      -5.33316998      5.51870850     -4.12064737
H      -5.25209049      5.97422590     -4.97235389
H      -6.07187560      5.94633472     -3.66142400
O       2.29719888      2.44130397      4.07213687
H       2.26309419      3.25470595      4.59334736
H       1.36366360      2.18048668      3.94624971
O      -1.25310281     -3.19275456      0.05230778
H      -1.74194047     -2.64726143     -0.59329962
H      -1.68520683     -3.04143747      0.91431325
O       2.33651573     -3.27568377      4.21987241
H       2.74435740     -2.42110669      4.45303375
H       2.52163507     -3.86835497      4.96244574
O      -4.67149311     -4.06577895      3.85803850
H      -4.68634247     -5.03427383      3.88550408
H      -5.54332841     -3.78032680      4.16983395
O       5.13838324     -1.35806509      2.50817854
H       4.45751471     -1.00005189      3.11024125
H       4.75317829     -2.19707873      2.19731913
O       2.92493127     -0.35594884      4.13301706
H       2.83636128      0.61018904      4.19005054
H       2.10598729     -0.64132580      3.67378165
O       5.42144673      0.88978318      0.75754641
H       6.36313070      1.04209252      0.59257776
H       5.38767283      0.13350762      1.37209169
O      -4.49600977      2.75540288     -3.70451784
H      -3.70247551      2.81883027     -3.12282747
H      -4.78545372      3.67477383     -3.84926908
O       0.01456501      4.50826207      3.30545015
H      -0.16196954      3.54591767      3.30536883
H       0.56835235      4.69280101      2.52131397
