100
charge=0
C       2.59711272     -1.37054712      4.23145015
C      -0.40420633      0.17347441      0.99973406
C       2.29297304     -0.43561430      3.34103340
C       0.57492716      0.52284842      1.88236809
C      -1.07461631     -3.49330488      0.46927995
C      -0.10412451     -3.96549374      1.36335858
C      -1.25737690     -2.15205416      0.27275124
C       0.69067548     -3.10201208      2.07074891
C      -0.45421143     -1.25237255      0.98848101
C       0.52442468     -1.72291996      1.89061068
N       1.17719360     -0.60003037      2.44228657
N       0.64906936      2.78641143      0.94452314
C      -1.16715426      1.18329262      0.20702635
C      -0.79676819      2.62148476      0.61446065
C       1.11948929      4.19549618      1.14611521
C       2.63605838      4.26368767      1.36407290
C       3.04533158      0.87236109      3.33440865
C       3.08045975      3.33929693      2.51241695
C       2.59026522      1.89914959      2.25981321
C       1.05582410      1.91154537      2.08903449
H       3.40120064     -1.23080173      4.92555491
H       2.02472858     -2.26989387      4.31733188
H      -1.67369522     -4.19687395     -0.08446522
H       0.02108681     -5.02836161      1.49074520
H      -2.00824080     -1.77789566     -0.40022550
H       1.44141652     -3.47631636      2.74192886
H      -0.96894867      1.02501578     -0.85867844
H      -2.24015108      1.00982275      0.34565296
H      -1.37240978      2.92656559      1.49304979
H      -1.05206805      3.33112263     -0.17945841
H       0.81499989      4.78955338      0.27779635
H       0.58886181      4.61067792      2.00793305
H       3.14604587      3.96571307      0.44000281
H       2.95227824      5.29852030      1.55408217
H       2.94341406      1.33672068      4.32078263
H       4.11572486      0.66631117      3.21903872
H       2.66387162      3.69659875      3.46080602
H       4.17060251      3.35313170      2.64073972
H       3.00096066      1.58189574      1.29034250
H       0.59597341      2.31954521      2.99799828
O       0.32030761     -4.24702410     -2.24316651
H      -0.22757308     -3.48696428     -2.51436461
H      -0.32229749     -4.96941703     -2.16383032
O       1.50211839      2.14210637     -1.87000891
H       1.23243108      2.32144446     -0.94224740
H       2.42498062      2.44898530     -1.90730769
O      -3.14119330      0.43272005     -3.10133198
H      -2.41088999      1.07399437     -3.19123446
H      -3.80780901      0.72008659     -3.74311581
O       5.28413193      1.03163607     -0.05035302
H       5.72648257      0.43944755      0.58214823
H       4.40703972      0.61257091     -0.16052524
O      -2.49867379     -4.59595627     -2.29997294
H      -3.43664807     -4.68480204     -2.52739262
H      -2.25703045     -3.68141902     -2.54300376
O      -1.48998251     -1.94602389     -2.96652663
H      -2.12853582     -1.21892333     -3.02316828
H      -0.63227311     -1.47949991     -2.96266169
O       4.24706178      3.07822787     -1.79819721
H       4.65723883      2.41867373     -1.20875797
H       4.98862884      3.54994530     -2.20564023
O      -2.02723890      2.17557184      4.13362812
H      -2.02793957      1.20909981      4.01145404
H      -1.27632654      2.32490168      4.73162693
O      -4.16939390     -0.25501871     -0.44062805
H      -3.82571002     -0.07761163     -1.33605245
H      -4.54322879      0.60117032     -0.15661493
O      -0.94946823      2.27959028     -3.42363517
H      -0.13350373      2.22495591     -2.89373669
H      -0.71506027      2.83828088     -4.18010466
O       2.69851227     -0.21711610     -0.26731060
H       2.69973992     -1.10383098     -0.67390430
H       2.15103591     -0.30863417      0.53809341
O       0.09982781      0.71806464      5.22277314
H       0.48207608      0.34937793      4.40105601
H      -0.58262095      0.07376019      5.48006045
O       1.03353436     -0.60261790     -2.81210863
H       1.64831346     -1.23202835     -2.39012286
H       1.25869655      0.27466638     -2.46514574
O      -3.85338860      3.69105808      2.54643483
H      -3.92544509      4.53695349      3.01439396
H      -3.24178181      3.15767468      3.08611214
O       6.15386982     -1.01265993      1.82756905
H       6.75264358     -1.58030385      2.33533139
H       5.34173549     -1.54034111      1.69813322
O      -5.16963705      2.32384111      0.38241821
H      -5.99334592      2.82054392      0.26064715
H      -4.70713557      2.77587835      1.11223982
O      -3.79343042     -1.69020595      2.04118190
H      -4.46265602     -2.39090464      2.03084553
H      -3.91844788     -1.20732371      1.20335101
O      -1.78756949     -0.73840824      3.85992020
H      -2.47784413     -1.09456581      3.27284938
H      -0.96120778     -0.78777281      3.33798159
O       2.67921722     -2.85888166     -1.42973607
H       3.37680008     -3.23836516     -1.98453429
H       1.88488197     -3.38012894     -1.64538995
O       3.67868055     -2.47662408      1.35283380
H       3.37563037     -2.71017919      0.45546853
H       2.94466868     -1.95566973      1.73569871
