82
charge=0
O      -0.96228966      0.71104802      1.95358686
O       2.48793316      4.01748308      1.02923367
O      -1.52454362     -0.15875797     -0.08341412
O      -1.72539521     -1.77444125      1.74668228
C      -0.88756291      0.72058088      0.74276698
C       1.68995625      3.40838223      0.32050979
C      -2.54528739     -2.83307771      1.98353541
C      -2.13227001     -1.21828881      0.57063227
C      -3.46271501     -2.95987042      0.97572684
C      -3.20660544     -1.93729419      0.07262403
C       1.52439090      3.70559266     -1.06676920
C       0.65578116      2.99087508     -1.82140909
C      -0.13580524      1.99310304     -1.24718679
C      -0.03479176      1.72912667      0.08926862
N       0.90088045      2.39265755      0.83179287
H      -2.44188400     -3.48238664      2.84654366
H      -4.20533164     -3.73591704      0.87969055
H      -3.70877228     -1.74488994     -0.85917958
H       2.11064841      4.49557514     -1.50203777
H       0.58010785      3.18040271     -2.88029311
H      -0.79799578      1.39813389     -1.85303074
H       1.10782409      2.05746842      1.77414716
O      -1.28568732      0.04994736     -3.50844358
H      -0.75038561     -0.73820219     -3.29829223
H      -2.20668319     -0.22267834     -3.33786481
O       0.91660533     -1.31396742      2.82042093
H       0.10191584     -0.84618829      2.54358563
H       1.45971381     -0.57373914      3.14066425
O       2.04328223      1.19827352      3.55955449
H       1.29721723      1.70190294      3.93588212
H       2.79978257      1.81001152      3.54689061
O       0.89211622     -1.88084972     -0.05869312
H       0.09565791     -1.31191230     -0.09018661
H       1.10434899     -1.87661584      0.88807047
O       3.19942092      5.98825730     -2.29848795
H       3.78834498      5.39956427     -2.80889739
H       3.64946137      6.14423257     -1.44647162
O      -3.68171373     -5.79092295     -1.82685715
H      -3.27433897     -6.50351712     -2.34163752
H      -3.28319669     -4.96964474     -2.17000389
O      -0.50317079      2.53994066      4.12186512
H      -1.23770250      2.48682266      4.74980007
H      -0.73542297      1.92217497      3.39763705
O       2.91543952      2.32873411     -5.21188290
H       3.04207894      1.82298406     -6.02958613
H       1.95316983      2.31899021     -5.05225867
O       0.94657224      5.01042958      3.35573556
H       0.44089579      4.22766950      3.65172955
H       1.45204555      4.70132093      2.57577453
O       0.24694175     -2.36689182     -2.81436952
H       1.00698585     -2.77506910     -3.25273433
H       0.52545063     -2.25065221     -1.88836593
O       4.14722730      3.13727352      3.22474763
H       4.90537936      3.73592950      3.29111185
H       3.62265711      3.46029114      2.46274877
O      -4.97534915     -4.88203833      3.47763566
H      -4.03552246     -4.99584943      3.72172095
H      -5.04390740     -5.15439311      2.54081934
O      -5.18251097     -5.58279254      0.61724390
H      -5.95150159     -6.16365708      0.51235220
H      -4.67186456     -5.68673904     -0.20769891
O       4.25776778      6.22375252      0.42636890
H       3.66866524      5.47594356      0.66090868
H       4.13095776      6.88234712      1.12641678
O      -4.06989030     -0.82539223     -2.97981078
H      -4.72081143     -1.01759304     -3.67147142
H      -4.46693767     -0.11981665     -2.44700543
O       0.03814226      2.25203639     -4.79163324
H      -0.40734773      1.48643935     -4.38317035
H      -0.63128103      2.66744268     -5.35583001
O      -2.50445233     -3.36217995     -2.82535839
H      -3.02214128     -2.53742530     -2.90440089
H      -1.57184643     -3.07778928     -2.82988760
O       0.47019100     -3.91994135      3.92333768
H       1.36655280     -4.19725048      4.16717473
H       0.58134277     -3.02960882      3.54412640
O      -2.12478029     -5.12694512      4.17685985
H      -2.06758862     -5.72240006      4.94001961
H      -1.23428938     -4.73617168      4.09816441
O       4.76745189      4.05109693     -3.78720319
H       4.14706995      3.47162608     -4.26983258
H       5.65369719      3.75835936     -4.04908696
