73
charge=0
N      -2.55174254      2.07469122      2.22207677
N       3.15936281     -1.30101700      0.81447020
F      -2.05959480     -0.43724808      0.11882597
F      -1.12891726      1.39222800     -0.66390353
F       0.19319191     -1.53741151     -0.60604809
F       1.08192651      0.39057095     -1.13027136
F      -0.17384795     -0.75150169      1.92844819
F       0.71718062      1.21296081      1.46680298
C      -2.01297430      1.42764749      1.42683230
C       2.14649263     -0.93632632      0.38702305
C      -1.33144384      0.64829227      0.43822466
C       0.88985871     -0.49399109     -0.13779298
C       0.04322267      0.16660569      0.97956233
O       3.01472949      1.28598045     -2.96247110
H       3.07782894      0.31527883     -2.89393379
H       3.35204155      1.49201013     -3.84676362
O      -4.69485519     -0.20122843      2.27563901
H      -5.11279955     -0.68286525      1.53992520
H      -5.20032128      0.62306530      2.34955982
O      -6.01001110     -1.52330098      0.10870338
H      -6.57791062     -2.29592578     -0.03255860
H      -5.94467337     -1.09629841     -0.76487291
O       0.82097436      3.09648232     -2.14452977
H       1.05803636      3.35749358     -1.23377784
H       1.52680883      2.48693477     -2.43222983
O      -3.29430292      0.72694155     -3.11542279
H      -2.54892664      0.09793041     -3.11364289
H      -2.86496416      1.60141783     -3.13161400
O      -1.00619623     -1.05765539     -3.01027850
H      -0.29376172     -0.61242642     -2.52165045
H      -1.08307530     -1.94093818     -2.60184264
O      -1.25878584     -3.69593419     -1.67940647
H      -2.11493635     -4.14797482     -1.65455520
H      -0.93941908     -3.68514275     -0.75624200
O      -5.85665577     -0.30035107     -2.47382216
H      -6.40521812     -0.04295986     -3.23020764
H      -4.97108566      0.04885355     -2.68035464
O       2.15431391     -1.08970618      3.85064014
H       2.65449364     -0.35211477      3.45058263
H       2.82202770     -1.64390018      4.28236977
O       1.59123193      3.90559528      0.59869391
H       1.44243879      3.64369760      1.52690435
H       1.60319907      4.87466201      0.61302095
O       3.31052090     -1.55357961     -2.65617465
H       4.14533046     -1.68048378     -2.16791380
H       2.73851718     -2.28398336     -2.35613293
O       3.45381205      1.22142913      2.70126509
H       3.59985288      1.38180122      1.75172030
H       2.79795195      1.89860969      2.95984755
O      -0.09009623      0.79118726      4.26383164
H       0.61116849      0.11862669      4.16583708
H      -0.92043144      0.28552204      4.20548623
O       1.26357996      3.16599903      3.40341949
H       1.25096135      3.75521867      4.17222245
H       0.74500531      2.38773508      3.68025588
O      -2.50488672     -0.78145951      4.02638868
H      -3.23995149     -0.58215012      3.41775987
H      -2.88691746     -1.36877272      4.69677455
O       5.64096961     -1.76590778     -0.86232551
H       6.46451226     -1.44128114     -0.46924544
H       4.94464546     -1.60293554     -0.19564206
O       1.59952577     -3.66450857     -1.57412851
H       1.17332599     -3.67827269     -0.69565434
H       0.87245006     -3.86341768     -2.18878445
O      -0.02001147     -3.65649683      1.02828644
H      -0.10524470     -2.76092066      1.39436830
H       0.13025326     -4.23109688      1.79242167
O       3.55590312      1.85030700     -0.13018986
H       3.43709448      1.66161296     -1.07891095
H       2.92610539      2.57361826      0.06214764
O      -1.87153755      3.25018449     -3.13540132
H      -0.96214756      3.17840565     -2.78996255
H      -1.88918543      4.08272542     -3.63230364
