100
charge=0
Br      4.95858927      0.28106825      2.18183981
Br      4.65331767      5.29594115     -0.82779549
N       2.04508007      3.22130353     -1.12110201
N       1.36188725     -2.55148195      1.46459454
N       1.07085454      1.10285131     -0.55513789
O      -0.15639064     -1.10832894      0.57518646
C       1.14029687      2.29714886     -1.17165117
C       1.14085956     -1.37337102      0.97164207
C       2.08016810      0.79650629      0.22296551
C       5.00347774      2.87637389      0.80187840
C       4.34369002      1.67706554      1.07123133
C       4.24293374      3.62514076     -0.06396172
C       3.15410846      1.70972979      0.35676185
N       2.16024142     -0.43627293      0.87055590
N       3.09238380      2.91012864     -0.33104271
N      -3.32424392     -2.01584968      1.66421697
C      -3.57066332     -3.46575641      1.42898073
C      -3.61717707     -1.23820063      0.41784224
C      -2.64873949     -3.99299939      0.31104686
C      -2.70117424     -1.71077818     -0.72765411
C       0.15984613     -3.25273882      1.48747044
C      -1.91622536     -1.82691746      2.10736496
C      -1.76861766     -2.82840466     -0.20590706
C      -0.92899687     -2.25878499      0.98580764
H       0.31315201      2.50637327     -1.83319390
H       5.96765589      3.15700349      1.19599454
H       3.02550894     -0.65033521      1.35895977
H      -4.62750649     -3.59809650      1.17617210
H      -3.41103976     -4.00067661      2.37069305
H      -4.67580913     -1.36317712      0.17026514
H      -3.47104645     -0.17437976      0.63315647
H      -3.23559981     -4.41169199     -0.51485165
H      -2.02079576     -4.81277623      0.67788578
H      -3.29224430     -2.07881957     -1.57463152
H      -2.10757697     -0.87574894     -1.11306022
H       0.24365747     -4.12373488      0.82516768
H      -0.04317138     -3.61057645      2.50373815
H      -1.74952560     -0.77330904      2.34199677
H      -1.74657377     -2.38859103      3.02786196
H      -1.08020105     -3.16763034     -0.99452583
O      -1.41487890      1.26715928     -2.75180896
H      -1.64058406      1.40151370     -1.81350216
H      -0.76526567      0.53815282     -2.71752719
O      -1.79451853     -2.50221832     -3.70790388
H      -2.31770409     -1.77594892     -4.09045359
H      -1.03859827     -2.04958458     -3.28697233
O      -4.38646819     -0.08987064      3.73210676
H      -3.54131383      0.31767983      4.00163393
H      -4.10654552     -0.75073692      3.06187500
O      -3.18544087     -0.09826000     -4.58833999
H      -3.56637967      0.52281751     -5.22639861
H      -2.62727395      0.44434244     -3.99855226
O       5.62891178     -1.93751999     -0.53600497
H       5.27973643     -2.37948924      0.25997214
H       4.84542344     -1.81174008     -1.09892938
O      -1.39426793      3.94976599      1.32128817
H      -1.71705347      4.70012190      0.80009114
H      -1.93882181      3.94892015      2.13083754
O       0.30166890     -1.06266482     -2.32730593
H       0.19601406     -1.00286613     -1.35362316
H       1.26226427     -1.14647761     -2.43107250
O      -5.57640842      2.56675777      3.75499049
H      -5.25369609      1.64596743      3.74665940
H      -6.53591258      2.50004689      3.86594979
O      -1.78604008      1.31642852      0.10062973
H      -1.58107695      2.15307430      0.55609082
H      -1.08287504      0.67694344      0.34228180
O      -1.84513174     -5.24658723     -2.92253378
H      -2.18464086     -5.74087381     -3.68333119
H      -1.82906937     -4.31648496     -3.21412737
O      -3.02105304      3.91926093      3.70439345
H      -3.91174612      3.52100539      3.70198524
H      -3.03690968      4.56788289      4.42328600
O       3.16372473     -1.15574846     -1.95807218
H       2.84496576     -0.92872767     -1.05389802
H       3.47228288     -0.30925350     -2.33367174
O       0.79346711      1.16750389      3.10118682
H       1.03430237      2.08043891      2.85770418
H       1.21176803      0.62095973      2.40425061
O      -0.29969481     -5.77820584     -0.53452350
H       0.39011201     -6.41248564     -0.78266149
H      -0.81353632     -5.62586868     -1.35059413
O      -1.87078875      1.19241951      4.17585355
H      -0.94830388      1.16353519      3.86588196
H      -2.15401428      2.11933846      4.05097711
O       6.53575630      0.71476306     -1.42729162
H       6.36832056     -0.18729902     -1.10150346
H       5.74584207      0.93400712     -1.96131926
O       4.03428078      1.47769698     -2.84520597
H       3.71784096      1.99737165     -2.07109642
H       3.88338464      2.04188187     -3.61565713
O       4.27559877     -3.14682065      1.77243811
H       3.31138102     -2.97288266      1.68154580
H       4.36729942     -3.72238342      2.54579835
O       1.40783890      3.82108403      2.03997823
H       1.93220914      3.59294974      1.23979629
H       0.48526189      3.92819746      1.73805236
O       7.72489615      3.33984276     -1.01782099
H       6.92059838      3.88989467     -1.02119565
H       7.41088190      2.42636798     -1.16006900
