87
charge=0
O      -1.52921493      3.62672116      0.83782847
N       1.84873867      2.58312734      0.38754504
O       0.11615353      4.80174599     -0.16854398
C      -0.36559568      3.70898587      0.48165354
C       0.55227800      2.58044520      0.69978119
C       1.09051625     -2.12977176     -3.25269459
C       1.13605440     -2.79280057     -2.11576116
C       0.14553322      1.25668100      1.02406431
C       1.25994319      0.47333359      0.85729181
N       2.26864833      1.33196302      0.46886235
C       0.06010157     -2.70628465     -1.08870605
C      -1.11396478      0.42986792      1.14951764
C       0.87252534     -0.97542194      0.71643294
C      -0.02012618     -1.30906986     -0.47927331
C      -0.66450419     -1.02948844      0.87258016
H      -0.61959694      5.45253097     -0.19496030
H       0.25104611     -1.50819868     -3.49414390
H       1.88257811     -2.18159442     -3.97354498
H       2.00512921     -3.38738594     -1.88668935
H       3.20097717      1.02538828      0.13738358
H       0.22035820     -3.44579452     -0.29608191
H      -0.90427729     -2.95994959     -1.54008642
H      -1.54422629      0.53692960      2.14999756
H      -1.86395782      0.74993629      0.42242368
H       1.48412850     -1.73612584      1.21289489
H      -0.13197980     -0.52169521     -1.23121382
H      -1.11762527     -1.84508714      1.44957555
O      -2.77246824      2.23037525     -1.42815817
H      -2.89267103      2.96556289     -2.05381326
H      -2.36665593      2.66267649     -0.64974991
O       2.89001651      1.68371195      3.38984072
H       2.65768193      1.65430809      2.43128595
H       2.03068920      1.71872474      3.85435011
O      -2.75898908      5.96643227     -0.23559303
H      -2.46094523      5.14459499      0.20665439
H      -3.37954548      6.38665973      0.37804906
O      -3.01675969     -0.64789703     -1.47355718
H      -2.71039167     -1.01275241     -2.32479698
H      -2.95406717      0.32106553     -1.54874861
O       2.26336543      3.91298479     -1.96118232
H       1.59633706      4.18232710     -1.29343688
H       3.01034986      3.59446919     -1.42671361
O       4.86000798      0.15419625     -0.52988558
H       4.95325836      0.22279845     -1.49243802
H       5.67660456      0.52246028     -0.15953466
O       1.37998064      1.14451954     -2.42252262
H       1.45723282      2.07672195     -2.68585830
H       1.60862599      1.16729625     -1.46386834
O      -1.35110488     -4.74577578     -3.13286838
H      -0.48520851     -5.16659787     -2.97405281
H      -1.85900730     -4.93009782     -2.31926587
O       3.85924042     -2.35337148      0.64982902
H       4.19984904     -1.54723446      0.21812591
H       3.66667382     -2.06377724      1.56010476
O      -2.73669496     -5.11513876     -0.60604846
H      -3.04514575     -4.27292513     -0.22155295
H      -3.17831236     -5.80825557     -0.09244984
O      -3.63715009     -2.59619260      0.49949021
H      -3.43202699     -1.92291652     -0.17556068
H      -4.41057420     -2.25004657      0.97002141
O       0.01262132      4.97552711     -3.22105945
H       0.02973966      4.94341227     -2.24366627
H       0.92542352      4.76849446     -3.48067797
O       0.48794430     -1.27829533      4.31629436
H       0.38077205     -0.31875108      4.46691277
H      -0.09289880     -1.70969769      4.96074363
O      -2.88240121      4.74077061     -2.94094342
H      -1.94862380      4.83513234     -3.20625463
H      -2.93853275      5.23935559     -2.10126751
O      -2.06577522     -2.03073699     -3.88612941
H      -2.40293355     -2.04678934     -4.79437079
H      -1.84453806     -2.95852342     -3.67763569
O       1.24155027     -5.95068081     -2.47884098
H       1.88695666     -5.60116139     -1.83526510
H       1.62882414     -6.77581060     -2.80935362
O       0.24480811      1.61152711      4.74060606
H      -0.53506250      1.97744555      4.28481743
H       0.31463829      2.12155244      5.56162857
O       3.17393327     -1.25874602      3.22950027
H       2.29369046     -1.41393601      3.61888206
H       3.27666220     -0.29302143      3.31185483
O       3.18798762     -4.85753133     -0.58418269
H       3.74946871     -5.49969936     -0.12263965
H       3.40925807     -4.00206926     -0.17204918
O      -2.06869972      2.67157286      3.44174704
H      -2.98528488      2.93093136      3.61777240
H      -1.87975033      3.00797694      2.54467263
