98
charge=0
O       0.36319315      0.07996142     -0.16978623
Cl      5.92418892      0.42024791     -2.56792407
Cl     -1.33946632      5.15272567      2.57790149
Cl      0.03953972     -4.31552306      4.24717387
Cl      4.62581205     -1.84332646     -0.85356057
Cl      4.17239226      2.04370897     -4.58542646
Cl      0.84678240      4.79692519      0.35139477
Cl     -4.02991769      3.57312126      2.33585523
Cl      0.36083731     -5.90297692      1.56950453
Cl     -0.96205877     -1.34480603      4.18277562
Cl      1.54671827     -2.31056489     -0.98991761
Cl      1.08214441      1.58587373     -4.68315699
Cl      0.61463347      2.41316826     -1.65843113
Cl     -4.29417363      1.25138792      0.26904394
Cl     -0.41244667     -4.56332949     -1.13592710
Cl     -1.80745044     -0.06419621      1.49584545
O       0.03974173     -0.32852438     -2.72340585
O      -1.89661007      0.74874258     -1.34522013
O      -1.27340683     -1.79146024     -0.97080114
C       4.21522108      0.12633268     -2.67169542
C      -1.55984935      3.98524949      1.30559664
C      -0.39142513     -3.57332673      2.73588225
C       3.63478380     -0.85600120     -1.88487929
C       3.42827786      0.89006574     -3.52058154
C      -0.54393802      3.75663151      0.38792029
C      -2.71894592      3.22432424      1.25708966
C      -0.24898148     -4.27743703      1.54979660
C      -0.85872489     -2.26802823      2.71233130
C       2.26525581     -1.04593033     -1.91325395
C       2.05710007      0.70478975     -3.55348459
C      -0.64666310      2.71375505     -0.51632846
C      -2.83502903      2.18808856      0.34856956
C      -0.56314452     -3.67791548      0.34354359
C      -1.17687252     -1.66536603      1.50874369
C       1.43595305     -0.23500529     -2.71015665
C      -1.77351790      1.87173213     -0.52022076
C      -1.00435851     -2.34294910      0.28886514
P      -0.65037444     -0.30633082     -1.24282440
O      -3.52904375     -3.17718921     -1.64202558
H      -2.61819841     -3.49917517     -1.49889891
H      -3.40445702     -2.43054079     -2.25554918
O       4.89955749      2.94849216     -0.53663446
H       4.41959901      2.65051937      0.25855039
H       5.12985799      2.14455716     -1.03168050
O      -0.06691044     -5.83403015     -3.61718834
H      -0.82712230     -6.39667596     -3.82706688
H      -0.39499487     -4.91855443     -3.70553644
O      -0.86506071     -3.09613440     -3.88794949
H      -1.47901246     -2.35131632     -3.75740027
H      -0.02551511     -2.70090463     -4.18908874
O      -5.52701080     -1.02167982      2.31828061
H      -6.42689147     -0.97455044      2.67501913
H      -4.99828670     -0.41340488      2.86815686
O       2.69857934     -4.96606214     -3.98091025
H       1.79360340     -5.29838838     -3.82691956
H       3.26740320     -5.74998329     -3.95071812
O       3.60094815      5.33936072     -1.45441320
H       2.84057275      5.33243580     -0.84581673
H       4.14783837      4.58680597     -1.16293022
O      -3.80760797      0.76240189      3.87167582
H      -3.46750392      1.56512821      4.30632411
H      -3.08646048      0.47696566      3.28237078
O      -2.86607807     -0.94972329     -3.45257980
H      -3.24701283     -0.40353368     -4.15550244
H      -2.57954335     -0.32322733     -2.76064079
O       3.85297898     -0.86239792     -6.34651517
H       4.27569506     -0.76085530     -7.21177095
H       3.98284907     -0.01768119     -5.88294631
O       2.17173721      4.41975023     -3.80584067
H       1.62003000      3.79488850     -3.30122329
H       2.73230658      4.83439511     -3.12510389
O       1.81316922     -2.30083188     -4.79885653
H       2.18507797     -3.17265798     -4.56263294
H       2.49229775     -1.86507918     -5.34708390
O       1.86398751      4.23714189      3.21165498
H       2.19546993      4.89568378      3.84023755
H       0.94926156      4.49790834      3.01011934
O       1.58421233     -0.06736257      2.34090153
H       1.15254307      0.01249764      1.46806117
H       0.87277469     -0.32510659      2.95014827
O      -2.69150650      3.19019138      4.99086688
H      -3.17042052      3.73620231      5.64197699
H      -2.30176334      3.81240780      4.35258633
O       3.34036270      2.17720586      1.74075667
H       2.89444208      2.89180368      2.23340572
H       2.81417816      1.38486382      1.95183202
O      -6.14341785      4.34602181      4.65474829
H      -5.56609352      4.06800948      3.92260828
H      -5.54237411      4.49147648      5.41222472
O      -3.81220980     -3.21082209      1.32107252
H      -3.81452229     -3.18168265      0.34490361
H      -4.40935776     -2.49482540      1.61208905
O       2.79455697     -2.69382120      1.83885056
H       3.37673998     -2.52289278      1.07826543
H       2.42625206     -1.81957292      2.06851725
O      -4.22494654      4.78795044      6.90238699
H      -4.15843828      5.71445621      7.17664299
H      -4.49846920      4.30284862      7.69509914
