85
charge=0
O       2.23815783     -3.67256800      1.42832576
O       1.33707750      0.81484984      2.02653889
Cl     -2.20358823      4.07931776     -2.76575096
S      -1.13783408     -1.85292547     -1.47477182
C       1.60697716     -2.65059826      1.15358502
C      -0.70007551     -3.54601256     -1.51623303
C       1.85588624     -1.41694852      1.77285530
C       0.21135655     -3.82032113     -0.57264927
C       1.17697559     -0.23981094      1.40860151
C      -0.00713868     -1.52587831     -0.22029149
C      -0.11436419      2.84147346     -1.59136379
C      -2.28537957      1.93003199     -1.15358468
C       0.45841518      1.82886616     -0.85706547
C      -1.71546204      0.92956972     -0.40677771
C      -1.48669760      2.88388267     -1.75404361
C      -0.33492562      0.86012210     -0.25550532
N       0.58276933     -2.67701092      0.16392499
N       0.26342200     -0.30702075      0.32949552
H      -1.12328727     -4.26277682     -2.19573347
H       2.58159175     -1.36590734      2.56080016
H       0.64786262     -4.78931691     -0.37954251
H       0.49677540      3.59730338     -2.05853872
H      -3.35345502      1.97889381     -1.28434750
H       1.52922202      1.73514647     -0.79512388
H      -2.32919609      0.16728822      0.04165794
O       3.58357759      1.60421578     -1.07911114
H       3.63738409      2.27870055     -0.37430010
H       4.04326913      0.82453231     -0.72024080
O      -3.30837636      1.37856681     -4.44226594
H      -2.96268622      2.13378910     -3.93729557
H      -3.60514351      1.74841480     -5.28687052
O       5.49104382     -0.83862374      2.98110155
H       5.06685982     -1.68702648      3.21033804
H       6.35514247     -0.86057434      3.41740127
O       3.32345324      3.84696422      0.91199901
H       3.75738687      3.23791093      1.53634291
H       2.41916875      3.92231487      1.27335945
O      -1.85076178     -2.42200861      2.14172408
H      -1.61968325     -1.65891015      2.70258125
H      -1.08704117     -2.53101246      1.53655171
O      -3.41095771     -1.48253863     -3.88824213
H      -3.40767124     -0.53061832     -4.09722319
H      -2.77220678     -1.57901212     -3.16118898
O      -4.13357409     -1.76634021      0.50572182
H      -3.37717019     -1.98608016      1.07868795
H      -4.72201697     -2.53294070      0.57334538
O      -1.90866340     -5.60642677     -3.39453787
H      -2.60261185     -5.13483661     -3.89263278
H      -1.91472052     -6.51007560     -3.74514934
O      -2.84251314      2.29170447      3.26988078
H      -2.52240017      2.94125030      2.61596804
H      -3.80948193      2.34173080      3.19460038
O      -4.91825447      0.79496937     -0.53745515
H      -4.66850714     -0.07603758     -0.17674426
H      -5.73170623      0.63640441     -1.03921907
O      -4.75046829      3.05956725      1.33655419
H      -4.82329373      2.31569810      0.70750301
H      -3.88369840      3.47637041      1.15959074
O       4.15878127     -3.33304304      3.54949045
H       4.04656434     -4.06658741      4.17117262
H       3.50979215     -3.50008098      2.83693700
O       4.04255782      1.68856436      2.66020182
H       4.57301955      0.88228676      2.79483433
H       3.13422124      1.36029777      2.48806301
O      -1.11047025     -0.00321048      3.53163679
H      -1.71273249      0.76320266      3.51815419
H      -0.29102876      0.31318801      3.10277367
O      -2.00091890      4.20208677      1.11697488
H      -1.96814793      5.08390367      0.71792775
H      -1.08543137      4.01877552      1.40227859
O       2.51748534      4.06223591     -1.94283178
H       2.80156575      4.12736878     -1.01176659
H       3.05756409      3.33711549     -2.30269946
O       4.49153229     -3.53467346     -0.38657465
H       4.71615864     -4.43751376     -0.65661213
H       3.70655597     -3.61969852      0.19035934
O       4.85128473     -0.68006861      0.09912307
H       5.11701331     -0.69639913      1.03842586
H       4.77070393     -1.61966516     -0.14694752
O       0.62867880      3.57438033      2.12903832
H       0.82496787      2.61686777      2.07658042
H       0.73244443      3.80008101      3.06589017
O      -3.94071844     -4.14229260     -4.83706646
H      -4.67872852     -4.08696319     -5.46217853
H      -3.78859141     -3.22638925     -4.53709064
