96
charge=0
O      -4.52406039      0.84640625      3.12841266
O       2.02064900     -0.56658931      0.81054119
O       0.10891392     -0.13514276     -0.90908065
N      -3.50303846     -2.04955704     -2.23582765
N      -3.46189217     -2.46004725     -0.99957412
N       0.43581132      1.45342586      1.15553589
S      -3.69770625     -1.52105080      1.57734079
S       2.73731526      1.12971112     -2.47943399
C      -3.36860678      0.95137059      2.75473255
C      -3.71182160     -0.75232581     -2.24686788
C      -3.65582618     -1.42594654     -0.19801507
C       3.50679744      2.67154861     -2.59289644
C       3.30203286      3.38138249     -1.46669335
C       2.50937059      2.68630600     -0.50422307
C      -2.75702582     -0.07747970      1.92497908
C      -1.50671954      0.05717070      1.44102571
C       2.11846965      1.46123808     -0.89700123
C      -0.69641815      1.21648858      1.71847042
C      -2.18904411      4.06535400      4.47961161
C      -0.87511389      4.13311723      4.05283123
C      -3.00451339      3.05163774      4.04066851
C      -0.39254974      3.20255263      3.16779660
C      -2.53077308      2.09148260      3.15471626
C      -1.21170588      2.18786923      2.68328312
N      -3.82597952     -0.29820436     -0.96154598
S       1.09445816      0.36760857      0.10146439
H      -3.73303678     -0.14404601     -3.14144366
H       4.06741598      2.98455426     -3.45407094
H       3.68739576      4.37734686     -1.29944200
H       2.24107637      3.09533617      0.45704704
H      -1.09749109     -0.73130721      0.83080105
H      -2.56865396      4.79845571      5.17272250
H      -0.22480391      4.90891116      4.42309231
H      -4.02115869      2.98770292      4.38864996
H       0.64564307      3.21762021      2.87992092
H      -3.64732616      0.67800776     -0.66990246
O      -4.09464640     -1.65108835      4.60782738
H      -4.26643940     -0.81058204      4.13813399
H      -4.95591754     -1.93958265      4.95006286
O       4.00715648      1.39857871      1.73265325
H       4.69844674      1.21497627      1.06938679
H       3.33194329      0.71666046      1.54524176
O       3.92979043      1.03516281     -5.25708261
H       4.10105423      0.85388671     -6.19469085
H       3.95550089      0.16314950     -4.82042392
O       1.50916776     -2.05547902     -2.47866064
H       2.02012819     -2.48461213     -1.76656288
H       0.94416203     -1.41956508     -2.00389379
O       3.97558273     -1.52416179     -3.94326818
H       3.10664821     -1.71192374     -3.55183279
H       4.59945844     -1.68474640     -3.21079612
O       1.82363629     -3.02771064      2.28252549
H       1.92596759     -2.92163636      3.23940643
H       1.88774142     -2.12643346      1.90802189
O       5.85181967      0.67084218     -0.41313708
H       6.72439700      0.98234179     -0.69750852
H       5.76102651     -0.22342302     -0.79383441
O      -2.12302259     -5.09938765     -0.40233226
H      -2.08631469     -5.55152654     -1.26128724
H      -2.61544874     -4.26921479     -0.59650498
O      -0.23383010      4.16185539     -0.10007419
H      -0.37597248      3.60867041      0.68890934
H      -0.47800910      3.57753023     -0.84048069
O       0.06591482     -3.64530377     -4.41273179
H       0.69154336     -3.80806199     -5.13486202
H       0.55255110     -3.10181581     -3.76448325
O      -6.25727578      0.41695719      0.81491301
H      -5.76251772      0.58578313      1.64222230
H      -5.54936469      0.17480477      0.17942921
O      -0.80049520     -2.81708151      0.96397309
H       0.04515717     -3.02696112      1.40041244
H      -1.13115662     -3.65234745      0.58993812
O       3.18157570     -2.97460390     -0.21432205
H       2.83606122     -2.12909231      0.13506476
H       2.90967773     -3.62552333      0.45114607
O       5.58017812     -2.05002727     -1.52063582
H       4.79663799     -2.39995924     -1.05416330
H       6.22472648     -2.77274828     -1.51293219
O      -2.37220885     -4.67536438     -3.22047880
H      -1.55688421     -4.37913648     -3.66671820
H      -2.76509280     -3.84882653     -2.85280427
O      -3.24378258      2.48668499     -0.21064809
H      -3.60917584      3.38274465     -0.24569485
H      -2.50727133      2.47095746     -0.85357124
O      -1.03516393      2.20004961     -2.10398756
H      -0.95770491      2.12252788     -3.06502587
H      -0.67343867      1.36462658     -1.75013325
O       2.62794338      3.74932433      2.87155127
H       3.14715993      2.98885026      2.54590991
H       2.61200972      4.40248394      2.14399729
O       2.20407338      5.59823015      0.57719718
H       1.35810842      5.18739388      0.31128116
H       2.07292764      6.55281712      0.47745077
O      -6.23836488      2.60666769      4.60089863
H      -5.70798901      1.96275056      4.08821377
H      -7.16295918      2.40598484      4.38779081
