96
charge=0
F       1.23632087     -0.84870760      3.83313127
F       0.17295909      0.71611507      4.94769568
F      -0.23822223     -1.40696268      5.36627006
F       2.40618131      1.08501769     -5.71279007
F       0.90325326     -0.26749631     -6.56930034
F       2.91654468     -1.01177928     -6.09936858
F      -5.30882179      0.77423841      2.60918957
F      -5.45914444     -1.40050667      2.88730599
F      -4.89544490     -0.10776513      4.57275297
N      -1.17361614     -0.36450783     -0.09417498
N      -0.63890331     -0.45991021      2.13064516
O      -1.62612586     -0.55449758     -2.38752181
C      -2.05214736     -0.49323106     -1.07044330
C      -1.02305236     -0.49909903      3.37731542
C       2.01055942     -1.22539737     -2.10016130
C       0.69265121     -1.10916070     -1.74332889
C       2.41014047     -0.93621757     -3.38441268
C       0.15943586     -0.41477062     -3.96717020
C      -3.43567703     -0.54953801     -0.82508498
C      -2.35323957     -0.46321906      3.78797254
C      -0.26669632     -0.69395174     -2.66708180
C       1.48352194     -0.53431309     -4.32515571
C      -3.89601489     -0.51721270      0.44626259
C      -3.34460452     -0.43373743      2.85682307
C      -1.60040538     -0.44223312      1.17807753
C      -2.97278523     -0.46904161      1.50041013
C       0.07343813     -0.51307152      4.41730730
C       1.94248666     -0.17287252     -5.72473050
C      -4.80114569     -0.28937352      3.24783453
H       2.74381374     -1.50656908     -1.35888780
H       0.41178311     -1.30858273     -0.72205276
H       3.45305138     -0.99251195     -3.65289979
H      -0.56588668     -0.07059995     -4.68893124
H      -4.11627733     -0.60225065     -1.66216737
H      -2.58819308     -0.45977964      4.84384750
H      -4.95207371     -0.54892160      0.65948581
O       4.56372447     -3.16236974     -5.12637297
H       3.99675727     -2.49557559     -5.54959587
H       4.68963674     -3.85956298     -5.78554742
O       1.64525703     -1.69233305      0.93565982
H       2.60254326     -1.63005538      0.76384465
H       1.52666807     -1.41459421      1.86161173
O      -4.98101098     -2.84662774      5.43449343
H      -5.20242798     -2.40058594      4.59957994
H      -5.58915673     -3.59717235      5.50297211
O      -6.14162220     -0.59063501     -1.68847459
H      -6.63090989     -0.43767740     -0.85851582
H      -6.81642580     -0.60693486     -2.38238481
O       3.86386957      1.39760295     -0.44685301
H       3.91919826      1.59580452     -1.40168631
H       2.93723257      1.57260261     -0.19577046
O       0.23342408      2.69879685     -6.80179847
H       0.98850467      2.17273117     -6.48948819
H       0.61826959      3.47669591     -7.23140396
O       0.92300966     -1.23116944      8.00537184
H       1.14874025     -2.12997063      8.29165928
H       0.51606255     -1.32297826      7.12481153
O      -1.70322641     -0.29202171      9.07350586
H      -0.80353157     -0.54494326      8.79015726
H      -2.26606318     -0.44994541      8.28936768
O      -0.22435539      2.61152971      2.65473386
H      -0.00402081      2.07632179      3.43510437
H      -1.19297472      2.72938664      2.69764090
O       4.02538785      1.69818473     -3.35734941
H       4.91443066      1.39732389     -3.62450712
H       3.47987910      1.59964381     -4.15563716
O       4.38114344     -1.39363542     -0.09127799
H       4.33175162     -0.41943097     -0.06922167
H       4.87339411     -1.57964569     -0.91272602
O      -3.16147237      2.78771212      2.81644662
H      -3.90509391      2.16410072      2.77798606
H      -3.55031810      3.63625072      3.07469125
O       5.43994920     -1.67629868     -2.79125982
H       5.90080482     -0.93198113     -3.22207521
H       5.24298890     -2.29329085     -3.52061717
O       1.07178107      1.68633480      0.24289090
H       0.75925004      2.11592179      1.05831129
H       0.38046388      1.01078269      0.08015715
O       5.33995764      0.34654561     -6.92126570
H       4.48184188     -0.05228125     -6.70284647
H       5.25811577      0.64729558     -7.83764342
O       6.56286185      0.56446478     -4.31755976
H       7.46658077      0.90306236     -4.38374134
H       6.23915690      0.49609560     -5.23653618
O      -7.40901005     -0.14439950      0.87102120
H      -8.21069222     -0.38114089      1.35844024
H      -6.78967524      0.17904891      1.54423887
O       3.05503603     -0.14765805      6.16441157
H       2.45343934     -0.40279460      6.88919796
H       2.53446113     -0.30352403      5.35746292
O      -1.82692742      0.94140303     -5.76020373
H      -1.17882051      1.55915689     -6.14833617
H      -2.63786451      1.06738422     -6.27433385
O      -3.38459223     -0.75296358      6.68121111
H      -4.03894477     -0.05057553      6.82001789
H      -3.90526988     -1.50707146      6.34719810
