95
charge=0
F       0.61090040      2.34492934     -3.30793914
F      -0.27596951     -0.10447715      5.68672565
F      -1.29421854     -1.47051101      4.30597937
F      -2.46989140     -0.06604908      5.52049306
N       1.84688850     -0.45206177     -0.65912203
O      -2.45783538     -0.57224187      1.49642136
O      -0.84954917     -1.78477577     -0.49290507
O       0.88357101      0.01662746      2.86847593
O      -0.70294702      2.02290782      4.25608640
S       2.33463617      1.42949891      1.08260112
C       2.29631211      0.75521931     -0.56328114
N       2.70815761      1.54057135     -1.62207260
C       1.83212461      2.19515454     -3.80402467
C       2.62888199      1.17179094     -3.01634329
C      -1.31796636     -0.25301302      4.85983427
C       1.22655511     -0.91520776      0.52167468
C      -1.05937293     -0.72268016      1.67741749
C      -0.43448988      0.40393634      2.51756364
C      -0.32004941     -0.76646369      0.32723368
C       1.77347440     -0.11388974      1.74592934
C      -1.24496414      0.82738051      3.74483763
H      -2.86399639     -1.45832232      1.36455641
H      -1.78878644     -1.59484462     -0.72513207
H      -0.68183746      2.68779897      3.52633875
H       3.15256635      2.45247586     -1.45404682
H       2.32116581      3.17638409     -3.76940653
H       1.74291623      1.90898105     -4.85935704
H       2.14591150      0.19328208     -3.08487832
H       3.64410594      1.05719437     -3.41279023
H       1.48349968     -1.98254665      0.63078270
H      -0.87879204     -1.66824693      2.21428335
H      -0.31292986      1.28458916      1.87197923
H      -0.49043466      0.18144243     -0.20708331
H       2.65797370     -0.62471207      2.15387893
H      -2.28514374      1.03497758      3.44937622
O      -0.79547019      3.64677279      1.81948442
H      -0.72872810      4.61234723      1.82856468
H      -0.49625141      3.37767960      0.92968714
O       0.24721295     -4.26264495     -1.42681625
H       1.00171374     -3.92645454     -1.94069173
H      -0.19781226     -3.43445565     -1.15011318
O       2.24372940     -2.61864538     -2.75992701
H       2.28562761     -2.13249595     -3.60440112
H       2.13398002     -1.91885716     -2.07555101
O       1.56319909     -1.92922477      4.72266553
H       0.59731123     -1.83218836      4.67029860
H       1.85569095     -1.01277049      4.87975988
O       2.09862876      1.05098885      5.22249600
H       1.22110211      1.31550946      4.88354168
H       1.98162290      1.00360428      6.18514703
O       3.92357689      4.18068751     -1.29045019
H       4.00854884      4.36690239     -2.24669064
H       4.29061668      4.95340328     -0.83605072
O      -0.06619745      2.71558817     -0.79993158
H       0.80364569      2.37018389     -1.08467221
H      -0.56124023      2.78286636     -1.62646042
O       4.08535930      4.58250075     -4.17867984
H       3.69765245      5.35906468     -4.61051420
H       4.63971423      4.15611053     -4.85921896
O      -6.67525796     -0.47079300      2.43334683
H      -7.51742159     -0.38584209      2.90561374
H      -6.03444561     -0.76417459      3.10775476
O       1.70640050     -3.21044087      2.11348815
H       1.66743180     -2.87666912      3.02858069
H       0.93268262     -3.79160944      1.99218182
O      -0.68661434     -4.72110122      1.35787912
H      -0.38291039     -4.72268966      0.43103202
H      -1.56453824     -4.29265844      1.33675634
O      -3.36129749     -3.31100545      1.41389775
H      -3.33826762     -3.48991915      2.37405725
H      -4.19382077     -3.68915602      1.09768084
O       5.74537521      3.32929722     -6.27791559
H       5.54683159      3.45974456     -7.21700746
H       6.68732694      3.53515332     -6.18429603
O      -5.43685324      0.51455192      0.00832500
H      -4.83407016      1.19383030      0.36387181
H      -5.91562022      0.18447013      0.79119479
O       4.72366736      0.75766715     -5.23909771
H       5.04194868      1.61369446     -5.58168923
H       5.52392779      0.26592014     -4.99888506
O      -3.31867227      2.17617270      1.20919094
H      -3.00895345      1.25118951      1.30646735
H      -2.54031988      2.72601331      1.41719038
O      -3.53624746     -1.24867242     -1.24698473
H      -4.17920164     -0.65050774     -0.82694158
H      -3.99802635     -1.60101777     -2.02211627
O      -3.03898512     -3.69350923      4.25933900
H      -2.37953494     -2.98618404      4.36141894
H      -2.72478946     -4.41745410      4.81787365
O      -4.78732699     -1.34437398      4.41190665
H      -4.36201425     -2.21868035      4.35340508
H      -4.10097682     -0.80199110      4.82977060
O       2.38802946     -0.97701833     -5.15286342
H       3.17896616     -0.41178915     -5.24719186
H       2.11787552     -1.20916285     -6.05347476
