76
charge=0
S      -0.18769723     -1.90491364      0.55137439
S      -2.23976259     -1.29265464     -1.53438826
C      -1.64856080     -4.24338212     -2.33882524
C      -0.91402574     -0.39836115      1.11184060
C      -2.08512010      0.12895453      0.77863878
C      -0.94748559     -3.67594861     -1.37583943
C      -3.04885691     -0.46648895     -0.17787582
C      -1.46372928     -2.56493507     -0.53431848
H      -1.25885791     -5.05415755     -2.92311416
H      -2.63716579     -3.90211420     -2.57295432
H      -0.28391258      0.12816394      1.80639192
H      -2.37274470      1.06534366      1.23429252
H       0.03717059     -4.04869473     -1.14247793
H      -3.71058890      0.29909605     -0.59513673
H      -3.69306335     -1.18689207      0.33293674
H      -2.24398918     -2.96352927      0.12332056
O      -4.37085331      2.45348231      1.61687582
H      -4.49869207      2.32354592      2.56887616
H      -5.06859016      1.91951806      1.19525322
O       2.61103983     -2.39663340     -1.67677278
H       2.23788591     -3.16298946     -1.20391073
H       3.52755432     -2.33814048     -1.34693975
O      -2.63778406      4.15178266      0.10515516
H      -3.05749020      5.02449396      0.14737098
H      -3.22873542      3.56435383      0.61224470
O       2.37385353     -5.39385554      2.86643798
H       1.93983477     -4.55429662      3.11428800
H       3.12401310     -5.14181246      2.29291887
O       0.93144611     -2.89467787      3.51116076
H       0.52685968     -2.63816154      2.66111814
H       0.20038218     -2.97386639      4.14192278
O       0.06740936      3.41830731      0.93734469
H      -0.82846513      3.66262707      0.63913365
H       0.67519986      3.75963447      0.25412645
O       2.95023351      1.63578512     -0.68529339
H       2.28575891      1.05791110     -1.10562441
H       2.63398859      2.54794932     -0.82818706
O       0.60070967      1.63451724      3.12568343
H       0.48611767      2.18844913      3.91360111
H       0.44183908      2.23242116      2.37147459
O       5.34622020     -2.29165136     -0.48170371
H       6.12771638     -2.03964610     -0.99498543
H       5.13650838     -1.50668485      0.05665026
O       2.00480240      4.45073478     -1.10488966
H       1.81050769      5.16104265     -1.73546508
H       2.75874890      4.77817292     -0.59015497
O      -6.44067592      0.84691323      0.44114223
H      -7.21391669      0.36010764      0.76421191
H      -6.50629588      0.80137675     -0.53002268
O       2.59768131     -0.48469484      3.01735122
H       2.10709323     -1.29879145      3.23486894
H       1.93906549      0.23451611      3.06875109
O      -3.95804871      0.80744866     -3.40119216
H      -3.48757627      1.64359418     -3.23444533
H      -3.42627024      0.13744645     -2.93527414
O       0.32865408      2.63019843     -2.81958471
H       0.91552649      3.18767674     -2.27211475
H       0.55477971      1.70781979     -2.59823078
O       4.48011863     -4.66977441      0.91788496
H       5.27595841     -5.20545166      1.05160044
H       4.79166487     -3.86103267      0.47036752
O       0.95437217     -0.08082450     -2.00147217
H       0.06437249     -0.43227957     -1.82603383
H       1.52856644     -0.86616649     -1.95028906
O      -6.65128486      0.66739308     -2.42306535
H      -5.74582188      0.71432617     -2.78108503
H      -7.22883183      0.69972575     -3.19989290
O      -2.49441553      3.14074972     -2.65661029
H      -2.56630865      3.49544633     -1.74965048
H      -1.53916500      2.99407329     -2.78622218
O       4.60441559     -0.00913772      1.01252249
H       4.10637365      0.59887386      0.43417689
H       3.99064758     -0.17849904      1.75035436
O       1.72254796     -4.71209254     -0.08339525
H       2.64687440     -4.73860176      0.23198467
H       1.25189381     -5.31703440      0.50915534
