75
charge=0
N      -1.57286787      3.28266618     -0.54628616
N      -0.98413706      3.07704601      0.56830009
N      -1.93107360      2.51123137     -1.51327936
N      -1.43381047      0.10921976     -1.43549481
S       0.56796140      0.68518204      2.63049892
C      -1.47607700      1.37942395     -0.92266191
C      -0.95938279     -0.78398788     -0.63601062
C       0.86522061     -1.02713599      2.48620930
C      -0.89298371      1.73047504      0.37753056
C       0.32834118     -1.51986519      1.36350443
C      -0.28799277      0.70858770      1.12157071
N      -0.31418420     -0.53314470      0.58750204
H      -0.99533316     -1.80794342     -0.96864701
H       1.41048293     -1.59859739      3.21379878
H       0.36517589     -2.55318643      1.05722695
O      -2.09442165     -2.69742321     -4.85810675
H      -2.50818977     -2.68529016     -5.73377175
H      -1.70480689     -1.80982752     -4.74153202
O       1.21387475     -4.18904685     -2.09050398
H       1.72093687     -4.79929301     -2.64568313
H       1.37205443     -3.30353721     -2.47147562
O      -0.90182678     -0.12248777     -4.32982737
H      -0.57408050      0.77529271     -4.51003612
H      -1.15478529     -0.06182085     -3.38145147
O      -2.17308020     -3.57980804      0.72475338
H      -2.19795377     -3.59841480     -0.24952460
H      -1.31738430     -4.00352132      0.91587513
O      -3.27525102     -1.11049566      1.75552760
H      -3.84930252     -0.84826097      1.01858727
H      -2.89558753     -1.96222476      1.47500133
O       0.08064838      5.53211466     -0.31355088
H       0.24286468      6.48806317     -0.31584459
H      -0.80666944      5.43440019      0.09920899
O       3.03378871     -4.53033359      2.24150913
H       3.39331352     -3.62756756      2.33312901
H       3.59011097     -5.08856593      2.80503958
O       0.07608591      2.58101463     -4.33080721
H       0.49581580      2.84911845     -3.49103945
H      -0.44749383      3.34701318     -4.61086855
O      -2.88213678      3.68858976      3.18619675
H      -3.06368719      2.75460197      3.39773950
H      -1.92236250      3.78045399      3.34257281
O      -0.75649776      1.88755332      5.31204224
H      -1.54494610      1.50361191      4.87874054
H      -0.41392828      2.54122612      4.67021695
O       0.55500071     -4.54611796      0.77868599
H       0.81151327     -4.50747056     -0.16413442
H       1.39126868     -4.61863552      1.27383943
O       4.05538884     -1.83727485      2.49806291
H       4.57903026     -1.30710265      3.11751087
H       4.15422688     -1.39237471      1.63569506
O       0.10523623      3.81208305      3.20914692
H       0.74418880      4.53113876      3.10309613
H      -0.18174998      3.57629149      2.29948362
O       1.48689165     -1.52735628     -3.18160964
H       0.74590803     -1.14270156     -3.68408075
H       1.73229786     -0.82296477     -2.55242482
O      -2.56386807      5.53412186      0.94261389
H      -2.70359167      4.91339473      1.68073535
H      -3.44965927      5.85698009      0.71925716
O      -1.68765392     -3.53542255     -2.10753916
H      -0.75937495     -3.84030062     -2.13142784
H      -1.89678771     -3.30570947     -3.03014542
O       4.33317354     -0.50902439     -0.04238378
H       4.97561662     -0.57338472     -0.76453655
H       3.53422737     -0.12219460     -0.44533504
O       1.94576068      0.61341288     -1.22457971
H       1.74265394      1.54583273     -1.42008601
H       1.23017342      0.31021584     -0.62632382
O      -3.13902108      0.84439898      3.85977041
H      -3.13865194      0.18710564      3.14050759
H      -3.77898142      0.50379475      4.50324688
O       1.39019434      3.42224784     -1.79903780
H       2.23847460      3.85206758     -1.99296190
H       0.89917295      4.08139732     -1.27609542
