102
charge=0
O      -4.37172822      1.19868966     -1.45064142
O      -5.47396862     -0.49077999     -0.60688234
O       0.49379104     -0.79591011      3.07061059
S      -1.78186708      0.60558138      0.07157402
C      -2.33180174     -0.78417660      2.17208724
C      -3.53009086     -0.67320894      1.45698660
C      -1.26608392     -0.19102806      1.53113933
C      -3.41063988      0.02669349      0.28653126
C       0.09167826     -0.19508570      1.90435206
C       2.09502098      4.79688258     -3.47767352
C       3.29008898     -0.38856342      5.40669194
C       0.87680555      4.23268304     -3.14269112
C       3.22436280      4.50299443     -2.73311148
C       4.25076737      0.18914266      4.60147118
C       2.06178476     -0.71712299      4.88638059
C       0.78556433      3.36885556     -2.08365055
C       3.14798038      3.63921616     -1.67218348
C       3.97956485      0.43352840      3.27019954
C       1.76428220     -0.46547793      3.54834072
C       1.92463043      3.02984586     -1.32669308
C       2.74671162      0.11861076      2.73329828
C       1.85002807      2.07086390     -0.29338067
N       0.73327081      1.39165017      0.04743714
N      -4.47462064      0.25566517     -0.64237608
N       0.98638721      0.40182593      1.06034928
C       2.98029096      1.56710460      0.57181495
C       2.44125762      0.29275427      1.27770110
H      -2.23589963     -1.29201222      3.11945777
H      -4.46489677     -1.10519879      1.78042543
H       2.17237786      5.44467804     -4.33496861
H       3.50342086     -0.58133636      6.44516378
H      -0.00215085      4.46725473     -3.72082547
H       4.17209205      4.93869933     -3.00376437
H       5.21478862      0.44337136      5.00993340
H       1.30042110     -1.16305206      5.50220386
H      -0.16210319      2.91882439     -1.85018720
H       4.03384949      3.39597985     -1.11232290
H       4.73608374      0.86008437      2.63453326
H      -0.17692116      1.48186121     -0.42685368
H       3.87186814      1.35363298     -0.02605816
H       3.24479687      2.32734620      1.31199633
H       2.77776393     -0.60573545      0.74126757
O      -2.07362879      4.40657344      1.74060105
H      -2.34960402      5.24859444      2.13563940
H      -2.82658127      4.13303105      1.18561408
O       5.51572961      1.50529176     -1.46779902
H       6.40417083      1.13290752     -1.58153781
H       5.14194312      1.54513820     -2.36838334
O       4.39413420      1.65362853     -4.11702188
H       4.38826380      2.38776178     -4.75929271
H       3.48266947      1.30617460     -4.12903963
O      -0.08342652     -2.18814783      6.93848853
H       0.27356219     -3.08906454      6.97443416
H       0.06965630     -1.80781315      7.81693105
O      -2.39248180     -2.03414558      5.13948373
H      -3.03134975     -1.46550081      5.59603130
H      -1.60436977     -2.05113955      5.71531408
O       2.82271703      6.40198092     -6.25457113
H       2.02010767      6.52325609     -6.78408387
H       3.15906450      7.29419560     -6.08145972
O       3.40022994     -2.43054904     -0.89270085
H       3.10037120     -3.20108301     -0.37581056
H       4.26997802     -2.67815947     -1.23929444
O      -4.54271253     -4.65857804      1.93404425
H      -4.41655851     -4.16438105      1.10248311
H      -5.29835132     -5.24181982      1.76730615
O      -6.83677912      2.67063476     -0.97836645
H      -6.08977041      2.08357240     -1.19880730
H      -7.61698098      2.09606229     -0.99482129
O       1.59049471      0.79209146     -3.96475718
H       1.38296197      0.10810410     -3.30218503
H       1.33108598      1.62823801     -3.54200872
O       1.05560143     -1.03186458     -1.75254754
H       1.85694334     -1.53427783     -1.51653982
H       0.97392041     -0.35186866     -1.04017230
O      -4.34986887      3.67499096      0.13606779
H      -5.29347046      3.85454519     -0.00661784
H      -4.20514063      2.84617354     -0.35513412
O       0.14021824     -3.42945532      1.83011336
H      -0.58262782     -3.81586563      2.35477803
H       0.30579420     -2.56279848      2.24909183
O       4.30313210      3.87383607     -6.01057484
H       3.80606300      4.71095356     -6.07935587
H       4.73886083      3.76259273     -6.86986513
O      -2.05896746     -4.35026796      3.39216136
H      -2.22466540     -3.61230701      4.01059801
H      -2.90693385     -4.49706763      2.93417274
O      -4.12380307     -3.16446673     -0.48176536
H      -4.57855772     -2.30988080     -0.60576527
H      -3.17527323     -2.98801847     -0.63312276
O       0.46179909      3.20479449      2.51441014
H      -0.39097785      3.62314501      2.28758362
H       0.57775338      2.49694394      1.83588801
O      -1.87119016      1.97432504     -2.55918632
H      -1.84834179      1.49594716     -3.40323768
H      -2.73219943      1.73986723     -2.16901383
O      -1.22049053     -2.67269765     -0.72230237
H      -0.52893945     -2.14210403     -1.15929738
H      -0.79916523     -2.97802073      0.10512973
O       2.42187338     -4.66129324      0.62901336
H       1.64027484     -4.26169464      1.05472421
H       2.27610370     -5.61750112      0.68104480
