101
charge=0
O       6.09925929      1.93634205     -1.93536103
N       8.67538945      5.53172861     -0.76111191
N       8.93986758      5.10752660     -1.92274306
N      -1.74965011     -2.43413524      0.24111705
N       7.70524919      5.28149997      0.05744169
N       3.92045251      3.71242104      1.00111083
S      -1.89006849     -0.84110385      2.25440700
C       5.41450107      2.54759287     -1.12333447
C      -1.13063712     -1.40811323      0.76915110
C       7.09494084      4.39969685     -0.75628385
C       3.47288097      2.64182323      0.32133510
C       5.06757298      4.20987510      0.59277038
C      -2.99194588     -2.15474589      2.16053540
C       2.28808419      2.03745928      0.73594671
C       2.41275245      0.47378223     -1.07394280
C       5.85510659      3.72748738     -0.43846166
C       1.75817068      0.93588152      0.09214709
C       3.55683680      1.06165494     -1.48593179
C      -2.78166783     -2.86989729      1.02553967
C       0.01313138     -0.81712296      0.17052846
C       0.58964458      0.30870561      0.63638006
N       7.86357529      4.30625796     -1.96721465
N       4.13069194      2.09197891     -0.77391802
C      -2.79888305     -5.22373499      0.18386718
C      -4.57094669     -3.58124100     -0.55381811
C      -3.65236743     -4.02240540      0.58406101
H       5.42787976      5.07568928      1.12441213
H      -3.75298300     -2.36587737      2.88596151
H       1.78226789      2.43336917      1.59416269
H       2.00236143     -0.34582852     -1.63450312
H       4.03509635      0.75630772     -2.39973844
H       0.42122114     -1.30514168     -0.69466118
H       0.14004115      0.78121767      1.49124571
H       7.52944771      3.92417557     -2.87114616
H      -2.16377453     -4.97486120     -0.66573308
H      -2.14522316     -5.53343617      0.99972625
H      -3.41521376     -6.07674041     -0.10148669
H      -5.23670822     -4.38541828     -0.86804212
H      -3.98568320     -3.27548220     -1.42079100
H      -5.18475436     -2.73006434     -0.25806646
H      -4.27599468     -4.31185033      1.44621077
O      -6.41004811     -5.18472735      2.25961678
H      -6.86611346     -4.91675908      1.44121719
H      -6.70434022     -6.09419887      2.42048323
O      -5.26847841     -3.32956257      4.13495158
H      -5.68038065     -3.93924055      3.49511710
H      -4.86800171     -3.90199717      4.80725690
O      -7.82681575     -1.83448635     -1.25239461
H      -7.09394148     -1.23626662     -1.01924845
H      -8.45949734     -1.27625910     -1.72841119
O       1.81149133      4.42491313      3.03636104
H       2.51954886      4.22587651      2.38339965
H       2.16738110      5.15702571      3.57085069
O       2.94856939      6.60591266      4.58129974
H       3.75868928      6.57513933      5.11222338
H       2.64518017      7.52554528      4.61682313
O      -6.09750645     -0.57614961      4.42021826
H      -5.83290303     -1.51294476      4.34419217
H      -6.74303526     -0.54548763      5.14172579
O      -7.75622311     -4.48605700     -0.17596446
H      -7.77862889     -3.57507623     -0.52080937
H      -8.40669555     -4.96743632     -0.70918968
O       1.78448461     -2.06678483     -2.86553556
H       2.44815559     -2.50091532     -2.29493133
H       0.94799785     -2.54905661     -2.73959866
O      -2.88193459      0.19383926     -1.34479853
H      -2.54075541     -0.46398541     -0.71043539
H      -2.53372749      1.03436296     -0.99806001
O       6.67962032      3.02479093     -4.45710592
H       6.79156083      2.31684560     -5.11056220
H       6.39167772      2.57720951     -3.63664813
O      -2.81588084     -1.53397206     -3.69059418
H      -3.17978367     -1.06085049     -4.45320339
H      -2.87059122     -0.90699627     -2.94346493
O       4.04056457     -2.95004570     -1.23450935
H       4.56209333     -3.57374728     -0.70797214
H       4.68831961     -2.30499385     -1.57677467
O       8.93651514      1.60599098     -1.27388470
H       9.25644763      2.52528434     -1.33086947
H       7.98235979      1.66588299     -1.48489818
O       3.73394155     -0.53561190     -4.34605187
H       3.03322892     -1.05435134     -3.90678689
H       3.45495441     -0.45697522     -5.27022329
O      -4.96439221      0.69119067      2.11495093
H      -4.06319679      0.32403505      2.16511511
H      -5.41015208      0.34103269      2.90701402
O      -1.77843052      2.51504962     -0.04482535
H      -1.87744972      3.44192066     -0.30893337
H      -1.33420872      2.54556794      0.82320440
O      -0.84118106     -3.26818052     -2.45287268
H      -1.11534775     -3.02577407     -1.53785755
H      -1.47291027     -2.77455010     -3.00761409
O      -0.41076179      2.62205824      2.56599174
H      -0.82088567      2.44906300      3.42675195
H       0.29954069      3.26438832      2.75062712
O      -5.67136407     -0.10693393     -0.56412166
H      -4.78452794      0.01072091     -0.94962772
H      -5.55603539      0.20571640      0.35118740
O       5.85374958     -0.95140119     -2.39879726
H       6.03781988     -0.01850247     -2.17645235
H       5.23987684     -0.88095662     -3.15667085
