98
charge=0
O       0.39760205      0.30494317     -1.67999890
Cl      4.59342174      2.06096718      2.82478383
N       1.82982586      0.42220081      2.80489013
N       4.52274417      1.03494295      0.37845511
N       2.84982263     -0.47298775     -0.46141008
O      -4.58514646      0.36499445      0.57646039
C       0.81302486     -0.29348076      2.41460233
C       3.97558933      0.22071558     -0.56020002
C       3.93462169      1.09291602      1.55327696
C       2.22328912     -0.33703396      0.70720821
C       2.72712992      0.41769498      1.76941730
C      -3.29417507      0.33284495     -0.01088054
C      -2.97624154      1.22227558     -1.05524468
C      -2.32179042     -0.58192770      0.44658212
C      -1.73027438      1.17195941     -1.60872798
C      -1.07514406     -0.60131412     -0.13956976
N       4.58484267      0.20292626     -1.82550936
N       0.99518129     -0.80406071      1.13725556
N      -0.77207842      0.28941392     -1.16127342
C      -5.47410049     -0.57176359      0.00162889
C      -3.97057028      2.21355176     -1.52904717
C      -2.66515123     -1.51366007      1.54634769
C       0.01682543     -1.50067647      0.30390406
H      -0.08119174     -0.42127161      3.00768756
H      -1.45172837      1.83514050     -2.40338508
H       3.94957362      0.40153375     -2.59541525
H       5.43111676      0.74255151     -1.96186215
H      -6.42661033     -0.52747589      0.53035395
H      -5.05846462     -1.57603260      0.08597541
H      -5.62849470     -0.33055184     -1.05041431
H      -4.92544333      2.08616786     -1.01907660
H      -4.13642685      2.11257220     -2.60248357
H      -3.62096590      3.22922019     -1.34157720
H      -3.65759504     -1.30461482      1.94401690
H      -1.95762288     -1.43275933      2.37041668
H      -2.66081883     -2.54454680      1.19479120
H      -0.35913878     -2.36914156      0.84756275
H       0.54031320     -1.87818784     -0.57643829
O       2.32562234      1.09539865     -3.61730233
H       1.71255424      0.76222034     -2.93226146
H       2.25276262      0.46155645     -4.34685527
O       2.10610432     -2.37591184     -2.61876802
H       2.28857909     -1.72605888     -1.90326058
H       3.00096510     -2.65723161     -2.87315567
O      -2.87724276      3.11719274     -4.21859664
H      -3.01341860      3.40007561     -5.13635936
H      -1.90955472      3.11455057     -4.09424633
O      -0.85474374     -4.09395761      3.00604122
H      -0.33700481     -4.02264148      3.82106181
H      -1.77951549     -3.94665367      3.27775347
O      -0.03263096      3.04916727     -3.76554290
H       0.70194112      2.41145977     -3.82395026
H       0.30668102      3.73741174     -3.16436370
O      -3.59395428     -3.56505160      3.70036590
H      -4.15301931     -3.71367736      2.91365480
H      -3.98800903     -2.79429577      4.14981689
O      -1.72704751     -0.13782328      4.56389185
H      -2.45489202      0.35005829      4.13325782
H      -2.16593899     -0.78828360      5.13279359
O       1.20708388      4.90311364     -1.91201915
H       1.32233941      5.83532717     -1.67852718
H       2.09515945      4.58644841     -2.16721084
O       5.87642289      3.47048666     -0.55584832
H       6.00597916      4.08855133      0.17681111
H       5.42951283      2.69080590     -0.15994310
O       7.06232577      1.74078260     -2.51529251
H       6.76221466      2.40765547     -1.86860347
H       7.82094156      2.13941402     -2.96744094
O       3.67668671      3.69165539     -2.66872508
H       4.40614139      3.55023842     -2.03674593
H       3.36398331      2.81068347     -2.95382050
O      -4.68561246     -1.14969735      4.91299141
H      -4.54944940     -0.34690416      4.37447664
H      -5.37000239     -0.91826201      5.55757123
O      -0.60099432     -3.33622835     -2.28540433
H       0.29411486     -3.00611705     -2.48310462
H      -0.49890082     -3.87332704     -1.47344273
O      -3.10075057     -3.87646247     -0.86799254
H      -2.80094294     -3.52191850     -1.71582601
H      -2.29564032     -4.25933748     -0.48259970
O      -0.56147184     -4.85479719      0.26109191
H      -0.63535306     -4.62009226      1.20483132
H      -0.02669416     -5.66198848      0.24464467
O       0.88133010      2.70594417      0.09839998
H       0.63689945      1.90334791     -0.41119736
H       0.96733089      3.42507932     -0.55840766
O      -4.05498272      1.18393257      3.28440527
H      -4.05630914      2.15158451      3.29758476
H      -4.22326140      0.94167748      2.35415290
O       4.99883771     -2.59370677     -2.86172553
H       4.90222293     -1.68449372     -2.49878971
H       5.93986191     -2.80746519     -2.78139405
O       0.71478602      1.29210321      5.45384262
H       1.18720082      1.08091388      4.62089837
H      -0.15456733      0.87113650      5.30435476
O      -5.10019939     -3.90555772      1.20680890
H      -5.79018480     -4.53343169      0.94487248
H      -4.45163782     -3.91812161      0.47735958
