96
charge=0
O      -1.76426965      2.10428705     -2.33967865
O      -0.59894161      1.04414993      1.75372959
S      -1.24305294      3.18434946      0.01098836
S      -1.26576699     -1.49823444      1.37159418
C       1.76324042      2.21366904      0.58134698
C       2.81787336      0.75553353     -1.14684392
C      -1.81535687      3.51820739     -2.56665828
C      -1.78273149      0.87454593      2.53230763
C      -1.78985231      4.30253221     -1.25494390
C      -2.18858390     -0.59817614      2.60739853
C      -1.46193155      0.49865902     -0.49211869
C       0.51173028      1.67228276     -1.56910407
C       0.88378658     -0.14505403      0.19401958
C      -0.97384858      1.80838837     -1.14648169
C      -0.56690938      0.05287048      0.68918401
C       1.48681376      1.13268440     -0.47128317
H       2.15247437      3.11864767      0.11783025
H       2.49357609      1.86949765      1.31037490
H       0.85357003      2.47624321      1.11662406
H       3.25749241      1.61855190     -1.64554038
H       3.53454565      0.38921193     -0.41339125
H       2.67133975     -0.02540182     -1.89221254
H      -0.95306113      3.77360916     -3.19613707
H      -2.71692674      3.73089185     -3.15639352
H      -2.56012093      1.48265033      2.05277849
H      -1.60732095      1.31113220      3.52342352
H      -1.11898510      5.16481263     -1.29647574
H      -2.78433811      4.66540954     -0.98334800
H      -3.25805188     -0.73945793      2.42997604
H      -1.96088949     -1.02687070      3.58665038
H      -2.48501498      0.63537301     -0.13341085
H      -1.49949823     -0.29247346     -1.24624150
H       0.86367387      2.64951194     -1.90871111
H       0.55851202      1.01858975     -2.44433052
H       0.91071913     -0.97058799     -0.52152271
H       1.50983609     -0.44931562      1.03674813
O       3.31361901     -3.48050216      2.86274569
H       3.49695007     -4.19497089      3.48929259
H       2.52381011     -3.02622359      3.21265314
O       3.91970060      1.15753659      2.91906408
H       4.73917852      1.64939778      3.07582994
H       4.19242162      0.35668156      2.43344497
O      -1.41312252     -1.29296481     -5.63062079
H      -1.26305081     -1.84136897     -6.41413484
H      -0.81686255     -1.64605497     -4.94388403
O      -0.96406180      1.54873343     -5.09892902
H      -1.15498463      0.61285714     -5.29250205
H      -1.27113420      1.69354685     -4.18360980
O       1.27486405      3.08136185     -5.97693738
H       1.03019814      3.39673466     -6.85988057
H       0.51119002      2.55495240     -5.67761951
O      -3.41015916      0.97508510      5.53952484
H      -3.80592083      0.45055316      6.25206418
H      -2.46133854      1.02144263      5.75857175
O       1.25135140      0.86548353      3.98638131
H       2.15496148      1.02103328      3.65778528
H       0.66973364      0.98149567      3.20877841
O      -4.26569730      0.66461132     -2.16456783
H      -3.46682123      1.22670141     -2.20871964
H      -4.62647099      0.80579300     -1.26961859
O      -4.67259685      2.05929755      3.18252924
H      -4.79892095      2.99469617      3.40425281
H      -4.25912219      1.66817170      3.97401530
O      -0.59962535      1.06255947      6.19073274
H      -0.05587786      1.22582281      6.97587474
H       0.03498026      1.00079743      5.45333285
O       1.00860708     -2.02547878      3.75599589
H       1.15156962     -1.08926011      3.98144963
H       0.30489272     -1.98388816      3.08470178
O      -5.25455533      1.01956414      0.54565771
H      -6.15600827      0.67426494      0.64367089
H      -5.02909357      1.38079476      1.42256557
O       0.35447254     -3.58281252     -0.63282827
H      -0.07797422     -2.99034849      0.00872626
H      -0.31651338     -4.25989927     -0.82055380
O      -0.11763276     -2.20573774     -3.16783346
H      -1.07892990     -2.08533072     -3.02879084
H       0.17629427     -2.67545984     -2.36843109
O      -2.42087750     -3.62079821     -1.00447192
H      -2.73588016     -3.05956742     -1.73662441
H      -2.24760624     -2.99925216     -0.27286762
O       4.65037386     -1.23520956      1.49305867
H       4.28235724     -1.96598509      2.02441957
H       4.59693872     -1.56946901      0.58252782
O       3.27996961      3.39163320     -3.94988113
H       4.08972365      3.05400877     -4.36186775
H       2.59053689      3.29450654     -4.63214205
O      -3.06999710     -1.75348460     -3.12422915
H      -2.81470220     -1.55883869     -4.04475207
H      -3.54757061     -0.96074995     -2.82296269
O       2.44988380      4.60038880     -1.46837417
H       2.64037481      5.54651824     -1.56988926
H       2.73612515      4.18922297     -2.30622437
O       3.18569288     -3.11209342     -0.07813086
H       2.26306247     -3.29366933     -0.33724348
H       3.22107575     -3.33993829      0.87204480
