101
charge=0
O      -1.50302678     -4.53102960      4.08938834
N      -3.66684089     -3.86999197      3.76433240
N      -4.38628908     -3.01507492      3.16805242
N       2.80708319      3.24240206     -3.85664733
N       3.62500405      2.24199753     -4.03837806
O      -0.52983514      0.71027496     -2.59542745
C      -2.35555374     -4.06184443      3.35799461
C       1.60668797      2.80966967     -3.48543909
C       2.96855832      1.09599258     -3.78808654
C      -0.87902489     -4.17128934      1.43812983
C       3.40428749     -0.24991349     -3.77154330
C      -1.97911352     -3.66041220      2.00352747
C       1.65078683      1.41786547     -3.41372525
C      -2.77567739     -2.59787372      1.43558671
C       2.52133416     -1.19887292     -3.38340392
C       0.74734367      0.40646853     -2.99292774
C      -3.91414177     -2.26279400      2.12195014
C      -0.38524278     -0.47008126     -0.48617587
C      -0.94715562     -1.25921058      0.47520198
C      -2.36555702     -0.70826086     -1.81719490
C      -1.09256574     -0.16678525     -1.64719424
C      -2.23081041     -1.78896047      0.32536706
C      -2.93871200     -1.52568445     -0.86749644
N       1.23406529     -0.86515471     -3.00499006
C      -4.68657439     -1.03444038      1.81014634
C      -4.27165861     -2.12453776     -1.14804940
H       0.76749818      3.44086645     -3.23766113
H      -0.53557372     -3.85133827      0.47543686
H      -0.29722392     -4.90340698      1.96055587
H       4.41070795     -0.49815403     -4.05807762
H       2.81630057     -2.23522703     -3.36004161
H       0.58182347     -0.02317512     -0.33366227
H      -0.41227186     -1.46275682      1.38724114
H      -2.90602313     -0.48017367     -2.71703786
H       0.59094084     -1.63239912     -2.78363679
H      -4.18498815     -0.41062661      1.07073583
H      -4.80985330     -0.44143282      2.71675529
H      -5.67900610     -1.28156836      1.43472591
H      -5.02745859     -1.34581409     -1.25369334
H      -4.24678033     -2.69821922     -2.07482837
H      -4.58833923     -2.79872276     -0.35308893
O       0.34341173      3.83879482      0.96453558
H      -0.36318952      3.51049534      0.37747045
H      -0.08461338      3.97656267      1.82232495
O      -6.89230867      1.85915357      1.25240928
H      -7.70286110      2.22263201      1.63922286
H      -6.24318165      1.84124008      1.98135989
O       4.01740258      2.48269971     -0.93301738
H       3.78013418      2.34274184     -1.87119243
H       3.68326611      3.37592274     -0.72166546
O       1.26931523     -2.61946639      6.70804362
H       1.74841402     -2.60215121      7.55023562
H       0.55491862     -3.27499509      6.82907602
O      -5.21231813      0.77274269     -0.85108904
H      -4.85285254      1.53431707     -1.34522932
H      -5.80494769      1.15752773     -0.17858627
O      -4.06985851      3.03518120     -2.38848081
H      -3.58934288      2.63331791     -3.13806649
H      -4.61601143      3.73345482     -2.77721432
O      -0.90053060     -4.54388591      6.88936281
H      -1.59572995     -5.05546905      7.32974891
H      -1.13840133     -4.55983172      5.94063968
O       1.97857098      1.33542827      0.82897621
H       1.46853163      2.16899518      0.89559500
H       2.74729259      1.58134868      0.28567832
O      -2.65560886     -4.86582357     -1.22138074
H      -3.12010723     -5.70869849     -1.11668540
H      -2.64681292     -4.45887807     -0.34107022
O      -4.90582394      1.74258988      3.32630194
H      -4.70787208      1.85443754      4.26779648
H      -4.03851929      1.76354839      2.88052866
O       0.01673424      0.42264951      2.82825430
H       0.21029096     -0.43690993      3.24403340
H       0.77568608      0.62744440      2.25086395
O       7.74956099      0.35814613     -5.49478881
H       7.30869890      1.19933384     -5.27152776
H       8.53599375      0.61071248     -6.00155478
O       6.43337417      2.83913813     -4.82970639
H       5.50328116      2.65466984     -4.57334733
H       6.60108435      3.74633315     -4.53503572
O       0.41498437     -2.21714182      3.95657202
H       0.79611743     -2.25838643      4.85202529
H      -0.20678240     -2.97163857      3.94659908
O      -0.55935541     -3.31593679     -2.59308075
H      -1.26918329     -3.80867513     -2.13915534
H      -0.32463588     -3.86788247     -3.35656136
O       6.00012241     -1.71821369     -4.49626935
H       6.57800066     -2.46923790     -4.28891996
H       6.59501410     -1.02830808     -4.84667297
O      -2.45779817      1.78253890     -4.43159993
H      -1.76712304      1.39648484     -3.85827673
H      -2.17875895      1.58679299     -5.33764831
O       2.73549950      4.98560868     -0.22937081
H       2.79267265      5.91202156      0.04837575
H       1.91819856      4.63893277      0.17873688
O      -2.39841810      1.71846243      1.98706941
H      -1.59171718      1.27073807      2.30095486
H      -2.18805250      2.02769794      1.08545494
O      -1.69694781      2.71649723     -0.72340937
H      -1.25784340      2.06411326     -1.30202536
H      -2.52740435      2.91167263     -1.19184916
