83
charge=0
N      -1.05167003     -2.94070369      2.15470995
N       0.79462505     -1.78536551     -0.72090614
N       3.20178154      0.87938104     -0.44848757
C      -2.22452648     -3.51860363      2.07636111
C       0.47435045     -1.91718289      0.54875746
C       1.12760351     -1.21761478      1.57678259
C      -2.65959915     -3.62603211      0.74745796
C       2.07602764     -0.29634140      1.28675637
C      -1.66471029     -3.07915875     -0.02461726
C       2.39009782     -0.08572338     -0.06126459
N       3.40606197      1.17173078     -1.70730403
N      -1.69654021     -2.77883667     -1.37505719
N      -0.68747156     -2.68009467      0.88735012
N       1.74401263     -0.90377050     -0.97904326
H      -2.79860925     -3.77672913      2.95358138
H       0.81557674     -1.38592446      2.59271985
H      -3.61344677     -3.98603294      0.40035671
H       2.54652896      0.29927496      2.04902491
H       4.33237548      1.54056624     -1.93084787
H       3.21809960      0.41749043     -2.36780379
H      -2.36375638     -3.21990629     -1.99585410
H      -0.82903939     -2.62556013     -1.88670184
H       2.08739713     -0.92391423     -1.94772560
O       5.52140552      2.19557126      0.71888840
H       5.07618253      2.57768460      1.49639483
H       4.78651420      1.71673105      0.26506748
O      -0.28032029      2.58096087      1.13186027
H      -0.84459163      1.78510099      1.16836332
H       0.04818432      2.64868882      0.21692453
O      -3.26892556     -3.31094546     -3.73338515
H      -2.92316530     -2.41488806     -3.91749819
H      -3.21751957     -3.78587431     -4.57697358
O       4.89804733      1.17708518     -4.50092406
H       5.10700068      1.73322852     -5.26619493
H       5.38865611      1.57122254     -3.75524922
O      -5.93771090     -3.71840768      2.19328076
H      -6.62541059     -4.31662814      1.86307191
H      -5.95086423     -2.96244516      1.57866942
O       1.21730499      1.90012873      3.48589862
H       0.74617580      2.21625519      2.69125347
H       0.54978750      1.34149610      3.92534068
O      -2.12638981     -0.62826196     -4.16346481
H      -2.63937889      0.06259989     -4.60812099
H      -1.73405956     -0.18676146     -3.38622439
O      -6.01714824     -1.55460559      0.30630995
H      -6.69060935     -0.99477966     -0.10778858
H      -5.16779673     -1.19045916     -0.00197747
O      -4.25517557     -3.90089256      4.51563983
H      -4.77494633     -4.40678515      5.15892703
H      -4.83588930     -3.81471787      3.73686345
O       0.31459213     -2.28625399     -3.60737958
H       1.13564419     -1.77579798     -3.74256649
H      -0.41734740     -1.71542188     -3.91228353
O       6.25494858      2.37148161     -2.17795843
H       6.12913277      2.35356735     -1.21057001
H       7.05236956      2.90603507     -2.30966498
O      -0.73703409      0.55955190     -1.96971976
H      -0.02685970     -0.01427763     -1.60304026
H      -0.34322935      1.44633253     -1.90390651
O      -1.77356464      0.12456778      1.68374467
H      -1.59769523      0.19497653      2.64033913
H      -1.45873686     -0.77795427      1.44908544
O      -1.05213234      0.26799227      4.53686735
H      -1.46367029      0.83817576      5.20424637
H      -1.30594082     -0.63663320      4.79743504
O       2.93476315     -0.85124489     -3.89709175
H       3.37460358     -1.69306385     -4.09929222
H       3.56361037     -0.17154343     -4.20770296
O       0.90272480      2.86583847     -1.57015590
H       1.25875997      3.74375219     -1.35622887
H       1.70321285      2.28764225     -1.62538679
O      -1.88729746     -2.37527126      5.28423581
H      -2.70631995     -2.84672141      5.04522158
H      -1.21018384     -3.06724137      5.33815456
O       3.71936317      3.23232671      2.80491113
H       2.90082879      2.77481278      3.07427086
H       3.96358935      3.77764110      3.56678439
O       3.00646885      3.86979713     -0.02748326
H       3.21274514      3.75735475      0.91889290
H       3.14139859      2.97255123     -0.41540067
O      -3.50356223     -0.47448702     -0.58486887
H      -2.91990652     -1.20137382     -0.89216204
H      -2.99350043     -0.07713332      0.14264566
