95
charge=0
S       4.81963537     -0.41523030      1.30332282
Br     -4.54472804     -3.98098190      0.30044330
N      -4.43658364     -1.20698104      0.64339128
N      -2.43247325      1.90158054      0.63434186
N      -1.20034156      0.01761973     -0.23590949
O       1.43871006     -3.06016306     -2.59839510
O      -1.57058419     -2.91799790     -2.83378715
O      -0.38054360     -2.96349472      0.54548764
O       2.69444232      1.06651438     -0.27032707
O       4.49118600     -0.07129204     -1.64654644
O       2.70652230     -1.42586865     -0.58948929
C      -3.78600371     -2.27656595      0.29526216
C       0.53931327     -2.91288149     -1.58442964
C      -0.78795406     -2.91251619     -1.74568207
C      -1.32821448      1.32370920      0.10003805
C      -3.52295591      1.14975052      0.83333592
C      -2.28598899     -0.70006256      0.02064460
C      -3.49956176     -0.19190704      0.51444103
N      -0.24639430      2.11593424     -0.09138891
N      -2.47293926     -2.05445537     -0.12034773
C       1.66876897     -1.72195029      0.37832998
C       0.89717515     -2.94399209     -0.12919743
C      -1.44359208     -3.05424984     -0.40531456
P       3.69733007     -0.17977812     -0.25935972
H       2.32382070     -2.68147113     -2.41173037
H      -1.03884946     -2.85818564     -3.67435968
H       2.81369131      1.75805144      0.49001590
H       3.93846817      0.41718754     -2.35367851
H      -4.40408032      1.62357414      1.26194852
H       0.59339486      1.70995494     -0.47893355
H      -0.23182373      3.08179399      0.23342701
H       0.97776419     -0.87407517      0.43437136
H       2.11315109     -1.90951332      1.36298524
H       1.44487342     -3.86573641      0.12634662
H      -1.95503287     -4.02250032     -0.30549724
O      -0.30974351     -2.85481975     -5.24585820
H       0.42884178     -2.21990415     -5.29939601
H       0.12481138     -3.71484219     -5.34376005
O       4.39288784     -4.78032584     -4.61127142
H       4.72750203     -4.77341964     -5.51339920
H       3.44916733     -5.01941049     -4.69005148
O      -6.23488729      1.33962860      4.14477174
H      -6.85124637      1.53081169      4.85748671
H      -5.96053754      2.21003974      3.78377894
O      -2.92050933      4.20368447      1.98929791
H      -2.65546870      3.44137494      1.39317225
H      -2.70361871      5.00323041      1.49592493
O       0.45103481      4.62417542      1.29238762
H       1.37468773      4.32738701      1.31799565
H       0.16627143      4.55294179      2.21741157
O       2.83409090      2.83483573      1.55324358
H       3.81578962      2.96311970      1.70549881
H       2.45216512      2.40199890      2.33846549
O       1.55792123     -5.10734329     -4.47135724
H       1.47060162     -4.49543973     -3.71063118
H       1.23311448     -5.95706100     -4.15489775
O       1.88477659     -0.92804401     -4.83720952
H       1.33300526     -0.77012523     -4.04883038
H       2.61105070     -1.48062866     -4.49294248
O       5.48865948      2.96050395      1.58560522
H       5.65487967      2.01735559      1.74044015
H       5.65148489      3.04515756      0.62539226
O       3.03969164      1.27280668     -3.34159017
H       2.86917294      0.75265404     -4.14896211
H       2.17375441      1.25303687     -2.89885834
O      -5.37238436     -1.42153972      3.54388527
H      -5.51719753     -0.51381784      3.85149306
H      -5.33176370     -1.34518272      2.57906182
O      -0.05983783     -1.42700010      3.21148452
H       0.15559890     -0.48421551      3.13494899
H      -0.26687954     -1.72106486      2.31423597
O       0.67401688      1.49503647      2.88856316
H       0.38221302      1.63068464      1.97429623
H       0.12725513      2.13083209      3.38528720
O      -2.73630488     -2.54274956      3.00204185
H      -3.52571576     -2.18210265      3.43782993
H      -1.98322972     -2.13280674      3.45118438
O       3.92514201     -2.35767921     -3.38242325
H       4.30476069     -3.17938511     -3.76196306
H       4.59759986     -1.91904980     -2.84641041
O      -6.79479997      1.07150665      1.28406049
H      -6.50380094      0.23786255      0.89356175
H      -6.86360595      0.88469553      2.23435181
O      -0.84879413      3.79436753      3.80225045
H      -1.69535600      3.94054720      3.32735086
H      -0.98663136      4.11237301      4.69964754
O       5.74898475      2.70374095     -1.26991944
H       5.75213350      1.74057031     -1.36135240
H       5.00160211      2.97794453     -1.81370188
O       0.33585415      0.23069551     -2.71970016
H      -0.42952646      0.63645281     -3.14313395
H      -0.03039291     -0.15918645     -1.89992016
O      -5.71107092      3.59247605      2.61501818
H      -4.81121610      3.87731787      2.37777028
H      -6.06879245      3.16226192      1.82539751
