82
charge=0
Cl      0.90770654      4.56163319      2.27783754
Cl     -1.40742176      2.93129967      2.96967822
Cl      0.88215567      3.10514056      4.81934770
N      -0.19232504     -1.33787012      3.83348462
N       0.64651510     -1.70463012      2.88440156
N       1.81062251      1.93371947      1.44729293
C       0.99364559      1.81037587      2.44546457
C      -0.24263692      0.00337232      3.92159157
C       0.61289291      0.53034324      2.96244623
C       3.75132646     -0.16327558     -0.84679879
C       3.43701963     -1.44936954     -0.38780131
C       3.21605332      0.95025638     -0.22998134
C       2.58071418     -1.63308010      0.68531229
C       2.34354102      0.80300047      0.85960569
C       2.03346018     -0.50779303      1.29416735
N       1.14290488     -0.58134053      2.35721727
C       0.39206107      3.05982470      3.07957316
H      -0.87971676      0.51364288      4.62742869
H       4.40221659     -0.03422932     -1.70557102
H       3.85131732     -2.32681164     -0.87282089
H       3.44235836      1.95294243     -0.57619653
H       2.34137788     -2.63231496      1.03151127
O      -2.73525395     -2.44908918      4.29989060
H      -2.88984805     -2.78596540      5.18777575
H      -1.77248842     -2.24617049      4.25309268
O      -1.41654813     -0.30071131      0.74681487
H      -1.95964046      0.02494090      1.48938881
H      -2.04250488     -0.82788017      0.21856240
O      -3.39051366      0.11815590      2.83095067
H      -4.13962037     -0.09946380      2.25390117
H      -3.31675691     -0.64819091      3.42062985
O      -1.51652953     -3.49015064     -3.47410936
H      -2.31184553     -3.89225465     -3.10345486
H      -1.76062433     -2.56954450     -3.67204413
O      -1.94872370     -0.62928843     -3.33478356
H      -2.12912589      0.08122244     -3.95786504
H      -1.16875178     -0.33536160     -2.79872215
O      -0.80429957     -3.58502959      1.01208748
H      -0.21515835     -3.13787812      1.64181065
H      -1.69218684     -3.24893938      1.23218295
O      -5.14810471     -1.09733714      0.82677696
H      -4.62372865     -1.16623084     -0.00125581
H      -6.07301081     -1.08775045      0.56390235
O      -3.61755472     -3.36317313      1.73579780
H      -3.40844316     -3.27501359      2.68242400
H      -4.23594600     -2.63446683      1.54988921
O       5.64747592      3.44513911     -1.58620440
H       5.02775942      3.84898412     -0.93878861
H       6.30660641      2.98822762     -1.05534860
O       2.67174949     -4.47364574     -0.80294784
H       2.50882016     -5.40805493     -0.95677375
H       1.88283701     -4.02211830     -1.15459298
O       1.69210695      6.78914800      0.40263184
H       1.27480996      6.30886108     -0.32396374
H       2.59032168      6.43245003      0.39872754
O      -3.26832021     -1.62421163     -1.06582100
H      -2.97782733     -1.23734546     -1.91485485
H      -3.09357245     -2.58627531     -1.11483180
O       0.35083296     -2.90963047     -1.44604984
H      -0.12506896     -3.09096349     -0.60538952
H      -0.26080560     -3.19179693     -2.15976033
O       0.11138982     -0.12622181     -1.61762839
H       0.38361891     -1.06799994     -1.52877839
H      -0.31419928      0.07562894     -0.76163714
O       1.44787202      2.06344607     -2.94301804
H       1.15424945      1.25256757     -2.49234084
H       2.40204240      1.93923711     -3.11489322
O      -2.94092386     -4.46016299     -0.87275539
H      -2.03036019     -4.67524317     -0.62973781
H      -3.38616755     -4.43668257     -0.00883730
O       3.67950922      4.47079739      0.07850796
H       3.48475309      4.00808981      0.90386347
H       2.84578776      4.33798979     -0.43977285
O       4.25729257      1.88768532     -3.41121905
H       4.77259139      2.45959038     -2.80042830
H       4.47761532      2.20573574     -4.29192825
O       1.64018124      3.48480121      7.74702903
H       2.48607335      3.92537984      7.61690144
H       1.01531591      4.20857931      7.85881776
O       1.25779746      4.11176828     -1.15538498
H       1.28745821      3.40290503     -1.84873156
H       0.80231175      3.70080826     -0.40999314
