101
charge=0
O      -1.84225663     -4.20483651      4.95892254
N      -3.27074000     -2.45508469      4.66379278
N      -3.75880607     -1.59200877      3.86146512
N       2.40684438      1.18245439     -2.15731299
N       3.39550076      0.57843051     -2.87945524
O      -0.53218673     -1.98927367     -3.26931470
C      -2.42905195     -3.48220027      4.16213951
C       1.27805853      0.47718433     -2.21734773
C       2.88285084     -0.53677399     -3.40637072
C      -1.87667522     -4.78687368      2.18449823
C       3.48234787     -1.49942742     -4.24565057
C      -2.29692636     -3.61154890      2.69574395
C       1.50287863     -0.66169604     -3.01747135
C      -2.74902351     -2.50316697      1.87487467
C       2.70879963     -2.53812502     -4.66702238
C       0.78882230     -1.74766436     -3.47533524
C      -3.53511764     -1.55821165      2.48848460
C      -0.22476413     -2.22876324     -0.85811857
C      -0.84571015     -2.40820779      0.36492618
C      -2.41780435     -2.08122823     -1.88344465
C      -1.03131175     -2.06265752     -1.97869762
C      -2.24417379     -2.40221018      0.49791978
C      -3.04798639     -2.24961283     -0.64989090
N       1.39265731     -2.64721156     -4.26958888
C      -4.12974311     -0.36073292      1.82253739
C      -4.54912333     -2.30830367     -0.61248996
H       0.37791986      0.79772881     -1.70881666
H      -1.84338109     -4.95583955      1.11269398
H      -1.60161143     -5.59649426      2.85336816
H       4.51434147     -1.43232114     -4.56690171
H       3.07561951     -3.31198605     -5.32962316
H       0.85691901     -2.18398652     -0.91364052
H      -0.23176235     -2.49065225      1.25528338
H      -3.00497188     -1.95901424     -2.78899148
H       0.85116855     -3.48838185     -4.52423241
H      -3.57272372     -0.08732239      0.92542060
H      -4.11824038      0.48997764      2.50799041
H      -5.17612790     -0.54023465      1.54883484
H      -4.96840767     -1.29934004     -0.70267680
H      -4.92807868     -2.89963115     -1.45186703
H      -4.91601047     -2.75365721      0.31535170
O      -1.32156044      4.58625762      0.95057540
H      -1.52194088      3.97820738      1.68722370
H      -1.39639740      4.02243230      0.15393869
O      -4.83688759      1.35733141     -1.06575536
H      -5.71280278      1.64330017     -1.34310962
H      -4.59204003      1.99448012     -0.35017792
O       2.63454507      1.96343785      0.82077200
H       2.70229195      1.81937359     -0.13770891
H       2.20235908      2.82979747      0.91056600
O      -2.21561252     -0.96735905      7.11742611
H      -2.74241438     -1.59447791      6.59243947
H      -1.35167914     -1.40334940      7.16657468
O      -2.75733675      1.33826056     -2.93709690
H      -3.08713825      1.76194374     -3.73560615
H      -3.52608333      1.32147227     -2.32545334
O      -1.07594491      2.85251712     -1.25069402
H      -0.24940077      3.21666880     -1.65342560
H      -1.61451808      2.45930615     -1.96531408
O       0.07584664     -2.66374506      6.35479996
H       0.84222215     -3.09226701      6.74786747
H      -0.51849145     -3.38366593      6.07868348
O       1.16505325     -0.32060878      1.46560379
H       0.93036309     -0.47246720      2.39569653
H       1.74297607      0.47124364      1.42699409
O      -1.23329289     -5.23330095     -1.91886188
H      -0.52833057     -4.89566478     -1.35141672
H      -1.87330537     -4.50651972     -1.91124700
O      -4.28633498      3.18140828      0.91551812
H      -3.85652353      3.99260353      0.61767911
H      -3.68645162      2.86505496      1.62404240
O      -2.29042051      0.74719816      4.90756388
H      -3.11939034      0.31486936      4.64862319
H      -2.15425970      0.39668376      5.81406945
O       5.47323391      0.20249248     -6.63138600
H       4.70993813      0.70070021     -6.93860943
H       5.64534184      0.55429271     -5.72882938
O       5.87089965      1.08746421     -4.03119285
H       5.02648760      1.04261217     -3.51336663
H       6.22729142      1.96554954     -3.87005476
O      -0.36770153     -1.20190586      3.80123617
H      -0.95674714     -0.48707287      4.10902499
H      -0.02153108     -1.59176437      4.61998497
O       0.03126526     -5.11867486     -4.49313598
H      -0.46215448     -5.24551125     -3.65908927
H      -0.53718370     -5.46563602     -5.18669754
O       5.03081805     -2.60214136     -6.81260024
H       5.82666467     -2.98687240     -7.18961748
H       5.21189611     -1.64160913     -6.79948996
O       1.33372940      3.90957208     -2.01362222
H       1.90666541      3.12132464     -2.07088856
H       1.54287950      4.30774457     -1.15055819
O       1.41408369      4.63209670      0.78445930
H       1.80417556      5.38110219      1.24425756
H       0.43725206      4.70206765      0.92967770
O      -2.19636632      2.45304360      2.61260076
H      -2.12963296      2.12332418      3.52296023
H      -1.78599094      1.76010898      2.03261554
O      -1.23671953      0.81063469      0.69640315
H      -0.36620937      0.39382980      0.89864671
H      -1.05867893      1.48844957      0.01463301
