96
charge=0
N       2.28643618     -7.27570762     -4.14423689
C       1.99013226     -6.43366922     -3.40597076
O       1.45335214     -5.69563932     -1.21384408
O      -0.94789746      2.32239122     -2.17922375
C       1.12425907     -4.53190924     -0.59703045
C       1.63187751     -5.39015816     -2.53988248
C       1.41701617     -4.05713977     -2.75495750
C       1.09720283     -3.48870951     -1.48622517
C       1.25710678     -1.56818297      0.06993821
C       0.95416592     -0.26566637      0.42084136
C       0.11678524     -1.25703066     -2.02565108
C       0.82568638     -2.09092012     -1.15405840
C       0.19096921      0.54651805     -0.43298385
C      -0.20647646      0.05561551     -1.69278156
N      -0.13422540      1.84546010     -0.06065227
C      -1.43809591      3.88540412     -0.44050402
C      -0.16860516      1.05929442     -3.99983390
C      -2.37100588      0.48907220     -2.93425808
C      -1.25429315      2.42934917     -0.79289016
C      -0.93541232      0.95703522     -2.68177204
H       0.94950509     -4.58693984      0.46843448
H       1.51808238     -3.54469957     -3.70059748
H       1.86431073     -2.17062588      0.73696752
H       1.32873929      0.14706180      1.35543954
H      -0.20352231     -1.65326027     -2.98744318
H      -0.12075543      2.03032767      0.94745756
H      -0.53323916      4.45804234     -0.66626989
H      -1.67100394      3.99152551      0.62345949
H      -2.26636136      4.29376527     -1.02371692
H      -0.18165411      0.10227351     -4.52816546
H      -0.65164306      1.81138836     -4.63133499
H       0.87229389      1.34760721     -3.82602759
H      -2.85402997      1.17771798     -3.63430489
H      -2.95641849      0.45146777     -2.01108960
H      -2.36709035     -0.51414775     -3.37344903
H      -2.17835628      1.86460856     -0.58456069
O       4.28174498     -3.52017911      0.05410939
H       4.01464381     -4.28367875      0.60665570
H       5.17974971     -3.72126420     -0.22708078
O      -1.63443880     -3.33476022      2.26811132
H      -0.72698354     -3.66815921      2.39421464
H      -1.83525165     -3.46580569      1.32242799
O       4.20093695     -1.26972105      1.84341932
H       4.29100302     -1.97895505      1.17949334
H       4.13801967     -0.44172492      1.33016304
O       4.22928910      1.11463517      0.28893736
H       3.60487952      1.86732142      0.28511458
H       5.10037724      1.52001577      0.32726218
O      -4.60639796      1.44964544     -0.27970796
H      -5.49002566      1.07046394     -0.29016716
H      -4.62419975      2.16246926     -0.95561412
O       3.34728140     -8.96890461     -6.57000002
H       3.03537735     -8.46086339     -5.80963845
H       2.94912056     -9.83457335     -6.44502977
O       3.31012473     -5.58486724      1.70219540
H       2.95175875     -6.33770874      1.22058744
H       2.54377516     -5.18378541      2.15764515
O       2.36525409      3.26941680      0.25067860
H       2.16304765      3.50520223      1.16885411
H       1.54837451      2.79017002     -0.00305867
O      -1.49447262     -0.65294903      2.35044973
H      -1.62949965     -1.63774683      2.41703239
H      -0.92763053     -0.57361865      1.56677675
O       1.39148660      3.95965150     -2.60955521
H       1.88340483      4.09468739     -1.78728946
H       0.74713804      3.25719236     -2.40400869
O      -0.68616691      5.52480292     -3.58226593
H       0.10412944      5.07600769     -3.20913229
H      -0.34104265      6.05325354     -4.30813893
O       0.42125874      0.21360304      4.12098868
H       0.12740930      0.24798858      5.03711885
H      -0.35620887     -0.10295914      3.60126246
O      -3.28141266      1.60382468      2.22034286
H      -3.77235649      1.60353240      1.37720748
H      -2.79154822      0.76402586      2.24327347
O      -1.93011072      3.77456637      3.12095230
H      -2.32860438      4.07070566      3.94381897
H      -2.47436514      3.00536127      2.82358940
O       0.60907870      2.74747910      2.65544377
H      -0.20622664      3.20461482      2.95190609
H       0.69378404      1.99258231      3.26169670
O      -2.15225894     -3.30148128     -0.57087760
H      -1.45136890     -3.80050287     -1.01035420
H      -1.93817950     -2.38556302     -0.79255545
O      -4.67703216      3.44018901     -2.20141369
H      -3.99289989      3.54860807     -2.90011874
H      -4.82968297      4.32922616     -1.86751283
O       2.23648346     -1.99201406      3.57419755
H       1.69145350     -1.21424192      3.78310394
H       2.96501758     -1.67591876      2.98233072
O       1.07365942     -4.22786660      2.89424831
H       0.91081320     -4.66931933      3.73580389
H       1.50495035     -3.34942891      3.14947438
O      -2.82908958      3.83469484     -4.23934856
H      -3.22042104      4.32534480     -4.96888690
H      -2.03832613      4.35996569     -3.98352451
