91
charge=0
C       1.02575292      1.86313948     -0.03796254
C      -1.88411128     -2.95571148     -3.72994945
C      -0.44445779      1.41130431      1.92427912
C      -1.47005731      0.56111961      2.16155047
C      -0.80306002     -0.29257715     -1.38430593
C       0.01560891      1.20348279      0.55528695
C      -0.80637199      0.10743140     -0.01394214
C      -1.71794492     -0.26340281      0.98077805
C      -1.36939743     -1.79683581     -3.26316548
C      -2.86960205     -1.11730954      0.79887847
C      -2.84256051     -2.14226728     -0.08520390
C      -1.24907718     -1.50570079     -1.83201073
C      -0.88269943     -0.75989859     -4.24257589
C      -4.11485004     -0.78527457      1.58097291
C      -1.58517497     -2.55011361     -0.78971782
H       1.33666944      1.64513856     -1.05440217
H       1.55058793      2.66132313      0.47908944
H      -2.28072424     -3.73504139     -3.08805140
H      -1.96148980     -3.12497560     -4.79946220
H      -0.00388930      2.12878413      2.60407567
H      -2.02753917      0.47403846      3.08376904
H      -0.43633990      0.43860871     -2.10150145
H      -3.76144056     -2.68258618     -0.30795215
H      -1.03545477     -1.10034258     -5.26898401
H       0.18321208     -0.54881934     -4.10377330
H      -1.40314334      0.19365717     -4.11115849
H      -4.43169717      0.24299080      1.37798692
H      -3.93650662     -0.86324224      2.66093533
H      -4.92962264     -1.46768630      1.32490229
H      -1.68845036     -3.54752523     -1.21798133
H      -0.75539247     -2.59453792     -0.06601482
O       4.36277595      2.52854764     -2.87516062
H       5.27999175      2.25145809     -2.78904030
H       3.83438823      1.68686305     -2.88321930
O      -3.33504109      2.63053295      0.49788760
H      -3.63034124      2.58494243      1.42284784
H      -3.99657730      3.17352920      0.05658244
O       0.55779371     -2.36875371      3.65142394
H       1.18977208     -2.97314692      4.05308179
H       1.01365814     -2.00592919      2.86425228
O       2.72653678      2.40254422     -5.47025514
H       3.35490564      2.81131229     -4.85785887
H       2.83622375      1.46299573     -5.27258604
O       2.70977191      0.43174781     -3.16236267
H       1.85828688      0.91946361     -3.11878068
H       2.64887913     -0.34838146     -2.56976256
O      -1.15610101      4.59526054      0.40645231
H      -0.65187124      4.57009357      1.23888914
H      -1.76665665      3.84006306      0.46168871
O       2.73373566     -1.85008314     -1.56473071
H       2.20870008     -2.57697125     -1.94673539
H       2.45880542     -1.80977426     -0.63790173
O       3.28350598      4.24816055     -0.91682513
H       3.70236740      5.10319723     -1.05397570
H       3.69884468      3.66127060     -1.58228626
O       0.53603823      4.38588387     -1.84217124
H       1.43390327      4.41944954     -1.46753133
H      -0.06801637      4.45442648     -1.07257087
O       1.01928399     -3.89525400     -2.61088923
H       0.29287340     -3.44349725     -3.07486633
H       1.30231596     -4.60162048     -3.22399183
O       1.63249800     -1.36684471      1.24261847
H       2.02453475     -0.49399430      1.38053633
H       0.77925363     -1.13931144      0.82573652
O       0.56612699      2.17763828     -3.46367057
H       1.03005381      2.49451961     -4.25690467
H       0.48538740      2.97300285     -2.88253879
O      -1.85296583     -1.30888786      5.12858381
H      -2.22935916     -1.96880892      4.51230922
H      -0.92311784     -1.29463157      4.85702729
O       1.20491930     -6.44088529     -3.85726470
H       0.81170902     -6.65830760     -4.70774804
H       0.52286199     -6.65862574     -3.19750635
O      -3.00652222      1.10887159      5.32757065
H      -3.37900135      1.14430328      6.21419737
H      -2.59251896      0.20776881      5.25712673
O      -0.56536657     -6.06849306     -1.62540610
H      -0.04013374     -5.24694759     -1.64223141
H      -0.44216156     -6.43161199     -0.74292507
O       0.26398655      4.51369562      2.95437610
H      -0.46194337      4.31000586      3.58069996
H       0.60511208      5.36812174      3.23456936
O      -4.30997302      2.54487168      3.27739400
H      -3.99376302      1.90012310      3.94201197
H      -5.25509981      2.63295602      3.43327747
O      -2.13586093     -3.27080843      3.09309081
H      -1.17097592     -3.14317449      3.09787772
H      -2.41548735     -2.93210746      2.22935646
O      -1.91915936      3.79765898      4.55107335
H      -1.95232317      2.89999564      4.91567747
H      -2.70695311      3.82317102      3.98940963
