64
charge=-3
O       0.01413484      0.29965269     -1.45759120
O       0.43040895     -1.27500692      0.52721809
O      -0.68542978      0.98269061      0.90610252
P       0.51732603      0.28350490      0.10005435
O       2.13607345      3.18439575      0.78874352
H       1.69792442      3.60301230      0.02200900
H       1.90342740      2.23621245      0.66077373
O      -1.44469214      1.69712931     -4.59052566
H      -1.72550126      1.91589579     -3.68556819
H      -1.31819435      0.72812010     -4.56877770
O       0.79040815      4.21236199     -1.63078755
H       1.14315662      3.55728395     -2.26787753
H      -0.09981488      3.84213501     -1.48887889
O       1.39469987     -1.57340256     -2.84579582
H       0.89635529     -0.89071528     -2.31204008
H       1.45862665     -2.32268733     -2.22958237
O       1.30475867     -4.53101131      2.25278417
H       1.43871024     -4.29809085      1.31283842
H       1.32059662     -3.65178132      2.67238226
O       1.62540402     -1.65295311      2.83221953
H       1.14848294     -1.49033529      1.95265111
H       1.27956636     -0.92718816      3.37152313
O       0.58689062      3.84439864      3.10152097
H      -0.27998309      3.83219060      2.65210092
H       1.19003598      3.64183585      2.35362832
O       3.55338058     -0.14113595     -1.05692684
H       3.07149588     -0.60433771     -1.76243883
H       2.81359742      0.29842290     -0.57143613
O       1.30047540      1.99821759     -3.37864310
H       0.50024777      2.01476386     -3.93102593
H       1.03063615      1.37575497     -2.66608043
O      -1.54167070     -5.26211696      1.88466654
H      -1.75863906     -4.43467220      1.41688152
H      -0.60281652     -5.11399154      2.09538960
O      -0.19310025      0.95251130      3.58735983
H      -0.33141088      0.85321615      2.60370482
H       0.18667930      1.84804173      3.62937448
O      -1.61142951      2.47769593     -1.71762344
H      -1.01104646      1.69186794     -1.57352095
H      -2.08038275      2.54190059     -0.87456464
O      -1.10715123     -1.22735509     -4.47799025
H      -1.68776793     -1.24236674     -3.69330350
H      -0.23186112     -1.40437944     -4.08423390
O       4.08621433     -1.98802393      1.09076307
H       3.96116712     -1.31441897      0.39128735
H       3.38831277     -1.78023649      1.73734903
O      -3.15170080     -0.02374974      0.93067654
H      -2.21889448      0.35229192      0.85688455
H      -2.94908860     -0.97165328      1.03346418
O       1.82993760     -3.33237764     -0.38849305
H       2.71111557     -3.07013181     -0.06983151
H       1.27729819     -2.54066285     -0.10113835
O      -1.89494657     -2.64074990      0.60258405
H      -1.03121733     -2.13774006      0.68698889
H      -2.07083364     -2.50578930     -0.34293964
O      -2.25828387     -1.05188352     -1.87488940
H      -1.38447980     -0.58473766     -1.68005733
H      -2.87067663     -0.56012729     -1.30725629
O      -1.82295814      3.33658824      1.50724674
H      -2.41509858      2.90478856      2.14692873
H      -1.28172029      2.55805777      1.19918121
O      -3.12790070      1.41087012      3.45024131
H      -2.19113480      1.23402234      3.66431308
H      -3.26717226      0.84961736      2.65945570
