85
charge=0
O       1.56651283     -3.74543617     -0.02137434
O       1.12398339      0.71000734      1.55015292
Cl     -1.51632816      5.59859054     -1.72030160
S      -0.34914959     -0.53979928     -3.08062410
C       1.29842317     -2.54208913     -0.09318852
C      -0.10158217     -2.23306132     -3.45639250
C       1.43534509     -1.54168932      0.87576473
C       0.47978416     -2.89028894     -2.44102300
C       1.04829461     -0.21137181      0.69948769
C       0.35143054     -0.79781472     -1.52451022
C       0.43512832      3.71452449     -1.50949587
C      -1.83457320      3.00527105     -0.98395022
C       0.88893776      2.42953610     -1.23076755
C      -1.36976323      1.72770464     -0.69207100
C      -0.92252642      3.97892971     -1.37933887
C      -0.01219628      1.45434615     -0.82132174
N       0.74266008     -2.06862923     -1.34851915
N       0.45683231      0.12079255     -0.55870440
H      -0.45370945     -2.64549595     -4.38996905
H       1.84787742     -1.82657489      1.83588436
H       0.71275594     -3.94235475     -2.37052238
H       1.14237502      4.47791676     -1.82334804
H      -2.89043180      3.23627903     -0.90034574
H       1.93888113      2.17863012     -1.34123190
H      -2.05783106      0.95089175     -0.36976072
O       3.35493380     -0.01781065     -1.55837987
H       3.82694608      0.82037536     -1.66398072
H       3.81712842     -0.42307860     -0.80503157
O      -3.59734543      1.53746247     -3.48443530
H      -4.01895739      1.52044972     -2.60197333
H      -2.81850569      2.09265393     -3.37065123
O       3.74563102     -2.21234826      4.30737215
H       3.03093321     -2.81838577      4.06986979
H       4.48294524     -2.56170168      3.76115766
O       4.49764269      2.73894080     -1.00778613
H       5.45264881      2.80627774     -0.91148157
H       4.13721751      2.70690200     -0.08714856
O      -2.07301014     -1.94166653      0.26184580
H      -1.77266785     -1.37395123      1.01537659
H      -1.92636360     -2.84574139      0.56152862
O      -3.00942218     -0.94184169     -4.59503547
H      -3.25771456     -0.05658771     -4.25037096
H      -3.59828624     -1.09832198     -5.33960773
O      -4.64159956     -0.61029498      0.53586450
H      -4.48461245     -0.28943236      1.44316092
H      -3.90747869     -1.22462181      0.35691656
O      -1.65062430     -4.86016247     -3.47253093
H      -2.23480549     -4.19960459     -3.05081144
H      -2.21461912     -5.62520342     -3.61505396
O      -3.96946888      0.82830340      2.92672904
H      -4.17669580      1.71075116      2.51683937
H      -4.40727481      0.81667421      3.78312582
O      -4.91903043      1.57882063     -0.95142399
H      -4.81724785      0.71606572     -0.45603935
H      -5.85502834      1.62336384     -1.17741120
O      -4.53699448      3.06267721      1.57259012
H      -4.66127843      2.74292586      0.66253795
H      -3.82456995      3.72853497      1.53965893
O       2.66763376     -4.44329989      2.41008501
H       2.47284595     -5.36528745      2.60261226
H       2.24433191     -4.26805384      1.53939599
O       3.52409456      0.20655862      2.99101755
H       3.56068049     -0.57897480      3.58765501
H       2.59185362      0.27998272      2.71465414
O      -1.47792146     -0.34369376      2.37780016
H      -2.24317540      0.18275934      2.67560115
H      -0.70546224      0.24099423      2.37702602
O      -2.36674947      4.93093720      1.64273408
H      -1.52572573      4.45972316      1.65862764
H      -2.27960010      5.53993842      0.89895946
O       3.30259490      5.09922185     -2.17019066
H       3.76803619      4.32820886     -1.79911123
H       3.57773614      5.83229813     -1.61209140
O       5.36552432     -3.32779662      2.27975733
H       4.59087117     -3.89610131      2.13342884
H       5.25317017     -2.60719101      1.63662531
O       4.88932181     -0.81895360      0.82385653
H       4.40511925     -0.41208768      1.58540107
H       5.74218375     -0.37249823      0.80525022
O       3.26605000      2.67967052      1.43969338
H       2.42562914      2.20254526      1.32312774
H       3.69435359      2.16834770      2.14229998
O      -3.24831562     -2.75383385     -2.37780341
H      -2.79287279     -2.30795199     -1.65032148
H      -3.21873174     -2.12163403     -3.12064116
