86
charge=0
N       1.42053426      3.40185348      1.80790283
N       1.29843736      2.44593215      2.57738844
N      -0.33108473      1.16339875     -0.36514697
C       0.19626172      1.76530908      0.62376810
C      -0.83853259     -0.20990702     -0.24367764
C       1.74028979      3.37182653     -0.61523666
C      -0.41443610      4.21257132      0.39450122
C      -0.78527214      1.23433181      2.92850106
C       1.31612013      0.04087886      2.15223739
C       0.72020626      3.18842054      0.50665031
C       0.47015490      1.31050562      2.04697003
H      -0.05750436     -0.91249709     -0.56258839
H      -1.68084526     -0.32729462     -0.93239999
H      -1.16586217     -0.49148387      0.75983281
H       1.24235254      3.23719121     -1.58087260
H       2.15354820      4.38394140     -0.57090327
H       2.55948428      2.65066134     -0.53247072
H      -0.00061337      5.22501632      0.41833426
H      -0.94192869      4.06979499     -0.55448072
H      -1.13653562      4.11108572      1.21027294
H      -0.46962475      1.18102904      3.97597825
H      -1.35951058      0.33328040      2.69966393
H      -1.42705212      2.10961229      2.79620107
H       0.73730359     -0.83831669      1.86299499
H       2.21226280      0.10494373      1.52727467
H       1.62323687     -0.09969556      3.19318715
O      -4.25636939      1.70844525     -2.82836623
H      -4.52024003      0.99427445     -2.22845289
H      -3.31753256      1.53997438     -3.02711427
O       0.96138443      2.36075948     -4.36450602
H       1.53186277      1.78044616     -3.82623435
H       1.45146980      3.17937877     -4.48034326
O       4.10191436      0.54999158     -0.79635242
H       4.97694869      0.67236403     -1.17611743
H       4.22671030     -0.13875290     -0.09332978
O       2.65289938     -3.42823985      1.42417646
H       2.99907460     -4.31820225      1.30465433
H       1.72540547     -3.45700403      1.04983729
O      -0.87044849     -3.22116675     -2.07140473
H      -0.83425382     -4.00934323     -2.62288535
H      -0.57362270     -2.47406979     -2.66077297
O       0.15853000     -3.58932750      0.58813864
H      -0.48903273     -3.14801624      1.18227441
H      -0.15005737     -3.43741372     -0.32227746
O      -0.28167321     -2.47827091      4.80070452
H       0.68565631     -2.52948451      4.62479930
H      -0.37462474     -1.83329801      5.50707011
O       4.48534028     -1.28743423      1.14214623
H       4.48257021     -0.94560107      2.05278646
H       3.85318588     -2.03256567      1.15487809
O       4.30662743     -0.44954620      3.94136622
H       3.96052394      0.43947854      4.19204486
H       5.07701093     -0.59193849      4.50023062
O      -3.54228855     -2.71911898     -1.20688023
H      -3.67649771     -1.76222241     -1.30139633
H      -2.63205342     -2.89117354     -1.51366369
O      -3.22084137      2.16945124      0.64113611
H      -3.60588952      2.88721686      0.08818184
H      -2.32102061      2.09266466      0.30084421
O       1.91513200      0.48441807     -2.45830451
H       2.75359169      0.41098165     -1.94642413
H       1.27861078      0.81613958     -1.80604735
O       2.41405687     -2.69315714      4.18406026
H       2.47919763     -3.00809123      3.26250271
H       3.00172874     -1.92030527      4.20879420
O      -0.10070494     -1.19339977     -3.63301343
H      -0.69426170     -0.42218323     -3.57399333
H       0.75346007     -0.82938592     -3.34139067
O      -4.07262544      3.95963274     -1.28000919
H      -4.22332625      3.21995704     -1.91792625
H      -4.90522342      4.43971758     -1.24609621
O      -4.19444298     -2.53891297      1.43004695
H      -3.91824387     -2.77726407      0.51154171
H      -4.78583220     -3.24548608      1.70679425
O      -1.50176382     -2.19096724      2.31252255
H      -1.22077887     -2.31990532      3.24192006
H      -2.45457534     -2.38446836      2.24746903
O       3.19635813      1.97188343      4.65299083
H       2.49242056      2.21109000      4.00647573
H       3.76659639      2.74631177      4.68831726
O      -1.38457602      1.39140631     -3.09701871
H      -0.79770955      1.91506724     -3.67287675
H      -1.01841106      1.53516611     -2.20114818
O      -4.47281718     -0.07904794     -0.43594380
H      -4.03618050      0.66777078      0.02911828
H      -4.78892172     -0.65721733      0.27253170
