100
charge=0
Br      3.70296250     -1.25635137      3.80967735
Br      5.76840298      2.89579570      0.29419545
N       2.99728243      1.63663275     -0.61990091
N      -0.25541169     -3.25999355      1.81376701
N       1.23273902      0.04259840     -0.30447647
O      -0.86088933     -1.56241578      0.43422005
C       1.85553336      1.07857056     -0.92089299
C       0.05059320     -2.16724577      1.21093396
C       1.82516009     -0.48851785      0.76427671
C       4.96733123      0.79873127      2.20002557
C       3.92002928     -0.11859581      2.32351245
C       4.72925605      1.54830880      1.05458693
C       3.04450036      0.04823126      1.24831258
N       1.29234825     -1.57971175      1.38285635
N       3.57709919      1.11119457      0.48859267
N      -4.38911322     -1.29892310      0.95522633
C      -4.95402790     -2.63562059      0.66385999
C      -4.26754132     -0.52615848     -0.30798222
C      -4.09267040     -3.37716565     -0.39352469
C      -3.26596753     -1.20109858     -1.27236150
C      -1.59503004     -3.60861667      1.32080056
C      -3.04692205     -1.45032031      1.55433102
C      -2.83269697     -2.53988850     -0.67071553
C      -2.13056953     -2.31956525      0.65990544
H       1.35480607      1.49196970     -1.79437479
H       5.81300591      0.91661237      2.85984830
H       1.90798227     -2.14330149      1.97679819
H      -5.98478110     -2.49927118      0.31639280
H      -4.99689141     -3.19136840      1.60950019
H      -5.26880658     -0.45173601     -0.74846334
H      -3.93962493      0.48303069     -0.04535203
H      -4.63006499     -3.49591711     -1.33934209
H      -3.83014097     -4.38399560     -0.05219148
H      -3.72005626     -1.37922291     -2.25026234
H      -2.39652882     -0.55729745     -1.43792664
H      -1.50058920     -4.41780735      0.58231277
H      -2.23746242     -3.94863148      2.14136954
H      -2.60559556     -0.45328696      1.66941560
H      -3.15448135     -1.89185651      2.55285242
H      -2.16416785     -3.08042391     -1.34276178
O      -3.29837335      2.53083887     -1.61879618
H      -2.55371619      2.20530130     -1.07411178
H      -4.00272062      2.65423845     -0.96657721
O      -1.80293106     -1.43756694     -4.30707795
H      -2.34840570     -0.65375387     -4.10361446
H      -1.05217955     -1.39838755     -3.69278709
O      -5.48828668      0.51763271      2.52794433
H      -6.35762300      0.29318662      2.87386378
H      -5.18376552     -0.27357645      1.94676372
O      -3.50729752      0.82988293     -3.82251968
H      -3.50447586      1.44021934     -4.56556440
H      -3.47337575      1.41040336     -3.03021336
O       7.91223567     -0.06018750      0.23525943
H       7.10661773     -0.60480901      0.06805163
H       8.61325074     -0.69795223      0.40104981
O      -0.31786227      3.21529376      2.07660282
H       0.04043842      4.09399567      1.91982308
H      -1.24312394      3.34118005      2.46569838
O       0.45449680     -1.79215292     -2.46726606
H       0.53196818     -1.22654360     -1.67422430
H       1.31100314     -1.72165747     -2.90325402
O      -4.86608933      2.81166848      1.03553306
H      -5.20024672      2.03007957      1.52877127
H      -5.54403905      3.48548481      1.15037116
O      -1.43185496      1.46945008      0.15999403
H      -0.94195926      2.10341099      0.71676895
H      -0.82542749      0.72720833      0.02349214
O      -2.77668538     -3.96459906     -3.68953568
H      -2.90235724     -4.43153157     -4.52078274
H      -2.50261860     -3.05729489     -3.95705789
O      -2.74026864      3.34135816      3.01897887
H      -3.37478373      3.23892228      2.28762587
H      -2.86290368      2.52061650      3.55272930
O       2.43610813     -4.09416082      2.23327823
H       1.46739065     -4.21441713      2.21269973
H       2.71733478     -4.43059632      3.08921053
O      -0.93558761     -0.81665614      4.06707147
H      -0.23903275     -0.19199752      3.78009856
H      -0.66706761     -1.67864932      3.72825999
O      -0.48285076     -4.67003792     -1.94196630
H      -0.01624714     -3.83453518     -2.08175197
H      -1.21061648     -4.61883980     -2.58464086
O      -3.22312576      0.95252756      4.33311787
H      -2.54823826      0.25901953      4.22672017
H      -3.99685064      0.65704327      3.82458745
O       7.91032380      1.43079842     -2.08155066
H       8.01768965      0.93125444     -1.23539730
H       8.56765853      1.05959964     -2.67877344
O       5.16645611      0.54815755     -2.45488267
H       6.06392322      0.93091553     -2.45129712
H       4.59654332      1.25900518     -2.12937324
O       5.65193539     -1.41969071     -0.52387477
H       4.93684599     -1.50114839      0.11712550
H       5.33732194     -0.78212544     -1.20292211
O       0.96321301      1.12175185      3.32823060
H       1.44309621      1.40712536      4.11198926
H       0.55175269      1.93430178      2.96128448
O       7.80262895      4.28781749     -1.40688152
H       7.38134402      4.72224246     -2.15450914
H       7.93247962      3.37105234     -1.70370359
