80
charge=0
O       0.44605985     -1.33386149     -2.14967124
O      -1.72552024     -1.56390199      2.16102538
O      -2.83776543     -1.48508477     -0.12138650
O      -0.12810341     -2.87353568     -0.62591200
C       0.04680106     -1.69301819     -1.00660064
C      -0.39194562      0.79909058     -0.54317559
C      -0.24868132     -0.59434448      0.02650906
C      -2.32386044      0.87894579      1.06633076
C      -1.19944521      1.68689799      0.40888952
N      -1.74148453      2.85219298     -0.35940971
S      -1.88169570     -0.90209743      0.84552816
H      -0.90559538      0.73912208     -1.50749355
H       0.59459562      1.23636630     -0.70851035
H       0.49830453     -0.65272702      0.82794271
H      -2.40838747      1.06205795      2.13915906
H      -3.29164433      1.00305861      0.56930453
H      -0.54413580      2.10231053      1.17631457
H      -0.95462197      3.27097618     -0.91093469
H      -2.09431885      3.54929399      0.32213236
H      -2.49808765      2.55511818     -1.00893717
O      -2.34371641      4.40608617      1.95475545
H      -1.68282797      5.09890811      2.09212711
H      -2.17842394      3.81264417      2.70731173
O      -1.45695965     -2.34399920     -4.11592003
H      -0.69784121     -2.03965090     -3.58943387
H      -1.54537631     -3.26716272     -3.82941287
O       1.08852621     -3.80981853      1.65482141
H       0.32812589     -4.15005057      2.16924521
H       0.65233041     -3.40063203      0.87329832
O       2.56989079     -3.46318188     -2.22681374
H       1.77093358     -2.93915866     -2.39991913
H       2.25754936     -4.24293244     -1.71816593
O       0.14575005      0.81149512      3.14337940
H       0.97751589      1.00821779      2.65721016
H       0.24431272     -0.12047252      3.38656787
O       1.39483270      1.06072276     -3.14311402
H       1.03065257      0.20745241     -2.80133821
H       1.88168489      0.82297927     -3.93985447
O       3.10946266     -1.78415136     -0.13067378
H       3.02501228     -2.43464158     -0.87121269
H       3.64167860     -2.22623125      0.53779996
O      -0.55900643     -4.80353633     -2.63778607
H       0.25521560     -4.84000470     -3.15321742
H      -0.38196315     -4.12756920     -1.94936860
O       2.54320008      0.98398085      1.80159968
H       2.70207147      0.06912419      2.08842604
H       2.74689160      0.99652911      0.83698465
O       0.64893541      3.82207566     -1.48496420
H       1.17828082      3.80123231     -0.66572084
H       1.05524091      3.18124521     -2.08340709
O       1.95375965     -1.58756191      3.04811027
H       2.40199211     -1.92767009      3.82843065
H       1.67891281     -2.39421415      2.54468900
O      -4.10317269      1.89184874     -1.73308819
H      -4.39887724      2.52289029     -2.39815154
H      -3.89882634      1.08529469     -2.24581001
O       1.71267686     -5.65119006     -0.62051145
H       0.81751291     -5.83880249     -0.93461860
H       1.57850934     -5.23059813      0.24601204
O      -2.99588451     -0.45528651     -2.79845575
H      -2.95429672     -0.89881223     -1.93435705
H      -2.64087537     -1.13244786     -3.41640077
O      -1.51242160      2.06152986     -3.44782232
H      -1.93283348      1.18786365     -3.39545556
H      -0.58554943      1.86080598     -3.63765843
O      -1.41711988     -4.37543536      2.80589441
H      -1.72576950     -3.48647435      2.56311068
H      -1.63838529     -4.46722333      3.73721798
O       0.21572124      5.17694149      3.31775855
H       0.63752762      5.77807408      3.93908286
H      -0.14448569      4.44158680      3.85063088
O       1.43814690      3.62999639      1.22917371
H       2.04722048      3.00045866      1.63848865
H       1.19071266      4.25987945      1.92725238
O      -1.18272252      2.88516487      4.16761672
H      -1.57020779      2.68345767      5.02471915
H      -0.67995104      2.07364934      3.89562190
O       3.31478025      0.88904927     -0.83836220
H       3.38171633     -0.08542249     -0.76169289
H       2.78277822      1.03796032     -1.63542946
