88
charge=0
Br     -3.34912516      5.31857830     -4.55442737
N       2.57491755     -0.98513674     -0.79332682
N       0.97713391     -0.92070266      1.05951120
O      -1.56871810     -0.02193399     -1.33650022
S      -3.15428998      3.23140300     -2.21797624
C       2.59389324     -0.37245093     -1.97692338
C      -0.04311124     -0.21654031      1.47945160
C       1.41401967     -0.55430796     -0.19950772
C      -3.21967795      3.55440895     -3.91837538
C      -3.17288324      2.41062515     -4.66867017
C      -3.08455714      1.24887895     -3.85798184
C      -3.06027625      1.51352085     -2.51081783
C       0.75051407      0.31127953     -1.02952808
N      -0.48257491     -0.35135842      2.79023170
N       1.51209438      0.41904393     -2.16497560
N      -0.67786564      0.75155406      0.75437118
C      -2.90475708      0.52678415     -1.39944912
C      -0.57158465      0.84247258     -0.68259221
H       3.37273764     -0.48057703     -2.71963439
H      -3.20644598      2.40819140     -5.75137897
H      -3.02855522      0.23965269     -4.25502784
H      -0.12040052     -1.17512296      3.26482995
H      -1.47893439     -0.22831509      2.91878670
H       1.24493865      0.98973421     -2.98036509
H      -1.28291897      1.40151448      1.26565522
H      -3.56160143     -0.32897063     -1.59033767
H      -3.18325497      0.96169643     -0.42878732
H      -0.74769402      1.87733948     -1.00358861
O       2.93457592     -1.51896323      4.26169786
H       3.68877541     -2.05437536      4.53014131
H       2.16959445     -2.13319917      4.23006813
O      -1.50110748     -2.95529512     -0.50899164
H      -1.45923284     -1.98813635     -0.58730668
H      -0.86943496     -3.26058730     -1.22654843
O      -2.10456334      2.55662855      2.51038351
H      -2.09550990      3.35063401      1.93982074
H      -1.41112671      2.73471338      3.16122358
O       0.85369295      2.16055677      3.64138970
H       1.38867637      1.93985693      4.43246633
H       0.41294095      1.31460559      3.43324589
O      -5.51897681     -1.14937956     -2.91056010
H      -4.93194629     -1.38019984     -3.64916916
H      -5.78668950     -0.24149069     -3.08365397
O      -0.58248573     -1.28984394     -3.86332478
H      -1.42218871     -1.67506621     -4.17077118
H      -0.84512312     -0.79094584     -3.07351087
O       0.59424968     -2.99920355      4.02987653
H       0.52647048     -3.42884013      3.13474982
H       0.25069156     -3.63252080      4.66667534
O       0.29884642      2.26187964     -3.88355848
H      -0.57156509      1.98203196     -4.19084192
H       0.13332337      2.96045368     -3.21685219
O       2.52729241     -3.95705407     -0.87892839
H       2.03302374     -4.14015651     -0.06508836
H       2.77409710     -3.01950841     -0.78490308
O       3.18389832      1.95254109      1.72699822
H       3.56618315      1.04606676      1.68135618
H       2.45722210      1.90464923      2.36744196
O       0.24098913      4.04440421     -1.73308954
H       1.06246753      3.90585345     -1.22617493
H      -0.42379526      4.29180639     -1.07159699
O       0.58959534     -3.63196836      1.44232174
H       0.86134261     -2.68599838      1.30534952
H      -0.24885794     -3.65822028      0.94388570
O       0.18501246     -3.67377264     -2.44473920
H       0.20033229     -2.88033897     -3.01134651
H       1.07970886     -3.77352454     -2.05643321
O      -3.27573748     -2.31786041     -4.37978081
H      -3.38541248     -2.84799593     -3.54397158
H      -3.36382714     -2.95491495     -5.09635045
O       2.56791623      3.73937223     -0.11197628
H       3.38274155      4.19689638     -0.34072559
H       2.84416346      2.96609884      0.45408589
O       2.45934452      0.97080034      5.58302477
H       2.18641994      0.77640589      6.48414826
H       2.65928478      0.10267797      5.18221581
O       4.18126359     -0.63825399      1.68515154
H       3.82900001     -0.96654293      0.83906900
H       3.60435512     -1.02951801      2.35997502
O      -3.81054070     -3.46971594     -2.01208995
H      -3.06885604     -3.34106738     -1.38028431
H      -4.51632465     -2.87752325     -1.72209323
O       0.86781448      4.60066117      2.01056581
H       0.91820151      3.82753706      2.59855862
H       1.55149602      4.44049692      1.33066764
O      -1.44239778      4.62678916      0.68585847
H      -1.82832855      5.50909414      0.69531765
H      -0.58544860      4.70256288      1.19439841
