101
charge=0
O       5.04612918      1.22265474      0.66003943
N       5.50438996      5.79113654      1.97373484
N       6.46559576      5.09977766      1.45895480
N      -2.34322583     -3.90712492     -0.70367407
N       4.49527655      4.98143726      2.37112709
N       2.11981926      1.70286770      3.47356190
S      -3.08442717     -3.60708297      1.75308328
C       4.16452496      1.42725757      1.49711056
C      -1.91632682     -3.44172851      0.46173711
C       4.87612572      3.73479150      2.08188999
C       2.10678132      0.66337339      2.62349363
C       3.06004299      2.62272178      3.30114859
C      -4.17192478     -4.33842095      0.63272757
C       1.04068400     -0.24542755      2.64464579
C       2.03112443     -1.46982851      0.83069787
C       4.04839818      2.57431236      2.32309649
C       0.94390502     -1.28166022      1.73045330
C       3.07486511     -0.60858533      0.82700625
C      -3.61384468     -4.41312651     -0.61876717
C      -0.64107011     -2.79862725      0.60724791
C      -0.26503503     -2.06923380      1.67983092
N       6.09286120      3.80391382      1.51411838
N       3.11659676      0.46620475      1.68567072
C      -3.51004241     -6.18899418     -2.38318138
C      -4.47184318     -3.90787264     -2.91279846
C      -4.28696592     -4.98495305     -1.83581700
H       3.03204707      3.47950825      3.97467427
H      -5.15824613     -4.66282807      0.93704012
H       0.25013589     -0.05554906      3.36288128
H       2.04664122     -2.28639308      0.12113264
H       3.90849630     -0.69573285      0.14365062
H      -0.00629219     -2.85326988     -0.27570569
H      -0.95932875     -1.92711297      2.50381358
H       6.71236825      3.08261380      1.10103209
H      -2.51450574     -5.89025451     -2.72817743
H      -3.38814833     -6.96333091     -1.61914318
H      -4.04263400     -6.62575814     -3.23456351
H      -5.05982135     -4.30276155     -3.74820125
H      -3.50771566     -3.58560923     -3.31978530
H      -4.98684700     -3.02841004     -2.51092824
H      -5.27959397     -5.31841792     -1.51140659
O      -7.51211254     -2.50929995      1.93534531
H      -7.77690830     -3.22756110      1.33951186
H      -7.05907297     -1.90707991      1.31547459
O      -5.59293943     -3.28134950      3.70467225
H      -6.33268715     -3.05181865      3.08951842
H      -6.00470350     -3.75457511      4.43423116
O      -6.27245418     -1.33264645     -0.37162808
H      -5.33569441     -0.99261665     -0.27311595
H      -6.74460239     -0.60438593     -0.78755908
O      -0.10057578      3.68077832      3.62133749
H       0.49151386      2.94111349      3.84700894
H       0.47949847      4.28282723      3.12029900
O       1.71054483      5.12241178      1.83637419
H       1.47108747      5.97470201      1.45822695
H       2.65656749      5.22075469      2.10082643
O      -4.52873613     -0.76662091      4.37487014
H      -4.87253126     -1.66404801      4.17589324
H      -5.31646562     -0.21754411      4.43234404
O      -7.33412390     -3.96993594     -0.56982340
H      -6.89045113     -3.11517858     -0.72955822
H      -7.94914364     -4.07410447     -1.30194655
O       0.87985177     -1.57540449     -2.24068164
H       1.85151098     -1.67618233     -2.18869860
H       0.54927164     -2.40970897     -2.64052841
O      -1.98070344     -1.14541824     -2.04748671
H      -2.10739274     -2.06370121     -1.74988549
H      -1.02619197     -1.00176138     -1.92455795
O       8.07965659      2.30699777      0.22465488
H       8.62183762      2.98919335     -0.18542325
H       7.71103816      1.79035484     -0.51686015
O      -1.88565206     -2.06700014     -4.79390759
H      -1.27380130     -1.56038343     -5.33781250
H      -2.00701222     -1.52582099     -3.99262916
O       3.72324303     -1.78896692     -2.10574175
H       4.00497813     -2.47862367     -2.71548559
H       3.89430011     -0.93232568     -2.58645871
O       6.51222102      0.77903671     -1.60269316
H       6.72583268     -0.14271107     -1.78371693
H       5.89691121      0.75027386     -0.84490989
O       1.58788923      1.38907067     -2.21268148
H       1.15323839      0.52491873     -2.18545618
H       1.44467834      1.78831260     -1.33395220
O      -2.66050893     -0.20736960      2.37235057
H      -2.29822680      0.69589390      2.37038042
H      -3.30509153     -0.27539981      3.10698900
O       1.14963015      2.50741847      0.39668627
H       1.37821335      3.40189489      0.69631069
H       0.24369496      2.36673113      0.72488889
O      -0.40310084     -3.90067886     -3.11274247
H      -1.03007832     -4.05828992     -2.38448683
H      -0.94147816     -3.48608873     -3.81315295
O      -1.46178308      2.31350557      1.72265751
H      -2.15995879      2.81990894      1.29388703
H      -1.09814965      2.89447097      2.43977416
O      -3.89480723     -0.21846940     -0.10000126
H      -3.19748165     -0.41340745     -0.75003016
H      -3.46436828     -0.28133425      0.78365713
O       4.03340795      0.61054854     -3.26477643
H       4.80764597      1.03308082     -2.86606556
H       3.24430859      1.05765939     -2.88541908
