98
charge=0
O       0.29791246      1.57459794     -1.21519655
Cl      3.59988444      1.35165083      3.78653555
N       0.84544726      0.03750915      2.58689112
N       4.21049654      0.86395786      1.26901977
N       2.77682464     -0.10790990     -0.40652614
O      -4.89842513      0.10471553     -1.68904531
C       0.00814137     -0.46376844      1.70887280
C       3.94972847      0.40494848      0.01551303
C       3.26610698      0.75960813      2.17764768
C       1.85624989     -0.17292471      0.54375784
C       2.01778399      0.22786818      1.88221576
C      -3.57273311      0.47268142     -1.53182744
C      -3.23738203      1.82177323     -1.65204031
C      -2.61655027     -0.49752262     -1.22709145
C      -1.91185510      2.16138598     -1.49261615
C      -1.29361496     -0.08709846     -1.06805354
N       4.96907499      0.47566017     -0.88910844
N       0.56277326     -0.62014523      0.45523550
N      -0.96646463      1.22414690     -1.24798507
C      -5.22419338     -0.27359781     -3.04801198
C      -4.24131001      2.87877996     -2.00047022
C      -2.98604071     -1.94562078     -1.09123423
C      -0.16121791     -1.02120474     -0.74976524
H      -1.02723749     -0.73342740      1.90243568
H      -1.54556874      3.17390899     -1.60421075
H       4.66535876      0.64159701     -1.84877505
H       5.73321599      1.08852621     -0.62876311
H      -6.27937165     -0.55308320     -3.04507015
H      -4.60640622     -1.11864150     -3.37029221
H      -5.05722245      0.57172930     -3.72324515
H      -5.21423866      2.66146366     -1.55386226
H      -4.36597244      2.93367816     -3.08794561
H      -3.89910483      3.86163414     -1.66836874
H      -4.04928149     -2.10329344     -1.26979094
H      -2.75867090     -2.31706848     -0.08752926
H      -2.42831621     -2.56905317     -1.79630833
H      -0.54174513     -2.03676208     -0.62112674
H       0.55363008     -1.04311951     -1.57787616
O       1.48953316      0.57288720     -3.70308277
H       1.22961385      0.86337565     -2.80941429
H       1.91521948     -0.29416669     -3.56677132
O       2.66585511     -1.88212791     -2.59813274
H       2.75734312     -1.26002871     -1.83893065
H       3.55920847     -2.27723068     -2.62162960
O      -1.47439536      0.61383508     -4.28268537
H      -0.51415213      0.47816896     -4.30884822
H      -1.56387762      1.57953636     -4.30396627
O      -0.88843333     -4.43754044     -0.20064596
H      -0.88447269     -5.38040239     -0.39126452
H      -1.50733067     -4.33549233      0.56110006
O      -1.74731534      3.59078204     -4.39940497
H      -1.33283844      3.77354444     -5.24854839
H      -1.26361939      4.14848234     -3.76344986
O      -2.75522498     -4.09286037      1.79493964
H      -3.63684388     -4.17616808      1.39029587
H      -2.78312948     -3.20000699      2.18525022
O      -1.02552607     -1.91026542      6.64927703
H      -1.86915588     -1.60749126      6.28056437
H      -1.19000434     -2.01816983      7.59043075
O      -0.63653191      5.24741059     -2.31258829
H      -0.40260217      6.15675241     -2.51892115
H       0.01565148      4.95224045     -1.64596726
O       3.76007708      3.59484600     -0.70088253
H       2.83984963      3.85636803     -0.51563511
H       4.01216100      3.04368135      0.05136962
O       6.52234702      2.98482847     -1.87480791
H       5.88607777      3.61976014     -1.52245393
H       6.08197097      2.67608148     -2.67778304
O       3.98716437      2.04608685     -3.22587669
H       3.70053802      2.57477174     -2.46171997
H       3.17199571      1.66434531     -3.59504876
O      -3.13002965     -1.30481771      2.38528878
H      -3.14547638     -0.91259360      3.28296673
H      -3.97101245     -1.06939619      1.96682089
O       3.96630949     -2.68958688      0.98943494
H       3.13549496     -3.07739482      0.63838455
H       4.27102621     -3.31299234      1.65543954
O      -5.66804157     -0.99478008      0.78967302
H      -5.49746542     -0.62119437     -0.09765501
H      -6.43197382     -0.51515304      1.12518388
O       1.84683797     -3.70301911     -0.42882300
H       0.90788585     -3.92586244     -0.29602133
H       1.92405434     -3.28262780     -1.30149752
O       0.94401165      3.98576416     -0.35240958
H       0.68025300      3.05787039     -0.62073721
H       0.66859540      4.07922118      0.56614394
O      -2.83014835     -0.23143211      4.95599553
H      -3.38548522      0.47283597      5.30379536
H      -1.90062026      0.14402521      4.95559379
O       5.25986463     -2.60152292     -1.60885592
H       5.60333060     -1.70278235     -1.51476477
H       4.91136165     -2.77460653     -0.71352664
O      -0.28385684      0.49757314      5.14261229
H       0.22499541      0.36336505      4.30896543
H      -0.04750321     -0.24976492      5.71343789
O      -5.40021916     -3.89218250      0.58560953
H      -6.11110296     -4.37592813      1.01702540
H      -5.61606076     -2.95333977      0.71692214
