97
charge=0
S      -3.62676846      0.72726359     -0.37218493
Br     -0.49704535      4.00880923      1.29465367
N      -0.14322715      1.18392432     -0.03224178
S      -1.82857065     -1.68060625     -0.93971119
S       0.70703032      0.59290569      2.42626964
C      -2.36941044     -0.29849870     -0.05658858
C      -0.41588086      0.53298257      1.05644980
C       3.17122347      3.71230395     -0.63998485
C       3.15857035      2.41903277     -1.15506321
C       2.09582510      4.16061500      0.12047055
C       2.08192527      1.57651842     -0.91013747
C       1.01699889      3.31585030      0.34863114
C       0.98509513      1.99882221     -0.14226969
N      -1.57348343     -0.17942284      1.13502768
C      -2.89768444     -1.73588005     -2.40474614
C      -2.09103453     -1.48766603      4.68356028
C      -2.15645766      0.90887439      3.93384582
C      -0.06501219     -0.51128535      3.67229268
C      -2.04823506     -0.99257778      2.27207321
C      -1.59088262     -0.48166327      3.63575843
H       4.00531224      4.38133333     -0.82283835
H       3.99010784      2.06082725     -1.75538030
H       2.08291770      5.16992298      0.51651230
H       2.05839430      0.57791743     -1.33303060
H      -2.93728978     -2.78080472     -2.71795637
H      -2.45898884     -1.12596361     -3.19975930
H      -3.89115828     -1.36819476     -2.14345473
H      -1.70184451     -2.49199944      4.48466723
H      -3.18525883     -1.53710404      4.67725712
H      -1.76224719     -1.18576599      5.68310297
H      -1.79726773      1.26429843      4.90567802
H      -3.25064623      0.87108467      3.96467589
H      -1.86619977      1.64315575      3.17717846
H       0.29835515     -1.52704148      3.48848166
H       0.32394040     -0.17125997      4.63725267
H      -1.71291599     -2.02903113      2.13727973
H      -3.14291152     -0.98331529      2.22095223
O       2.29904374      7.35235102     -1.04642910
H       1.50502558      6.82200317     -1.30326500
H       1.97715498      8.25522139     -0.97417565
O      -5.76902753     -3.54835471     -2.58747158
H      -5.70238520     -3.05054964     -1.73813458
H      -6.65790242     -3.91517279     -2.58897245
O      -4.12972156     -3.55773956      1.70073805
H      -3.34436814     -4.02848999      1.34056248
H      -4.63372077     -4.22908224      2.16988214
O      -0.90981907      1.32496845     -2.68826147
H      -1.85940780      1.37332038     -2.84618844
H      -0.82705762      1.24737346     -1.70324859
O       1.01523816     -1.03474508     -2.82023708
H       0.56994069     -1.80733623     -3.21910744
H       0.36153195     -0.32156916     -2.89275379
O       5.21959875      4.42363294      1.97064322
H       4.89194784      5.16631431      1.42240222
H       5.42387100      4.82549826      2.82055010
O       3.68581472      2.12099408      2.30247814
H       2.78576760      2.41573539      2.11341566
H       4.24040159      2.91615588      2.13931611
O      -0.46519146     -3.25495052     -3.79730162
H      -0.00027640     -4.04168300     -4.09521353
H      -1.08550641     -3.02405496     -4.52116984
O      -1.86991391     -4.74520857      0.65148885
H      -1.04058737     -4.28358834      0.91433315
H      -1.66741145     -5.68367411      0.69394071
O       0.02307294      5.99371584     -1.73223798
H       0.20076979      5.18395291     -2.26336753
H      -0.43361349      5.66416784     -0.94869415
O      -5.63029195     -2.19793811     -0.20578792
H      -5.08358662     -2.67490217      0.45653782
H      -5.27650447     -1.29803447     -0.21867255
O       1.86240766     -2.04750600     -0.28183490
H       2.45018049     -1.38980763      0.12732850
H       1.51940752     -1.65167269     -1.10900171
O       0.34433330     -3.33564634      1.50413785
H       0.85812356     -2.83561098      0.81312195
H       1.01314734     -3.83798320      1.97979447
O       4.50878487      6.67771399      0.45214677
H       5.22707791      6.95299249     -0.12513345
H       3.69150913      6.89536840     -0.04970041
O       0.63929427      3.70464393     -3.18754398
H       0.06053059      2.92605988     -3.07237488
H       1.49221421      3.40646653     -2.84783166
O      -4.99777453     -2.39213146     -4.95821537
H      -5.27839128     -2.79610597     -4.10468100
H      -5.38357587     -1.51105283     -4.95203592
O       3.90066524     -0.47334921      1.11918501
H       3.84493825      0.48157604      1.32823072
H       4.76638316     -0.58735204      0.71416596
O       1.93079931     -0.88724727      6.20166760
H       2.42337158     -0.82145316      7.02404046
H       2.58005808     -0.65012614      5.51252083
O       3.72893036     -0.16085426      4.12672912
H       3.75559608     -0.67996469      3.31064320
H       3.73337799      0.74967290      3.79018771
O      -2.32560624     -2.37714229     -5.66461250
H      -2.30921924     -2.61875920     -6.59475350
H      -3.27272918     -2.42323976     -5.40456268
