82
charge=0
F       0.69345563     -3.97010160      1.26144070
F       2.69932826     -3.59065045     -0.53802383
F      -0.79563047     -1.85475715      2.10799748
F       2.59667506      4.37865824      0.95181013
F       2.63099262      5.12892526     -1.61418926
F       3.24350873     -1.13288489     -1.46259061
F      -0.34030985      0.60117839      1.09148845
F       2.07851330      1.81288094      1.61590180
Br      2.10249276      3.57444303     -4.11417183
Br      1.23692019      0.41583978     -3.34595443
C       0.95253388     -2.74248986      0.80287406
C       1.96955009     -2.54690293     -0.12010904
C       0.19247282     -1.66362491      1.22989734
C       2.33697695      3.47996572      0.00530122
C       2.35597727      3.86205050     -1.32626852
C       2.22894553     -1.27243877     -0.59925187
C       0.44737501     -0.40351773      0.70984348
C       2.06326974      2.16181043      0.32842135
C       2.08300484      2.94247454     -2.33297496
C       1.77742187      1.62292296     -1.98954742
C       1.47529424     -0.16873512     -0.20511088
C       1.78211628      1.20532453     -0.64968793
O      -0.36596976      0.25420198      4.19868150
H      -0.21399637     -0.51870956      4.74909558
H       0.03694071      1.01517431      4.66804586
O      -2.71223857      0.89200650      2.92128531
H      -1.89093889      0.60571446      3.38595990
H      -3.33342579      1.10901060      3.62397812
O      -2.08082987     -2.76879401     -0.48707603
H      -1.86111767     -1.88939004     -0.87935343
H      -1.37705409     -3.37205652     -0.78643947
O       1.40521199     -3.14795637     -3.56974360
H       2.16016332     -2.65157682     -3.23479573
H       1.11636933     -3.70954551     -2.83186449
O       5.11623674      2.69969008      2.09666680
H       4.87117767      1.78054987      1.88357254
H       4.43730584      3.02559103      2.71916719
O      -4.56572331     -0.44501136     -1.32042308
H      -4.83382217     -1.29744446     -1.68994972
H      -4.44637069     -0.63665459     -0.36472740
O       3.12340021      3.76409100      3.84904660
H       2.77208200      3.20193902      4.55128450
H       2.35066567      3.89781540      3.27973919
O       0.21268319      4.12030392      3.04133157
H      -0.46784779      3.75325796      2.40562838
H       0.03991088      5.06646326      3.07013097
O      -1.84596311     -0.28810292     -1.70578535
H      -2.83426522     -0.25406496     -1.71080270
H      -1.58610791     -0.68080130     -2.56865572
O      -1.13795145     -1.86109450     -3.92164328
H      -1.68532485     -2.65990778     -3.94803585
H      -0.22852333     -2.20885292     -3.84877981
O      -2.47718733     -4.53219986     -3.54206329
H      -3.27801196     -4.29518705     -3.02068025
H      -2.78135990     -5.04653447     -4.29577524
O      -1.20862213      2.43650298     -1.21125040
H      -1.36699861      1.48367312     -1.38144654
H      -1.78580546      2.88731046     -1.83567205
O       0.65928734      2.60566467      5.25155791
H       0.27631266      2.98654089      6.04765485
H       0.40330933      3.21671386      4.51727161
O       4.64385416      0.10746199      0.93074298
H       4.87631251      0.43435884      0.03092069
H       5.36058806     -0.49227555      1.15978854
O      -0.30384835     -4.65041999     -1.76994993
H      -1.00161470     -4.82465270     -2.43493698
H      -0.12470505     -5.49307479     -1.34002871
O       5.28262522      1.27448632     -1.50705875
H       4.54894729      1.26793277     -2.13092149
H       5.36836434      2.21317737     -1.22193179
O      -3.86167587     -1.21527983      1.30313514
H      -3.14378124     -1.83086593      1.09891857
H      -3.43857386     -0.51260385      1.83027690
O      -4.33050870     -3.50254347     -1.79695952
H      -4.91740092     -4.01242506     -1.22906810
H      -3.56421166     -3.24282919     -1.22078416
O       5.38275287      3.78288871     -0.36719085
H       5.30074773      3.49047198      0.57779822
H       6.18501976      4.31180526     -0.40120447
O      -1.72109711      3.22021802      1.46115542
H      -1.52048341      2.94153620      0.54367587
H      -2.12257581      2.43767202      1.87822109
