98
charge=0
O       0.04833736     -0.16785424      1.34412854
Cl      3.91599280      2.50033488     -4.28070762
Cl     -2.62053176      6.14504769      2.58865717
Cl     -2.45077596     -5.46167039      4.13896105
Cl      4.84793543      0.49695544     -2.05804527
Cl      0.88120774      2.69014490     -5.02368141
Cl      0.37130472      5.27705638      2.23238676
Cl     -4.90390631      4.42369015      1.32384679
Cl     -1.70738218     -6.12089643      1.16693559
Cl     -3.04171648     -2.49928676      4.97611955
Cl      2.71662314     -1.09776970     -0.41471757
Cl     -1.20207128      0.93063236     -3.50828583
Cl      1.06024916      2.73488347      0.55956754
Cl     -4.18213114      1.72059976     -0.14781757
Cl     -1.62534651     -3.80694574     -0.95535622
Cl     -2.80816288     -0.21160481      2.85281783
O      -0.06613247     -0.65439009     -1.27052363
O      -1.33455514      1.24283671     -0.39557877
O      -2.02643088     -1.13622264      0.14934159
C       2.74548272      1.57759851     -3.39889334
C      -2.23244921      4.70387296      1.72214761
C      -2.34297828     -4.19426079      2.97303836
C       3.16602876      0.70315689     -2.39257007
C       1.38936326      1.68166631     -3.71545046
C      -0.89709595      4.32091642      1.56675018
C      -3.25580407      3.91664784      1.18341499
C      -2.01177077     -4.48855661      1.64624223
C      -2.59486918     -2.87115232      3.35092848
C       2.21998820     -0.02347092     -1.66365020
C       0.44629888      0.92692418     -3.01159343
C      -0.58558901      3.15310737      0.86576639
C      -2.94508959      2.72656956      0.52467830
C      -1.92610433     -3.46368174      0.70064488
C      -2.48315659     -1.84338241      2.40839745
C       0.86221455      0.11447083     -1.95665789
C      -1.61173096      2.34858782      0.38230440
C      -2.11894073     -2.14156554      1.09746428
P      -0.75079727     -0.15739950      0.09857322
O      -6.26078882     -2.44884537     -2.77019201
H      -6.97740561     -1.83466963     -2.95512650
H      -5.45467634     -1.97339579     -3.03127256
O       4.03724571      3.61855954     -0.88041652
H       4.08910640      3.04252327     -0.08507679
H       4.79580423      3.36894781     -1.41621279
O       1.27592228     -3.27486204     -2.63760080
H       1.47015789     -4.08041171     -3.12975790
H       0.34963308     -3.05667661     -2.90087905
O      -1.15381420     -2.62573170     -3.79520706
H      -1.88780063     -2.13414599     -3.38750744
H      -0.74769615     -2.02656526     -4.44006322
O      -5.99945922     -0.82028564      1.80213213
H      -5.73178979     -0.00890315      2.28024784
H      -6.41663657     -1.36677442      2.47449462
O       1.60186111     -4.19062379      0.14424704
H       1.46481305     -3.79090971     -0.73591389
H       0.97996898     -4.92558098      0.17247971
O       1.93730559      4.74503769     -2.29041727
H       2.61920692      4.30016256     -1.74361850
H       2.02679467      5.67559292     -2.06309551
O      -0.43183748      1.91644194      3.71943565
H       0.36076170      1.87465301      4.28216480
H      -0.36600014      1.14537410      3.14047408
O      -3.56833163     -1.29549836     -2.54579291
H      -3.41201002     -0.35584630     -2.39864292
H      -3.79750240     -1.63130228     -1.64890906
O       2.86328241      0.19216269     -6.70443945
H       2.29453697      0.96642998     -6.79331885
H       3.65766928      0.54055740     -6.28383238
O      -0.77270715      3.98273182     -2.02915295
H      -1.09997178      4.08143151     -2.92779166
H       0.17037610      4.23470460     -2.09114749
O       1.15017805     -1.40326447     -4.98493970
H       1.65196591     -1.87612313     -4.30749166
H       1.80146148     -0.98996099     -5.57537748
O       3.59155340      3.67210439      3.68369993
H       4.37395828      3.91601314      4.18800367
H       3.10927092      3.04830611      4.25632764
O       2.60632511     -0.02431766      2.74140817
H       1.89238744      0.25614385      2.14638566
H       2.47119237     -0.99646160      2.75778001
O       2.15289958      1.52665964      4.92162934
H       2.29420666      1.08885371      5.76662144
H       2.37915842      0.85894727      4.22662886
O       4.29040260      2.11901714      1.40879268
H       4.05384052      2.67208856      2.18082990
H       3.97346828      1.23471592      1.64026479
O      -5.55647321      1.56416402      3.27135790
H      -5.87493378      2.28943400      2.72319256
H      -4.68808740      1.87840611      3.58700691
O      -4.78523184     -2.35324919     -0.25651833
H      -5.53249117     -2.53789306     -0.84990295
H      -5.15116738     -1.77103411      0.43760040
O       1.41699875     -2.57300748      2.50321741
H       0.67221680     -2.02443790      2.22144016
H       1.56822799     -3.15058853      1.72903042
O      -3.08199119      2.70408974      4.18412458
H      -3.17123234      2.99773788      5.09555045
H      -2.14430302      2.43245436      4.09651688
