107
charge=0
N       1.69922999     -0.00130956      1.19258195
N      -1.12153533      3.56830424      3.06561216
N       0.64833835      2.04264065      2.54158175
N       2.18217266     -2.30568606     -1.38351161
S      -3.51729182      3.34695075      1.77976059
C      -2.43737284      1.36674029      0.48332103
C      -3.61891833      2.03983483      0.59332517
C       2.17015325     -1.05893983      0.63947141
C       0.10156209      3.05853395      3.21401744
C      -1.86263806      2.94406800      2.13629981
C       1.49867009     -2.02398936     -0.25616505
C      -0.09899118      1.44520831      1.60235274
C       1.67210322     -3.20063400     -2.24706134
C       0.29914840     -2.64766251      0.07364615
C       0.46134530     -3.84585740     -1.99797245
C      -0.22194921     -3.57228571     -0.82026366
C      -1.42146400      1.87073306      1.35015486
N       0.40167612      0.35684496      0.93190728
N       2.36550086     -2.43970907     -4.54802683
C       1.03208510     -1.84229228     -4.72180763
C       2.43824160     -3.49186195     -3.51568464
C      -5.93153303      1.21364354      0.93768445
C      -5.48831788      3.05375510     -0.72352313
C      -4.72534616      0.71761134     -1.20598100
C      -4.93103915      1.76164267     -0.10044676
H      -2.29671024      0.53590578     -0.19849661
H       3.22223122     -1.24555484      0.85324125
H       0.72762802      3.52015462      3.97852624
H      -0.17142012     -2.45610352      1.03201461
H       0.08728941     -4.55842416     -2.72856464
H      -1.14956350     -4.08782287     -0.58932689
H       0.04301535      0.19513163     -0.03051022
H       3.07024384     -1.72565406     -4.36302287
H       1.07895582     -1.11143246     -5.53574953
H       0.65006377     -1.33210343     -3.82517534
H       0.31312293     -2.62093983     -5.00006866
H       3.49760871     -3.65027039     -3.27688554
H       2.03487679     -4.42022153     -3.93494207
H      -5.54028343      0.30443767      1.40459590
H      -6.88217291      0.97798687      0.44630872
H      -6.12504177      1.93920298      1.73401699
H      -6.43118676      2.83914114     -1.23746328
H      -4.78821418      3.47613495     -1.45269951
H      -5.69017606      3.81443121      0.03828096
H      -4.38545047     -0.23907966     -0.79663951
H      -5.67693450      0.54000605     -1.71643606
H      -3.99908742      1.05622907     -1.95310886
O       5.04575378     -2.03955734     -1.11002935
H       4.07481784     -2.08632736     -1.27980276
H       5.20777378     -1.11942697     -0.87016634
O       4.84458874     -0.70328904     -3.94829280
H       5.23058044     -1.25632504     -3.25563393
H       4.37798910     -0.00984756     -3.45593293
O      -5.86352472      1.34351693      4.67345370
H      -6.47010874      0.66821308      4.99192051
H      -5.19342889      0.85397238      4.15515725
O      -0.60258819      1.17951489      6.17091726
H      -0.61053792      2.14529533      6.12300017
H      -1.53203577      0.97565074      6.35153901
O      -1.72751123      4.05466635      5.77091207
H      -1.63938904      4.11806912      4.79431432
H      -1.73543736      4.95875653      6.09908260
O      -1.15388698      3.12540211     -1.85405460
H      -1.92342710      3.05377885     -1.27540921
H      -0.48189593      3.56710422     -1.29632020
O       0.23922763     -5.40856714     -5.24093496
H      -0.51848506     -4.94281406     -5.63924907
H       0.95230618     -5.24916843     -5.87432184
O      -1.74112573     -3.78314614     -6.58937370
H      -1.11094166     -3.43524522     -7.25536935
H      -2.38000649     -4.28807912     -7.10134528
O      -0.13378664      0.51345880     -1.83629776
H      -0.52527327      1.41105428     -1.93592156
H       0.76749052      0.61521768     -2.18363229
O       1.98742356     -2.96866624      2.87259702
H       1.83916864     -2.28398986      3.53884534
H       2.92807165     -2.91743188      2.65276585
O       2.41236005     -3.88840051     -6.82858913
H       3.28515564     -4.01359162     -7.21286351
H       2.54210591     -3.30281063     -6.01229709
O      -3.46886490      1.81742770      6.24550613
H      -3.15416733      2.72925544      6.13432975
H      -4.39551506      1.80731604      5.94517880
O       0.82773448     -0.48326813      4.29904782
H       1.19772711      0.20081845      3.72105536
H       0.39870574      0.03105131      5.01143406
O       0.85516323      4.19977401     -0.14163019
H       1.57434114      3.56446313      0.02520361
H       0.54010748      4.45054678      0.73339949
O      -1.48371374     -1.42918016      2.88400196
H      -0.67614854     -1.22324073      3.40160396
H      -1.36519265     -0.89504889      2.08998192
O       3.04485681      2.29865657      0.26658313
H       3.81790709      2.74291449      0.63062658
H       2.74326167      1.67467657      0.95873209
O       2.86094042      0.58433085     -2.17772186
H       3.00677162      1.13492410     -1.38859833
H       2.75475831     -0.32645738     -1.85269801
O       0.28210321     -2.92469669     -8.32371619
H       1.09227489     -3.23177724     -7.85984598
H       0.39785798     -1.97497677     -8.42168412
O      -3.42496932      0.47814257      3.66900414
H      -3.10934203      0.87308470      4.49929369
H      -2.85231340     -0.29791268      3.51763901
O       4.82871003     -2.97710959      1.66617463
H       5.01512574     -2.87168313      0.71736682
H       5.21738782     -3.82428331      1.90362645
