87
charge=0
O       1.18746943      3.16973423      0.18171638
Cl      1.41491385     -0.22088227     -5.95895795
Cl     -1.20163749     -0.80682965     -4.85386462
Cl      0.04903373      1.77031358     -4.31775234
N       0.27991077      2.45602055     -0.25407022
C       0.68446527      1.34632456     -1.01846773
C      -0.23136776      0.20780226     -1.11909363
C       1.79829161      1.40892413     -1.78750757
C      -0.06479002     -0.66377319     -2.12294264
C      -1.29465808      0.04352308     -0.08168626
C       3.35881399      0.62756132     -3.56913629
C       1.49930541     -2.02721518     -3.45159424
C       0.38287992      0.00283934     -4.49377734
C       2.21445209      0.25207370     -2.62506167
C       1.01707651     -0.58846791     -3.18615767
H       2.40944101      2.31148891     -1.79186161
H      -0.73059398     -1.51842370     -2.18523751
H      -0.87876475      0.18072417      0.92169434
H      -2.07807136      0.79565054     -0.20094492
H      -1.75337301     -0.94707086     -0.15147463
H       4.18532633      1.02832277     -2.97229578
H       3.73513782     -0.23254180     -4.12623346
H       3.06128142      1.39804459     -4.28437653
H       1.76192966     -2.47498210     -2.48772636
H       0.70806773     -2.63395325     -3.90063123
H       2.37270060     -2.05221153     -4.10660912
H       2.61753483     -0.44060583     -1.85944278
O      -3.62885138      0.55372796     -2.50548223
H      -2.80099587      0.89601074     -2.86079201
H      -3.52045107     -0.41316698     -2.54656908
O       3.93881099      4.10704060     -1.92214982
H       4.29449477      4.58448771     -2.67791294
H       4.68020139      3.55875954     -1.57614884
O      -2.23828730     -5.14340741      0.18055592
H      -2.62140626     -5.89249364      0.64544805
H      -2.90387204     -4.41423621      0.25707149
O       2.90502660     -3.85749340      0.03034028
H       3.48633380     -4.06453111     -0.70689019
H       3.02884934     -2.90206022      0.20086232
O       3.24463052      5.35805735      0.51337219
H       3.41120504      5.04278577     -0.39858325
H       2.32927161      5.10570268      0.68616265
O      -2.53513259      3.11105965      1.05257088
H      -1.76627581      3.09207532      0.46501975
H      -2.17035635      2.73357408      1.88355110
O       5.03155061      3.84151908      1.87752269
H       5.31918129      4.21209520      2.71714290
H       4.39823741      4.49530027      1.48517892
O      -1.44030887     -4.06427298     -2.41088038
H      -1.85664604     -4.75317201     -1.86796521
H      -0.75624909     -3.73775527     -1.79527773
O      -3.55818282     -2.34634736     -2.64356539
H      -4.08852175     -2.62668708     -3.39653340
H      -2.75022967     -2.91779161     -2.65933301
O       2.62510651     -1.09977787      0.44519961
H       1.80863983     -1.14662562      0.97451394
H       3.10477202     -0.33349297      0.79358599
O       3.44268330      1.64400417      1.15155787
H       3.98472356      2.29630972      1.64067701
H       2.79565275      2.19348601      0.66709186
O       0.37014545     -1.84916535      2.16087424
H       0.21432199     -2.48850848      1.43764441
H      -0.52249811     -1.56719934      2.43138476
O       0.13134985     -3.62578578     -0.05295359
H      -0.43735479     -4.35417549      0.25517645
H       1.05842403     -3.94295073     -0.06274339
O      -4.40861943     -0.75790442      1.57397530
H      -4.42238551      0.07979946      0.99951572
H      -5.26291164     -0.75680656      2.01869964
O       1.33098975      0.83163702      3.10218905
H       2.07015332      1.09760280      2.53400874
H       1.19250811     -0.10708103      2.90784934
O      -2.17560010     -0.92894343      3.16680193
H      -2.99478354     -0.88499876      2.61881790
H      -2.42900849     -1.37883776      3.97886276
O      -1.36385866      1.88878444      3.29409869
H      -1.71213676      0.98577029      3.36780313
H      -0.40543732      1.74040364      3.20979367
O       5.74984772      2.48452450     -0.61226128
H       5.12536318      1.82622380     -0.27116052
H       5.92401165      3.01976016      0.17928124
O      -4.08715107     -3.15994249      0.07160494
H      -4.16957463     -2.34783592      0.60697043
H      -4.07711434     -2.84849703     -0.85014096
O      -4.52320722      1.39778281      0.11579404
H      -4.27569311      1.20186309     -0.80778582
H      -3.87015019      2.06779113      0.42845534
