70
charge=0
O      -0.36512727      0.32673830     -0.17067633
O       0.16171548     -2.15651728     -0.42945041
O      -0.21213451     -0.68064842     -2.52394302
O       1.97621115     -0.51678974      0.36312060
O       1.59903926      0.91607441     -1.71765683
O       2.10400023     -1.58472044     -1.96674576
P       0.38544638     -0.93129167      0.66641222
P      -0.07848625      0.77575874     -1.74339656
P       0.49546323     -2.12244616     -2.05423590
P       2.64667031     -0.25899094     -1.13571180
O      -3.07653708      1.61507393      0.26187018
H      -3.91454689      2.03824168      0.47661314
H      -3.03333305      0.82531584      0.84515992
O      -1.44787784     -1.35843007      3.84788255
H      -0.69083075     -0.71380850      3.95756288
H      -1.78853368     -1.49747655      4.73735858
O      -0.37576150      2.11633611     -5.25627261
H      -1.00644212      1.39884976     -5.03888053
H      -0.00240722      1.86513151     -6.10610369
O       2.12257521     -3.08057769      1.95130775
H       2.82376766     -3.01778806      1.28478391
H       2.39481007     -2.42124921      2.60964136
O       3.06584231     -0.84059353      3.60462281
H       3.66723491     -1.04978312      4.32627443
H       3.60034362     -0.33048692      2.95670837
O      -3.43392671     -0.07358974     -2.09513383
H      -3.04381500      0.23390940     -2.93003138
H      -3.25182062      0.61128019     -1.43174044
O      -3.16406174     -0.71956552      1.81358404
H      -4.04762741     -0.91274409      2.14499278
H      -2.56068763     -0.89458781      2.57677343
O       2.93346711      2.61878501      0.97539810
H       2.19565931      2.63627227      1.61612442
H       2.52456517      2.92947739      0.14960065
O       4.62580235     -2.19472401      0.58238770
H       4.65288418     -1.24942100      0.80843636
H       5.04094764     -2.25680317     -0.28302592
O      -1.88143368     -2.58026189     -4.73354234
H      -0.99781856     -2.93082425     -4.88372454
H      -2.07511853     -2.80580387     -3.79290990
O       0.66610107      2.73042628      2.70368270
H       0.68143750      3.48852140      3.29736904
H      -0.00641667      2.96781218      1.99942346
O      -2.75449365     -3.46673575      0.54738576
H      -2.90924856     -2.55926240      0.84914053
H      -1.97058485     -3.73351119      1.07114414
O       1.22534142      3.96291069     -1.03235257
H       1.27696900      3.73165933     -1.99451127
H       1.38531365      4.91179526     -0.99910779
O      -0.96197024      3.46925990      0.75132809
H      -0.36393586      3.56835679     -0.01249083
H      -1.62825004      2.80033315      0.50381604
O      -2.28779503     -2.66965959     -2.06199984
H      -2.43418721     -3.13617273     -1.20883897
H      -2.68852694     -1.78555298     -1.93746417
O       1.59880355      3.22699632     -3.62456923
H       2.09282928      2.42252041     -3.42583063
H       0.83784930      2.89892671     -4.14950323
O       4.51255178      0.54424648      1.65392027
H       3.91705530      1.25615806      1.29866411
H       5.32832443      1.00133018      1.88222772
O      -0.64043894     -3.84787289      2.39546673
H      -0.81781092     -3.06855991      2.94505145
H       0.28854563     -3.73887526      2.13097146
O      -2.27966312      0.11539008     -4.77001116
H      -2.03504890     -0.84661428     -4.75873193
H      -3.01807136      0.16699772     -5.38628804
O       0.54379351      0.35467332      4.22994396
H       1.41531119     -0.03676561      4.03598686
H       0.50841320      1.16309531      3.68236516
