95
charge=0
N      -1.30958212      1.07160749     -1.81415747
S       0.82046380      3.60496291      1.98280222
C      -0.80817355      1.29456844     -0.78383379
N       4.62844596     -1.88535319      0.48322082
O       3.02641541     -1.86180102     -1.02827851
C      -0.42884839      2.65525136      1.28110960
C       4.19006259     -2.42098635     -0.60490207
C      -0.07962640      1.55569117      0.38154105
C       1.11954921      0.84939745      0.54008951
C       1.55092483     -0.17343923     -0.27808237
C       2.72108643     -0.90169076     -0.11793068
N       3.70636253     -0.90987156      0.79156800
N      -1.71750326      2.89184639      1.54026189
C       4.78390894     -3.50045308     -1.40657023
C       3.81195188     -0.14595430      2.02474531
C      -2.83157477      1.98340621      1.17574869
C      -2.18929307      3.96779917      2.43340844
C      -4.06685835      2.62510363      1.80686606
C      -3.49726842      3.41203057      2.98782723
H       1.72064752      1.17105268      1.38468338
H       0.95590762     -0.48380126     -1.13168035
H       5.67951881     -3.87661617     -0.91114732
H       4.06185765     -4.31315017     -1.53260484
H       5.04470634     -3.11536745     -2.39776561
H       3.90829019      0.91808046      1.78406612
H       2.93625680     -0.33772106      2.65593792
H       4.70849120     -0.48668533      2.54420660
H      -2.62299051      0.98775783      1.58791897
H      -2.93037684      1.89370324      0.09349698
H      -2.35186566      4.88365263      1.84536508
H      -1.43135677      4.18140451      3.18952014
H      -4.80793691      1.87372489      2.08791017
H      -4.53726771      3.30693982      1.08832527
H      -4.16302294      4.20297849      3.34328659
H      -3.28369174      2.73560856      3.82490290
O       0.28550279     -0.13817231     -3.84310705
H       0.09176459      0.16386595     -4.73669100
H      -0.40539414      0.26475583     -3.27761499
O       4.62169953      2.13685187     -0.02876453
H       4.78540821      1.46651434     -0.71461129
H       4.14928981      2.83831392     -0.49505824
O      -4.00286115     -0.48788948     -0.90703021
H      -4.50464784     -0.55644875     -0.08035060
H      -3.08383801     -0.68389643     -0.66125629
O      -2.56050257      3.88896924     -2.00970951
H      -3.40525361      3.50517620     -1.72675972
H      -2.05992997      3.10433052     -2.27235983
O       3.62125084     -4.97158555      2.86857843
H       4.43213497     -4.42778806      2.91910883
H       3.40001378     -5.17067969      3.78310249
O      -1.56933290     -1.61202175      0.46689418
H      -1.13039300     -2.37583574      0.00843761
H      -0.88680079     -1.31298749      1.09541551
O      -0.09882616     -3.60918505     -0.62317369
H       0.29600849     -3.35111856     -1.47669047
H       0.64228080     -3.64154608      0.01316163
O       2.69485492      1.46001975     -3.08886945
H       1.90262557      0.93059289     -3.26739536
H       2.42464203      2.12271569     -2.41927220
O       2.15193100      3.50045290     -1.19669805
H       1.96102588      3.30252294     -0.26387034
H       1.45102470      4.14497998     -1.41116678
O       1.85294321     -3.29365843      1.40535539
H       1.35739036     -2.73010062      2.02348327
H       2.36575748     -3.91929605      1.95171149
O      -0.16074957      5.22352332     -1.00688858
H      -0.08940541      5.12218485     -0.04761212
H      -1.04335881      4.88066566     -1.23098360
O      -4.86548243      1.99503749     -1.63510136
H      -5.16933957      1.98626679     -2.54878402
H      -4.42285837      1.11878307     -1.50783380
O       4.88134552      0.12978812     -2.15810431
H       5.61221185      0.42795117     -2.70820612
H       4.08106213      0.54803210     -2.56433156
O       0.15453732     -1.41190207      2.80020133
H       0.39350576     -0.52290944      3.14756566
H      -0.55023223     -1.67974751      3.40459908
O      -3.66915187     -1.44808487      2.12799244
H      -4.16310815     -2.25819575      2.28666334
H      -2.93732511     -1.69598221      1.50646822
O       5.81477592     -3.19329518      2.77483060
H       5.59545210     -2.73093032      1.94273005
H       6.73497826     -3.45948154      2.68829763
O      -2.29869167     -0.24627216      4.25285301
H      -2.86283575     -0.63131053      3.54725718
H      -2.83718103     -0.27569811      5.04908296
O      -6.44493934      0.65671437      0.47211023
H      -6.14592037      1.25921531     -0.22931690
H      -7.24523312      0.25717407      0.11879468
O       0.78785885     -2.92403689     -3.27063777
H       0.15286225     -3.41086099     -3.80561846
H       0.62680465     -1.98972630     -3.49583495
O       0.35358276      1.01177890      4.10047830
H      -0.61131708      0.96427774      4.19231835
H       0.53436346      1.86098870      3.66058420
