99
charge=0
O      -3.34745906     -4.42038660     -1.85112624
O       7.15384683      0.60435502      3.25104927
O       7.64745468      2.59716680      2.54333391
N      -1.23484089     -0.85751006     -2.46496996
N      -4.98667706     -3.54506403     -3.26141861
O       1.74191504      0.18849647     -0.83316020
C      -3.83626698     -3.54732869     -2.57913689
C       1.95259417      2.14000403     -1.91852900
C       0.80131673      1.49845412     -2.40258142
C       2.49669252      1.31617311     -0.94994078
C       0.69779468      0.30366168     -1.71716425
C      -6.06764542     -0.57369214     -5.18967598
C      -4.96545656      0.27502180     -4.96849941
C      -6.13637333     -1.86482115     -4.67388179
C       4.64987810      2.34343208     -0.29276366
C       3.65563538      0.61831321      1.10399764
C      -3.88181708     -0.16296683     -4.22379924
C       5.73250941      2.41191185      0.56188120
C       4.74168144      0.66799246      1.95178295
C      -5.06726621     -2.32687710     -3.90676733
C       3.60877791      1.42997806     -0.04784450
C      -3.93349295     -1.46436924     -3.70090322
C       5.77924093      1.55724136      1.66544664
C      -0.20065894     -0.78707017     -1.68141790
C      -3.11085463     -2.20923205     -2.84360255
N       6.93034947      1.58406006      2.54210966
N      -1.95839697     -1.98781976     -2.27395476
H       2.32116362      3.12458939     -2.17653540
H       0.07810201      1.87238089     -3.11629911
H      -6.90933252     -0.19890366     -5.76595181
H      -4.96841218      1.27993805     -5.37687631
H      -7.00826230     -2.49093107     -4.83477717
H       4.61045929      2.99142636     -1.16143845
H       2.82263366     -0.03872635      1.33305983
H      -3.04088472      0.49417799     -4.02370225
H       6.54873481      3.09447335      0.35571547
H       4.78357310      0.04503999      2.83752000
H       0.01454776     -1.57036909     -0.94428490
H      -1.62898940     -2.71219962     -1.61938367
O      -8.92307204      0.44449327     -3.00912174
H      -9.58105544      1.05543217     -2.66430518
H      -8.12787113      0.61294951     -2.47765140
O       6.04835635      4.93455784      2.66864424
H       6.70297224      4.21126343      2.60942450
H       6.33002040      5.47244826      3.41646889
O      -3.98931167     -0.66929464     -0.28772081
H      -4.22816381     -0.78873593      0.63689005
H      -4.83925537     -0.44814607     -0.73180036
O      -1.78967718     -5.34256808      0.23783729
H      -2.38147499     -5.43049054      0.99099253
H      -2.36872614     -5.07175680     -0.50300465
O       2.95279196      5.07886190     -1.06468285
H       2.45265996      4.72925059     -0.31005666
H       3.81624938      5.32059955     -0.69584170
O       1.48698728      3.80966313      1.20956864
H       0.76384034      4.36700191      1.51811944
H       2.15609873      3.83678006      1.92827142
O       6.19699904     -2.22529603      2.24911677
H       6.63225059     -1.45523333      2.63864896
H       6.17192841     -2.04311155      1.28484711
O      -2.13069393      2.50568934     -3.16902484
H      -2.19835988      2.22565235     -2.22793857
H      -2.49763067      3.39403795     -3.17617636
O      -6.32259853     -0.09429947     -1.70890017
H      -5.93983133     -0.08176110     -2.59676204
H      -6.86689593     -0.92637363     -1.68124985
O       0.92430717     -1.30771697      2.02420520
H       1.64014940     -1.68241931      2.55462859
H       0.54622296     -2.06756755      1.54316340
O       3.55166078     -2.70122449      2.66885238
H       3.49231055     -3.53833079      3.14059071
H       4.52299559     -2.50894928      2.61699455
O       0.10710265     -3.39878661      0.24839787
H      -0.52362786     -4.15390063      0.33266813
H       0.94955044     -3.76267905     -0.05361436
O      -0.19067695      1.37629956      1.34092808
H       0.23097750      0.54790410      1.61707301
H       0.51216434      2.04306486      1.28194302
O       3.01999582     -2.60761036     -0.13520360
H       3.12163447     -2.71645325      0.83308732
H       2.50223375     -1.79440583     -0.22023372
O      -7.52651417     -4.50569791     -2.84745100
H      -6.55600110     -4.32918969     -2.97968718
H      -7.56827977     -5.29364016     -2.29774302
O       5.70718826      5.61929540     -0.12306768
H       5.82670614      5.59384640      0.84068138
H       6.01830416      6.48824453     -0.39481568
O      -8.14826041     -2.08481812     -1.63333496
H      -7.99040255     -2.96440706     -2.04428314
H      -8.77267088     -1.62654616     -2.21345977
O      -2.36585305      1.71571971     -0.52170612
H      -2.91019985      0.91305892     -0.42829657
H      -1.60791864      1.57939942      0.07455900
O       5.69835869     -1.73800347     -0.45943351
H       4.77355012     -2.06080012     -0.49619571
H       6.16576007     -2.23862519     -1.13535304
O       3.45847361      3.67073579      3.15936809
H       4.30493668      4.10605208      2.95378275
H       3.66690208      2.72928531      3.16699593
