96
charge=0
F      -1.73226139      1.12458433      3.88485796
F      -2.79335989      2.96127772      3.40475451
F      -3.65130184      1.55254498      4.82642855
F       1.21236925      2.70208152     -1.56000252
F       0.07831455      2.88578216     -3.40952315
F       2.18065069      2.31477733     -3.46376974
F      -7.69903615      0.96639265      0.32905907
F      -7.63081371     -1.00424938      1.25253262
F      -7.77386691      0.77379709      2.49503356
N      -2.66160185     -0.50282353     -0.47251433
N      -2.91232380      0.47493342      1.57581355
O      -2.37600467     -1.38772866     -2.57700805
C      -3.18299345     -0.99237280     -1.56388796
C      -3.67931088      0.95774549      2.52880393
C       1.27521774     -1.60969942     -2.42804728
C      -0.06693023     -1.98154676     -2.41050980
C       1.62964260     -0.27432015     -2.56440333
C      -0.71237032      0.34746952     -2.67028134
C      -4.57229527     -1.17301837     -1.78371783
C      -5.07975307      0.93092193      2.51411280
C      -1.03437340     -0.99569651     -2.53069244
C       0.63451668      0.69489625     -2.68417227
C      -5.43527964     -0.75585606     -0.81669901
C      -5.69816781      0.35425899      1.42869466
C      -3.50675502     -0.06559763      0.48992325
C      -4.92460562     -0.15735292      0.36656266
C      -2.95155971      1.64730262      3.66903790
C       1.02521917      2.13988480     -2.78311409
C      -7.20460857      0.27149017      1.38396514
H       2.04593068     -2.36549177     -2.32352788
H      -0.36740286     -3.01513992     -2.27907128
H       2.67411749      0.01176897     -2.59606067
H      -1.50319992      1.08805357     -2.75189068
H      -4.91162600     -1.61412738     -2.71401905
H      -5.64911227      1.33013413      3.34339032
H      -6.50393432     -0.86555512     -0.96041575
O       0.92779124     -1.18835471     -5.76046755
H       0.39538983     -1.32794633     -4.96849384
H       0.81633106     -0.23276240     -5.97622833
O      -0.72952027     -2.47481005      0.64220042
H       0.24567443     -2.39557168      0.69977052
H      -1.04595318     -1.62389100      0.30205993
O      -2.94432291     -1.75598672      4.85826514
H      -2.51718196     -2.24596222      4.10540343
H      -2.38987862     -0.98153262      5.03399587
O      -2.32319740     -3.24722647      2.73553013
H      -3.21670458     -3.15943991      2.37460068
H      -1.71584984     -2.97194061      2.01048338
O       2.38771797      0.50833906      0.67184512
H       2.94104397      0.85514489     -0.04915045
H       1.47940834      0.83411233      0.51278399
O       3.76283001      1.46680219     -6.10513485
H       4.15571740      1.89938326     -5.32991070
H       3.83706289      0.51562354     -5.91615909
O       1.21518064      0.41353420      5.55189084
H       1.73267180      0.83019106      6.24734514
H       0.33895719      0.26863670      5.95591974
O      -1.31507147     -0.03536707      6.74570143
H      -1.87463932      0.66687854      7.09078523
H      -1.58803810     -0.85427337      7.21399949
O      -1.65313996      3.41930498     -0.41924324
H      -1.09702299      2.81178178      0.11714023
H      -1.02109836      3.90236665     -0.96058832
O       5.25726464      2.51806160     -3.77344238
H       4.86141594      2.45796555     -2.88690718
H       5.63756307      3.39948019     -3.83295671
O       2.07497824     -2.24614784      0.75629420
H       2.25037234     -1.27945223      0.71478521
H       2.40166461     -2.51384999      1.62113944
O      -3.55138220      2.04772177     -1.95203980
H      -4.13234148      2.72016471     -2.31870383
H      -2.91812425      2.54948635     -1.39528279
O       3.57885789     -1.34491027     -5.28428257
H       3.89603685     -2.04206563     -5.86682621
H       2.58926920     -1.34244010     -5.39410017
O      -0.22821576      1.52417806      1.04290104
H       0.18132973      1.76657513      1.90672106
H      -0.99746739      0.96612082      1.26708679
O       5.27354047     -0.39448910     -3.20944228
H       4.65370129     -0.83024837     -3.82529637
H       5.64523343      0.33428707     -3.72569635
O       4.47385467      1.31984896     -1.21219359
H       5.17917745      1.39049017     -0.55947831
H       4.73943830      0.56637007     -1.79085280
O      -5.15025700     -2.25589605      3.05958322
H      -4.60680785     -1.94275484      3.80463660
H      -5.74111849     -2.90892353      3.44698073
O       1.47172807      1.93726485      3.16655980
H       1.33030494      1.40825771      3.97602956
H       2.12688654      1.44242709      2.65393885
O       0.99128044      1.50093539     -6.39554657
H       1.95792156      1.64306525     -6.27950766
H       0.57031906      2.16179140     -5.83707089
O      -2.38714948     -2.47883148      7.49567425
H      -1.81213955     -3.24459375      7.58876635
H      -2.67956818     -2.49177401      6.55974315
