110
charge=0
O      -2.79934367      4.43239941      1.10104125
O      -4.15425449      0.40075400     -0.38804091
O      -0.27707706      2.51227999     -2.15716787
Cl      0.99567184     -0.52061487     -5.47970663
N       3.42736689     -1.42388373      1.08260685
N       4.11775227     -1.30168888     -2.42968651
N       0.99627373     -0.43568826     -0.90086475
O       3.23334075     -1.14631365     -3.52077759
O      -4.15216904      0.14636146     -4.57967577
S       5.78101392     -0.91941514      0.15219531
C      -2.61425123      3.50893133      0.32203313
C      -3.37141303      1.31864274     -0.52762350
C      -1.24678734      2.44687608     -1.41404863
C       4.05680594     -1.16414084     -0.03824296
C       3.41663395     -1.08266690     -1.33602448
C       4.29010020     -1.44780077      2.14648639
C       5.59926384     -1.19746578      1.84983849
C       2.05455542     -0.78265038     -1.64636996
C      -0.13469079     -0.26925341     -1.56070599
C       0.84759866     -0.60023259     -3.75030949
C       2.00815301     -0.85316739     -3.03005386
C      -0.30584703     -0.36568387     -2.98154188
N      -3.50693967      2.46318538      0.22982275
N      -1.51829601      3.44830233     -0.51661785
N      -1.60848921     -0.24735454     -3.42942003
C      -1.36627822      0.03662007     -0.79694369
C      -3.83503534     -1.57507487     -6.19761311
C      -1.95280559     -0.75765067     -4.76284685
C      -4.79038223      1.87465019     -3.13914701
C      -2.15441356      1.21947764     -1.44637773
C      -3.43214910     -1.06931823     -4.82864633
C      -3.96141169      0.60289206     -3.23207174
C      -2.46237016      0.88088396     -2.95288766
H       3.91688364     -1.64462605      3.14599675
H       6.44118411     -1.14483490      2.53114369
H      -4.26090150      2.43262686      0.92399874
H      -0.84127836      4.24248067     -0.44747543
H      -1.13968407      0.25582970      0.25091583
H      -2.04804117     -0.82483625     -0.82086059
H      -3.57670835     -0.84098254     -6.96850396
H      -3.31161993     -2.51010383     -6.41948930
H      -4.91264667     -1.75639045     -6.23208690
H      -1.72370565     -0.02925463     -5.55492632
H      -1.38804968     -1.67761227     -4.93241340
H      -4.77901585      2.32617691     -2.14604381
H      -5.83010682      1.63538669     -3.37735056
H      -4.42403546      2.61277351     -3.86098854
H      -3.69921161     -1.80095319     -4.04693791
H      -4.33741490     -0.17385086     -2.55512808
H      -2.19654339      1.76939421     -3.55025073
O      -0.64696786     -3.89639702     -4.77563117
H       0.33235144     -3.93378754     -4.78436894
H      -0.92059872     -4.75519734     -5.11133882
O       0.31770121     -3.50745192     -2.02923179
H      -0.38512309     -3.65907160     -2.67798250
H      -0.08919157     -3.58242998     -1.14801747
O      -2.95036814     -0.06273876      2.34911005
H      -2.67523336     -0.16986040      3.26475842
H      -3.80619466      0.40518584      2.39314299
O       3.92832287      1.82529490      2.13606103
H       4.53677686      1.45096548      1.48859967
H       3.50756330      2.59124436      1.68790756
O       5.04356546      1.49549049      4.73799649
H       4.65623066      1.71160864      3.86929039
H       5.97915170      1.32514392      4.55692532
O      -3.49049287     -2.48385708      0.82804249
H      -3.32928897     -1.67201392      1.34174340
H      -2.60688894     -2.87430674      0.70289243
O      -3.07657293      2.17564682     -6.29534152
H      -3.69321964      2.57761457     -6.91392426
H      -3.59725097      1.50445694     -5.82109700
O       2.08927686     -4.08864294     -4.13559834
H       2.72691301     -3.38557644     -4.30286395
H       1.78895224     -3.94352039     -3.21987637
O      -0.82797124     -3.54754144      0.59505202
H      -0.78194510     -4.40279267      1.03542163
H      -0.25811716     -2.94920602      1.15000840
O       2.21531460      3.94819000     -1.91204567
H       1.89475725      4.85574464     -1.82206117
H       1.41088619      3.46387862     -2.16553200
O       0.35011304      5.51383104     -0.14403050
H       0.95791056      5.05061741      0.46140544
H      -0.11881292      6.17857814      0.40079316
O      -5.42335935      1.37484740      2.10084874
H      -5.96735558      0.78376101      1.51881270
H      -6.02658242      1.71489412      2.76822206
O      -6.95129766     -0.25938240      0.52254402
H      -7.51492785     -0.89198655      0.97806193
H      -6.40096395     -0.81446469     -0.07458281
O      -1.48753041      6.96429723      1.38821037
H      -1.33415220      7.15581735      2.31828408
H      -2.02406930      6.15142147      1.38442894
O       4.76782321     -1.13983382      5.43329061
H       4.65334025     -0.17521680      5.26274179
H       4.42707214     -1.28629649      6.32047109
O       2.14758246      3.51399989      0.82972160
H       1.55369462      2.75188514      0.97908820
H       2.29536260      3.53414571     -0.14517145
O       1.09013964      0.93611280      1.57546213
H       1.98680153      0.89111748      1.94777789
H       1.15430339      0.42090416      0.73572966
O       0.75383787     -1.98711079      2.11301530
H       0.46674010     -1.06637331      2.21053256
H       1.60827642     -1.88507711      1.64326591
O       7.35244470     -0.43244118      4.55231059
H       6.62804046     -0.88443289      5.02592461
H       8.14506139     -0.60715574      5.06763714
O      -5.46342104     -2.07490368     -1.05905592
H      -5.85517827     -2.95252469     -1.10438064
H      -4.68172390     -2.19042547     -0.46918390
