68
charge=0
Cl     -2.61924401     -3.38002229      0.39647515
Cl      0.11614326      1.99977573      2.22680477
N      -2.79484055     -0.95209151      1.28759350
N       0.15348910     -0.20585064      0.81605398
S      -0.54921569     -1.39277649     -0.23994825
S      -2.36229073      0.71347120      1.39021439
C      -2.09365589     -1.72824022      0.57569230
C      -0.60175070      0.66158676      1.34711049
O       0.04111039      2.33334240     -1.66516791
H       0.69069368      2.11840333     -0.97656730
H      -0.76805798      2.65436614     -1.23542686
O       2.76611546     -1.87571370      0.85539373
H       3.49468015     -1.38676483      1.26348340
H       1.99172521     -1.33476353      1.08322542
O       3.40303106      0.65488638      2.13617397
H       2.75197508      0.21906142      2.73777956
H       3.79987822      1.34141612      2.69368284
O       0.27278865     -4.93341326     -1.06288203
H      -0.29356015     -4.35343731     -1.61687932
H      -0.08223495     -5.81730147     -1.19135917
O      -0.96916459      0.51505070     -3.45792877
H      -0.28555253     -0.10832426     -3.76733389
H      -0.52209804      1.08383291     -2.78885696
O       3.96826754      2.70650322      4.16655098
H       4.79301864      3.12015582      4.43866799
H       3.33319998      3.43667152      4.02616104
O      -1.13131594     -3.32184107     -2.83460872
H      -0.44171767     -2.76077804     -3.23275672
H      -1.88855261     -2.72386969     -2.70516975
O      -2.95428018      2.45451972     -4.04939399
H      -3.75338248      1.90163539     -4.12057403
H      -2.22093305      1.81884207     -4.13821653
O      -0.20841919     -2.42154029      3.02788161
H       0.21365324     -3.12653676      2.46768036
H      -0.68889975     -2.90293277      3.70795966
O       1.59058645      4.16109247      4.10864853
H       1.26753204      3.54648055      4.78946030
H       1.26863257      5.03095865      4.36239247
O       0.92734215     -1.54332498     -3.81184721
H       1.56089515     -1.32718902     -3.07792304
H       1.47619889     -1.77336917     -4.56740199
O       2.61644679     -0.86254797     -1.84296634
H       2.54975790      0.02857894     -1.45278828
H       2.73026570     -1.43418890     -1.06359150
O       1.11962945     -4.22179985      1.51675125
H       1.89886542     -3.68803952      1.29859989
H       0.74163366     -4.45544644      0.64295380
O      -3.01003881     -1.10159373     -2.48837970
H      -2.29072759     -0.49021822     -2.77518697
H      -3.70505897     -0.96756075     -3.14957582
O      -4.65620295      0.90342562     -1.05626712
H      -4.06306557      1.67637143     -1.01392858
H      -4.04528495      0.15385934     -1.16460793
O       2.50549366      1.59548175     -0.33286243
H       2.74637549      1.29738628      0.57585091
H       3.16939185      2.25202987     -0.56598593
O       1.66495482      1.78635089      5.66759174
H       1.66655920      1.50604985      6.58830315
H       2.60154126      1.81981735      5.40535935
O      -5.15981601      0.61872157     -3.73174836
H      -5.18895897      0.79328378     -2.76038904
H      -6.06940251      0.66302258     -4.04015075
O      -2.75722270      3.09715208     -1.41907629
H      -3.01982605      4.01367976     -1.28851598
H      -2.82447110      2.94750819     -2.40121595
O       1.74467823     -0.63865874      3.91767651
H       1.04699157     -1.26499513      3.62034054
H       1.28870158      0.04706998      4.42357139
