103
charge=0
O       0.83701195     -0.12515454      1.78412994
F      -1.10329642     -8.15174534     -0.24053377
N      -1.31271764     -3.44086306     -0.64859783
S      -5.65425412     -2.13027850      0.63118000
C      -2.00283315     -2.39046406     -0.93117083
C      -4.36454243     -1.47760834     -1.50106186
C      -3.43495892     -2.20686897     -0.69362299
C      -3.97504551     -2.62418948      0.49902018
C      -5.59264872     -1.32833247     -0.93582196
C      -2.50328251     -6.99567105      1.26331026
C      -1.29755043     -5.82118608     -0.48238990
C      -3.06306887     -5.78555913      1.66255526
C      -1.64402873     -6.98538080      0.17921729
C      -1.84627899     -4.59707857     -0.07325175
C      -2.75188306     -4.59569991      1.01112666
N      -3.31065403     -3.36811465      1.45539619
N      -1.34097613     -1.29593196     -1.51843864
C      -6.77099171     -0.58502436     -1.46878482
C       0.12160054     -1.39972305     -1.63917441
C      -1.67450582      0.02927122     -0.95977680
C       1.06303643      1.20254847     -0.12257947
C       0.80276759     -1.25969229     -0.28372190
C      -1.09886262      0.16378209      0.44411482
N       0.40335405     -0.00393265      0.45880404
H      -4.11287276     -1.04261795     -2.46323874
H      -2.73125692     -7.92469529      1.77360084
H      -0.59072525     -5.84423578     -1.30567573
H      -3.75314524     -5.76075065      2.50182988
H      -3.75444731     -3.37710770      2.37319546
H      -7.14588636      0.14931803     -0.74696423
H      -7.60213808     -1.25387093     -1.72156712
H      -6.46824601     -0.04367993     -2.36976493
H       0.39965722     -2.37345966     -2.04791746
H       0.45338117     -0.62635579     -2.34322002
H      -1.29898126      0.79721899     -1.64591890
H      -2.75566784      0.16252863     -0.89224618
H       2.13786966      1.02510779     -0.12162802
H       0.70986680      1.37928483     -1.13974987
H       0.81848343      2.04998257      0.51819353
H       1.88839414     -1.23033470     -0.38751439
H       0.52179933     -2.09267042      0.36363812
H      -1.31356976      1.14622759      0.87664727
H      -1.50279202     -0.61405143      1.10136967
O       3.55167660     -2.51187760     -1.70684572
H       3.54817652     -2.88547604     -0.78846644
H       4.14585163     -3.07441228     -2.21255190
O       0.35527768      2.80776004     -2.91314712
H       1.31155821      2.65344545     -2.95086198
H       0.23281952      3.47037140     -2.21123048
O      -0.03189787     -2.22079917      3.23397113
H       0.32838970     -1.47871051      2.67500041
H       0.47605161     -2.19525434      4.05260719
O      -0.30724098      1.57418695      3.59332991
H      -0.61237169      2.35835027      3.10561039
H       0.03558584      0.98290643      2.87810466
O      -1.26095944      3.47876701      1.59385030
H      -0.78381407      3.93770995      0.87102767
H      -2.14194959      3.86351349      1.60256726
O      -4.51192081     -1.04777074     -5.14635979
H      -4.65506300     -0.19008406     -4.69336661
H      -5.12516914     -1.66137427     -4.72997639
O      -1.90293048      1.68097213     -4.32860603
H      -1.13017030      2.09299681     -3.90867620
H      -1.66654562      0.74212116     -4.47998443
O       2.76763545      4.18209399     -0.23538880
H       3.06226742      3.60716474     -0.96531987
H       3.07500919      3.72991612      0.58085297
O      -4.54410564     -2.49778116      3.99197433
H      -5.41878080     -2.10679048      3.90654945
H      -3.92996471     -1.73755357      3.97349067
O       1.04818823     -4.39737008      1.71852439
H       0.42659397     -4.73625572      1.06141183
H       0.52775506     -3.77218888      2.25565892
O       3.52150219     -0.34970780      1.91227369
H       2.53043104     -0.23463449      1.88692611
H       3.75406520     -0.16370574      2.83060423
O       3.29721454      2.30314118     -2.36507983
H       3.63463578      1.48870045     -1.92351880
H       3.98422225      2.54016062     -2.99647308
O       2.38762276      1.73371248      4.27749793
H       1.41019135      1.76298367      4.17105300
H       2.56102472      2.11801541      5.14215332
O      -4.53020007      1.39135991     -3.72602124
H      -3.57010829      1.59480236     -3.85729881
H      -4.98690137      2.10991261     -4.17458899
O      -2.44712685     -0.67061174      3.56076967
H      -2.01119283      0.15233728      3.82723188
H      -1.71576514     -1.31215439      3.50671606
O      -1.71269358     -1.11566274     -4.52302506
H      -1.74132660     -1.33023864     -3.57656736
H      -2.63005472     -1.25658449     -4.82726101
O       3.68093155      2.70600210      1.93954355
H       3.18640225      2.57276057      2.77087129
H       3.84684552      1.79637443      1.65538325
O       3.47318827     -3.20121914      0.90642561
H       2.63811623     -3.62836146      1.19208120
H       3.52468092     -2.36525092      1.39636266
O       4.27872914      0.08222506     -1.05289563
H       4.35004729     -0.02069322     -0.09343742
H       4.09454192     -0.82517748     -1.38493435
O       0.18934917      4.57416712     -0.56078976
H       1.17190579      4.46410871     -0.37771434
H       0.07512071      5.51289396     -0.74309573
