110
charge=0
O      -0.04280164      5.71816644      1.31987960
O       3.55340826      5.03735488      1.43713400
O      -0.70914241      3.67467256      0.97572008
O       2.11452241      5.58149009      2.98461640
N       3.25035361     -0.91768511     -0.28597970
C       3.00431327      0.28055977      0.15186425
C       3.58138096      0.94890882      1.27874217
C       3.10531390      2.17645160      1.58756505
C       1.42623942      2.17222239     -0.24281379
C       1.99254450      2.79334447      0.86996100
C       1.97104363      0.95315494     -0.63271364
C       1.50672168      4.03830268      1.37271230
C       0.41134526      0.05167269     -2.31616284
C      -0.30941483     -1.05641432     -2.06115554
N       1.66537606      0.12367441     -1.63590878
N       0.20939636      4.49466423      1.22936649
N       2.44293996      4.96272229      1.98442560
C       0.00294593      1.16664324     -3.23500085
C      -1.66176703     -1.25468237     -2.66806005
C       0.30560159     -2.16900429     -1.24423075
C      -1.09214104      0.67531230     -4.18341031
C      -2.19464157     -0.01628270     -3.38622495
C       4.55163831     -2.32050334     -2.43730732
C       3.75324554     -3.63177130     -2.39856761
C       3.68200813     -1.06819632     -2.62456000
C       2.56194801     -3.57080311     -1.43114853
C       2.55480783     -1.06703647     -1.54459836
C       1.72445021     -2.34857196     -1.78272431
H       4.36854936      0.47632628      1.86517249
H       3.52313669      2.70318676      2.43860617
H       0.62757712      2.64772701     -0.79999691
H      -0.36310267      2.03889532     -2.67430949
H       0.88207289      1.51631857     -3.79218449
H      -2.35490465     -1.57896722     -1.88121590
H      -1.59667096     -2.11348085     -3.35667062
H      -0.27278603     -3.08883535     -1.37726590
H       0.30142636     -1.93503209     -0.17080268
H      -1.48912722      1.52281472     -4.74865533
H      -0.65757338     -0.03209446     -4.90406713
H      -2.59059175      0.68799997     -2.64328162
H      -3.03624747     -0.28924146     -4.02998977
H       5.28342290     -2.35925536     -3.25340254
H       5.11535111     -2.21697693     -1.50417447
H       4.42155000     -4.44859109     -2.10957504
H       3.37109426     -3.85416912     -3.40559201
H       4.27954590     -0.15488408     -2.52437187
H       3.19457479     -1.05870246     -3.60723690
H       1.94697793     -4.47275941     -1.53579644
H       2.91427552     -3.54226729     -0.39710675
H       1.59682437     -2.38783691     -2.87510510
O      -0.45897723     -4.85781926      1.26861986
H      -0.79754361     -4.05836615      1.73341552
H      -0.98206133     -4.86699914      0.45186380
O       0.71212600     -0.72176741      1.94464750
H       0.11654188      0.01043197      1.69913746
H       1.18775007     -0.46534608      2.75327159
O      -0.36688739      4.59572845     -2.09044995
H       0.42716020      5.11587603     -1.86585648
H      -1.08304940      4.99912041     -1.57097383
O      -1.28045959      0.98273272      0.94105593
H      -2.10563809      0.79507914      1.40423304
H      -1.03877015      1.89648566      1.18446155
O      -5.41493950      0.74032170     -3.33187862
H      -6.32801739      1.02799850     -3.42846891
H      -4.88310460      1.54302580     -3.53749604
O       4.94632433     -5.22191012      0.42918996
H       4.04530952     -5.32610945      0.76543587
H       5.43813988     -4.85626604      1.17664712
O       2.59606576     -0.86114055      4.11953917
H       2.24003489     -1.27657720      4.91163925
H       2.82629848     -1.60389920      3.51559014
O      -1.46494693      4.06800880     -4.60543790
H      -1.52177784      4.87651188     -5.12326126
H      -0.99806504      4.32707872     -3.78333822
O      -1.41592351     -2.50757353      2.37886978
H      -2.05925937     -2.16624011      1.73653683
H      -0.64376255     -1.91111932      2.29625517
O      -3.12937831      2.80701538     -0.73592137
H      -2.28300507      2.36249747     -0.58763596
H      -2.99513446      3.71252513     -0.40339013
O      -4.66607872      0.31002116     -0.65272873
H      -4.96108676      0.34295051     -1.58867748
H      -4.29346305      1.19286917     -0.50198752
O       1.82050514      6.18069584     -1.05504939
H       2.65208930      5.80158471     -0.74263926
H       1.41338726      6.54230152     -0.25580777
O       3.36090626     -2.65537565      2.17376309
H       3.27109084     -2.16057378      1.33832452
H       2.86679608     -3.49917426      2.04195644
O      -3.95213371      3.08255345     -3.48150649
H      -3.17791451      3.36936823     -3.99909513
H      -3.62524140      3.05581325     -2.56498429
O      -2.47663349      5.61011878     -0.29126539
H      -1.87049861      5.74379643      0.45978699
H      -2.99212136      6.41837933     -0.37350380
O      -2.46499913     -4.22065744     -0.80401748
H      -2.90245384     -3.44629176     -0.40345290
H      -3.18074910     -4.83096480     -1.00484926
O       5.54640216     -0.29108025      3.61193934
H       4.70175415     -0.43653924      4.06141564
H       5.89549016     -1.18236729      3.46128605
O       6.12338610     -3.05342422      2.39390856
H       5.16030040     -2.92024440      2.27051877
H       6.51726838     -2.68343885      1.59631576
O       2.15555313     -5.08966350      1.73146936
H       1.20307727     -5.01107323      1.44819958
H       2.13149965     -5.69797233      2.47729829
O      -3.61073232     -1.88255074      0.51460855
H      -4.35740757     -2.11960569      1.07540774
H      -3.92782073     -1.07932347      0.02413380
