70
charge=0
Cl     -0.95772444      3.49663629      2.39182380
Cl     -1.32712950     -0.49411082     -1.20925895
C       0.86472005     -0.05864172      2.09945971
C       0.56827396      1.21759841      2.60365317
C       0.29193836     -0.62632054      0.95678915
C      -0.40009521      1.87425003      1.86255822
C      -1.02903431      1.40107927      0.70943139
C      -0.63715142      0.14274557      0.27831918
H       0.55913518     -1.61476109      0.60237022
H      -1.77990633      1.97605613      0.18570166
O      -3.71403301     -0.46257508      1.18253740
H      -3.08818177     -0.26687067      1.90825286
H      -4.51637074     -0.74850527      1.63218750
O       2.20018046      4.46391879      0.69851252
H       2.05649920      4.25020538      1.64581414
H       2.77124347      3.73537521      0.41560709
O       1.66254717     -2.98345637     -1.67623013
H       1.68431895     -2.15949500     -2.22799190
H       0.73055160     -3.26913129     -1.70403459
O      -1.26371719     -1.56205284     -4.19246079
H      -1.36822958     -1.81921864     -5.11426962
H      -1.85357230     -0.77056178     -4.08036190
O      -4.00846164      1.37139172     -1.17208280
H      -4.85299916      1.79411348     -0.98638322
H      -3.85713352      0.77406242     -0.41638277
O       2.94807061     -2.97821806      0.48251849
H       2.38033112     -2.96793143     -0.39556907
H       2.36860733     -3.27063203      1.29263530
O       2.23127188      3.38953200      3.33060376
H       3.11540890      3.07648759      3.54669525
H       1.66244990      2.55699237      3.29185531
O      -0.95810544     -3.11986360      2.83087961
H      -1.47902797     -3.17160830      2.00007744
H      -1.14040852     -2.22854390      3.16770790
O       1.55456281     -3.86426291      2.39455683
H       1.43006194     -4.81743375      2.34459944
H       0.64408722     -3.48859246      2.57627408
O       1.79753933     -0.83489006      2.74095237
H       3.38501443     -2.06095512      0.60475547
H       2.07809936     -0.30843626      3.50527098
O       0.51276493      4.46341886     -1.42769027
H       0.96954904      4.46379470     -0.54673963
H       0.65669461      5.35107987     -1.76957796
O       1.51718195     -0.85701522     -3.37330117
H       1.51190124      0.04463139     -3.00876485
H       0.61711132     -0.98222717     -3.71949067
O       4.17897722     -0.73103863      0.58606513
H       3.64782295      0.09945925      0.47069223
H       4.86380325     -0.69158285     -0.08956253
O      -1.64521615      2.82561037     -2.36847193
H      -2.38593761      2.64061477     -1.77357868
H      -1.11830408      3.53227530     -1.95362615
O       2.78379898      1.57587148      0.25786655
H       2.20428098      1.63037521      1.03936400
H       2.15387996      1.51931553     -0.49232646
O      -2.81656115      0.66020215     -3.90395787
H      -2.23891893      1.42080750     -3.72588681
H      -3.37563887      0.64442524     -3.11101808
O      -1.11618168     -3.59103113     -2.16343585
H      -1.32545765     -4.43606854     -2.57448592
H      -1.26513652     -2.92027161     -2.86179738
O       1.14191016      1.73224108     -2.06417620
H       0.17979134      1.64904248     -1.95211071
H       1.24014520      2.69357063     -2.17925697
O      -1.95610116     -0.34922896      3.51679183
H      -2.30366833     -0.10575084      4.38124102
H      -1.19017010      0.24644737      3.38297896
O      -2.52105420     -3.15143428      0.49175604
H      -2.88861054     -2.25300962      0.50236242
H      -2.06513534     -3.21745161     -0.36223429
