108
charge=0
O       0.84610110      0.88914602      1.46068985
O       1.89409470      2.16894451      3.32335784
O       0.22855838      3.27806988      1.81782191
C      -0.16565868      2.66000155     -2.58934673
C      -2.89829156      0.99616224     -0.70574440
C      -4.04404205      0.19104568     -0.68193514
C      -0.97515271      2.21334464     -1.55415702
C      -2.04794813      1.34093997     -1.74603223
N      -4.64269558     -0.50951990     -1.63804333
N       0.88321961      3.48132740     -2.42609108
C      -3.04968074     -1.68588264     -3.11815089
C      -0.29428677      2.31867913     -4.05100837
C      -4.84674725      0.08100542      0.58842299
C      -4.19964998     -0.69071421     -3.01780437
C      -5.83429020     -1.24422505     -1.18712969
C       1.63635408      3.70936727     -3.66670368
C       1.45782654      3.82594826     -1.13302109
C      -5.84203804     -1.06251231      0.33576570
C       0.60973975      3.35375091     -4.74396264
C       2.35773141      2.68953120     -0.62390446
C       2.68768236      2.74874038      0.86172292
S       1.30280253      2.25046700      1.93742629
H      -2.69255262      1.46524032      0.25621327
H      -0.79497402      2.57128810     -0.54311912
H      -2.17976435      0.92857134     -2.74218368
H      -2.77479128     -1.83412497     -4.16658620
H      -2.16520228     -1.34350841     -2.57593603
H      -3.35641328     -2.64461472     -2.69316303
H      -1.33200332      2.36193009     -4.39272499
H       0.05642847      1.28850320     -4.20496680
H      -5.34150464      1.04536625      0.76492055
H      -4.19182554     -0.08981181      1.44699799
H      -5.05892847     -1.06969370     -3.57990963
H      -3.93481314      0.28665654     -3.43890106
H      -5.75349238     -2.28971959     -1.50592055
H      -6.72145402     -0.81397013     -1.67534770
H       2.50993791      3.03848078     -3.70254375
H       1.99105365      4.74484287     -3.69797140
H       0.64833512      4.02591650     -0.42554766
H       2.02743137      4.75033388     -1.25509010
H      -5.49232124     -1.97711277      0.81848527
H      -6.84211791     -0.83475062      0.71206087
H       0.03102421      4.24559287     -5.00688068
H       1.07599106      2.96650755     -5.65251608
H       3.30843929      2.70058589     -1.16965237
H       1.88101235      1.73276241     -0.85396158
H       2.97332257      3.75624255      1.18959151
H       3.49307360      2.04732436      1.10450523
O      -0.72153045     -3.85847960     -3.56691032
H       0.06069751     -4.35196940     -3.83588317
H      -0.72340136     -3.91357540     -2.56757115
O       3.37737267      6.32770785      0.29914051
H       2.65371915      6.24919537      0.96763017
H       3.98901982      6.96974619      0.67163708
O      -2.72363315      2.69220818      2.19457308
H      -2.90437417      2.03031159      2.87806630
H      -1.77470212      2.87214551      2.25427695
O       1.42906528      5.96673345      2.19419819
H       0.83306030      5.22461801      2.00463632
H       1.85833810      5.68870335      3.02660204
O       2.56188103      6.91327397     -2.38087623
H       2.85299562      6.81139940     -1.45501672
H       1.86632063      7.57561377     -2.33571504
O       2.66284866      4.67540645      4.42938896
H       3.62457766      4.65206969      4.42325390
H       2.39602047      3.78384336      4.13352713
O      -3.19879932     -5.07676327     -3.97584989
H      -3.07735458     -5.84416927     -4.54280135
H      -2.31723438     -4.63945348     -3.93568320
O      -3.13051114     -2.87936487      0.08788036
H      -3.54014035     -3.74177812     -0.10672915
H      -3.12260917     -2.78781679      1.06235523
O       1.29639104     -0.70878022     -1.06754291
H       2.22101572     -0.47384242     -0.84328224
H       0.75706212     -0.15996629     -0.47832192
O      -0.85495538     -4.10312685     -0.91524625
H      -1.52855698     -3.50472699     -0.51911682
H      -0.01658034     -3.92693330     -0.43404291
O      -0.74059068     -0.54713062      3.40050469
H      -0.41095741     -0.02258948      2.64787725
H       0.02486825     -0.58076796      4.00322099
O      -2.92995326     -2.40815533      2.86069089
H      -2.03880805     -2.03738758      2.96911254
H      -3.48600770     -1.71502453      3.24266114
O      -3.26522312      0.37677663      4.03670279
H      -2.31689947      0.12815462      3.99302951
H      -3.43024902      0.61187595      4.95503759
O      -3.45171502     -5.52852104     -1.02535334
H      -2.49152906     -5.50917130     -0.89549861
H      -3.53830641     -5.44820986     -1.98844739
O       3.93465878     -0.36260547     -0.06599518
H       4.53573844     -0.98410393     -0.48943609
H       3.68817859     -0.78721417      0.78149764
O      -5.67786901     -3.52500402     -3.89263957
H      -4.85491916     -4.02882872     -4.00726166
H      -6.37241454     -4.18685080     -3.95308513
O       2.52088126     -1.32568082      2.13210580
H       1.88841921     -0.60904532      1.92643225
H       2.62091054     -1.25328938      3.09303112
O       0.34335109     -0.98460872     -3.81790364
H      -0.07800236     -1.85655737     -3.82094561
H       0.67361691     -0.88782245     -2.91037786
O       1.58588811     -3.29773683      0.07500274
H       1.79613845     -3.03228002      0.98152638
H       1.47595791     -2.43741161     -0.37471106
O       1.79218211     -0.20730759      4.70830298
H       1.97914215     -0.09465231      5.64499481
H       1.86790391      0.68888633      4.30989904
