75
charge=0
N       0.90265240      2.44801648      1.78084769
N       1.39739358      1.38258418      2.39402537
N      -0.14863889      2.16215571      1.00331104
N      -1.30680149      0.08340141      0.52662354
S       1.68994836     -2.02490010      3.18182033
C      -0.34946365      0.83587106      1.12120275
C      -1.30415924     -1.17651400      0.82856211
C       0.72394372     -3.42159795      2.76915333
C       0.63037807      0.33922289      2.00243688
C      -0.32234547     -3.11447100      1.98557692
C       0.62859116     -1.02486367      2.27556883
N      -0.37999444     -1.75284091      1.69125656
H      -2.04385718     -1.86112315      0.42474506
H       1.03639932     -4.39850819      3.10735728
H      -1.06063809     -3.77561155      1.54842558
O      -1.36433767     -1.28542657     -2.92459792
H      -1.46250926     -1.23959054     -3.88138193
H      -2.06154762     -0.67898078     -2.55867032
O       1.77358098     -2.75864753     -0.21384521
H       2.71207390     -2.78597321      0.04435681
H       1.68776225     -2.07945172     -0.92459927
O      -3.15107089      0.33843632     -1.71253368
H      -3.20078681      1.20249375     -2.19786155
H      -2.61086061      0.53149897     -0.92248671
O      -3.50788438     -3.59229720      0.37598871
H      -3.00520544     -3.75818690     -0.46780188
H      -4.11223402     -4.33460589      0.46933567
O      -4.84652068     -1.04945500      0.17034339
H      -4.50458565     -0.64402875     -0.64485920
H      -4.47302190     -1.95048712      0.18951167
O      -0.64358524      3.71886554     -1.47175590
H      -1.32992390      4.37715868     -1.27152254
H      -0.56118770      3.20625761     -0.64370164
O       3.68057006     -4.21050797      3.23061698
H       4.01853513     -3.71745511      2.45912631
H       4.39188646     -4.16470471      3.87615426
O      -2.94843809      2.71149461     -3.00465637
H      -2.02155585      2.89234940     -2.77061336
H      -3.41020057      3.40077161     -2.49762025
O      -3.07598106      3.11695004      1.24395647
H      -3.46027511      2.25024583      1.49738317
H      -2.11936884      2.98298189      1.30379311
O       3.80759842      0.77716727      3.68822248
H       4.25930407      1.45332874      4.20141657
H       2.96029640      1.17984808      3.39294509
O       0.31104812     -4.97636289     -0.57049716
H       0.94194658     -4.21780952     -0.47009327
H       0.78028335     -5.62963920     -1.09777422
O       4.39759339     -2.67830777      0.90139237
H       5.17305738     -2.90708875      0.37958703
H       4.41671838     -1.68248655      0.97622344
O       2.15354033      5.00893447      1.33543188
H       2.96965484      5.08649787      1.83815356
H       1.73691303      4.17923506      1.64975833
O       1.35645460     -0.84275695     -2.09047085
H       0.42166735     -0.80910524     -2.35926968
H       1.59776942      0.02739941     -1.72584771
O      -3.36073532      4.67385424     -0.94829563
H      -3.39298132      4.10397943     -0.14118632
H      -3.83991129      5.47556067     -0.72073197
O      -1.94174873     -3.85516266     -1.75631462
H      -1.10250618     -4.25223380     -1.43805162
H      -1.70180843     -3.02530419     -2.20795080
O       4.41891739     -0.02005125      1.04562148
H       4.31752041      0.32189227      1.95497289
H       3.79999625      0.49086094      0.49074708
O       2.83762049      1.32222200     -0.98622202
H       3.50534278      1.24727261     -1.67791986
H       2.57951450      2.28610927     -1.02260131
O      -3.98742925      0.63036331      2.16034000
H      -4.31150705      0.00392267      1.46872696
H      -4.72753057      0.72706254      2.76736761
O       2.23218742      3.92130489     -1.28021658
H       2.30869262      4.41120655     -0.43735590
H       1.29453815      4.02199512     -1.52253055
