76
charge=0
Cl     -1.50936051     -1.79865853      4.80162131
N      -0.23700701      0.28355126      0.52032138
N       0.35903730     -3.61354262      4.85131138
N       0.03046668     -1.06558496      2.37186476
S       1.74746861     -4.27830449      4.25870786
S       1.99750668     -3.00496903      2.58555055
S       2.08865297     -0.96061800      0.47615713
C       0.48888980     -0.54154000      1.19954870
C      -0.08578447     -2.59066494      4.21551244
C       0.55638066     -2.06302200      3.00660594
C       0.45607342      0.74269614     -0.68316608
C       1.44301148     -0.32640410     -1.12584752
H       0.99428177      1.67491915     -0.44998232
H      -0.26986260      0.96458907     -1.47350949
H       0.94398499     -1.15001860     -1.64395955
H       2.26601314      0.06538553     -1.72560663
O       2.03115194     -0.91276167      5.54026787
H       1.44118738     -0.15027601      5.40661829
H       1.75161053     -1.28489018      6.38214813
O      -2.05762757     -1.94011228     -1.45078856
H      -2.37299401     -1.73372362     -0.55539916
H      -2.10890853     -1.10796082     -1.94810614
O      -2.18002762      0.35998594     -3.32722837
H      -2.37104534      1.23443753     -2.87375621
H      -2.98170252      0.14143944     -3.81390636
O      -2.21922784      1.87158946      3.67938439
H      -1.39430081      1.54708336      4.08498861
H      -1.92490581      2.49068336      2.99521304
O       1.62982044      2.71893178     -2.97655658
H       1.14269610      2.11137768     -3.56134134
H       2.49995316      2.28547816     -2.86225537
O      -1.02880794     -4.26149690      1.49601497
H      -1.45427607     -5.11920059      1.40071469
H      -1.76256991     -3.61710091      1.50035085
O      -2.61657155     -1.92960465      1.46538069
H      -3.38728615     -1.51965266      1.88988675
H      -1.86906498     -1.45515560      1.87465100
O       4.67682284     -1.38450564     -1.51738979
H       3.99641391     -2.04589421     -1.73949004
H       4.96070395     -1.61262386     -0.62746349
O       0.39120566      1.40475291      4.92080097
H       0.94980954      1.73933351      4.17814331
H       0.42886810      2.09826141      5.58825084
O       2.53761482     -3.14676377     -2.36511269
H       1.70096640     -3.31975066     -1.86096489
H       2.75339458     -3.98696574     -2.78146000
O       3.94912504      1.06425061     -3.09169772
H       3.57119029      0.37436113     -3.67503756
H       4.41005625      0.53325037     -2.42565563
O      -0.61064067      3.01753029      1.40337350
H      -0.73479276      2.07846290      1.15703505
H      -0.51261882      3.47096673      0.54601105
O      -0.12334816      3.95569155     -1.33462153
H       0.58079919      3.50705640     -1.87373459
H      -0.07555934      4.88263476     -1.58910958
O       0.15769926     -3.61938320     -1.15254250
H      -0.59518218     -3.02623428     -1.36198535
H      -0.00567932     -3.86958412     -0.22822181
O       1.69896601      2.24599416      2.69470415
H       2.49376330      2.77910034      2.60590072
H       0.99472503      2.69649548      2.17890377
O      -2.61981060      2.61884908     -2.01018160
H      -1.81209940      3.13125702     -1.82540334
H      -2.87294336      2.21447378     -1.15302630
O       2.51750474     -1.01273815     -4.42906996
H       2.43002116     -1.74070366     -3.79120436
H       1.64087776     -0.59717537     -4.46643134
O      -4.13707486      0.19860513      2.69932038
H      -4.95622981      0.41389183      3.15432774
H      -3.44218187      0.75592108      3.12806275
O       0.21226605      0.76445727     -4.58256988
H      -0.68479514      0.58132384     -4.21571919
H       0.06943901      1.02888420     -5.49698058
O      -3.08549468      0.92694858      0.09084001
H      -2.21739804      0.57851778      0.36821707
H      -3.65829175      0.79847773      0.86395564
