105
charge=0
O      -2.43320897      0.06370563      2.37876868
N       0.27800749      2.83051607     -0.47861198
O       0.81265095      2.63531077      4.52717218
S       1.10081054      2.72052262      1.94353513
C      -1.48275215      0.91964155      2.21800048
C      -0.02180570      2.26157714      0.63181664
C       0.24173388      2.22419953      3.39135487
C      -1.05993001      1.28561654      0.88938790
C      -0.90672313      1.48398478      3.41506201
C      -1.56634294      0.64979022     -0.27673579
N      -2.41124174     -0.36231150     -0.20712860
C      -1.08804437     -0.11900842      5.39668547
C      -3.30675819     -3.54501676     -2.04103120
C      -4.18887986     -2.76406040      0.18871592
C       0.13233496      2.87804227     -2.90581331
C      -1.83280049      3.51142234     -1.48330814
C      -1.55840500      1.18812987      4.74578542
C      -1.07577922      1.10846937     -1.61908407
C      -2.84225690     -1.21797642     -1.30719746
C      -3.04697963     -2.65605673     -0.82399812
C      -0.62335669      2.57262415     -1.61546028
H       1.70817630      3.10667870      4.36445620
H      -2.70754581     -0.57691386      0.74958533
H       0.00555944     -0.16100397      5.45870100
H      -1.48892584     -0.21396918      6.41154843
H      -1.42743687     -0.98597287      4.82333367
H      -4.21260530     -3.22238636     -2.56907050
H      -2.47044816     -3.50494367     -2.74782430
H      -3.44947179     -4.58746134     -1.73877885
H      -4.32849716     -3.80459268      0.50008116
H      -4.00784267     -2.18001151      1.09836207
H      -5.12847714     -2.41131931     -0.25311005
H       0.99153640      2.21042979     -3.02616090
H       0.48786822      3.91340290     -2.89066306
H      -0.52298565      2.75272458     -3.77290771
H      -2.48368974      3.41453087     -2.35744830
H      -2.41451021      3.28420576     -0.58250668
H      -1.48866446      4.54780632     -1.41915514
H      -1.35544644      2.02177702      5.42478395
H      -2.64179107      1.13842328      4.59591361
H      -1.85979667      0.97913757     -2.37383446
H      -0.23985924      0.45877551     -1.92038034
H      -2.08389027     -1.20562496     -2.09116131
H      -3.78730591     -0.83782942     -1.72119459
H      -2.11070850     -2.98097223     -0.34695613
O      -0.00421768     -1.75115257     -4.24732638
H       0.18692135     -1.87143189     -3.29853915
H      -0.95678098     -1.55878980     -4.30063039
O      -1.57949397      1.06346639     -6.18563477
H      -1.92062248      1.91612194     -5.84918301
H      -0.62473874      1.03249679     -5.96717088
O      -4.37893194      1.31929242     -3.64856012
H      -3.94394836      0.47928061     -3.87742701
H      -4.64419567      1.25534571     -2.71292006
O       1.06637414      0.50895226     -5.39631329
H       1.63682993      0.23085877     -6.11925577
H       0.78386566     -0.33099965     -4.96272307
O       3.63824815      0.11135797      2.68977290
H       3.29634720      0.46472290      3.53916634
H       2.85095129     -0.04920275      2.13120990
O       3.19517132      3.60223049      4.26001082
H       3.61978385      3.48279055      3.36857684
H       3.67068325      2.98021603      4.82762939
O      -5.38284173      0.95888981     -1.00568351
H      -5.06629529      1.24774951     -0.12376835
H      -6.32910912      1.12997367     -0.99262900
O       1.63145441     -1.05554747      1.03861889
H       2.02399992     -1.93944369      1.02115358
H       0.78462751     -1.21431948      1.50979294
O       4.42369344      2.97021560      1.89600361
H       4.30799860      2.00755306      1.92485223
H       3.95261098      3.24774766      1.08393720
O      -0.60772308     -2.11204589      2.38197890
H      -0.16723553     -2.32437178      3.23270342
H      -1.35748687     -1.51533647      2.56051975
O      -2.92797370      3.23217673     -4.97667285
H      -3.51352951      3.72916039     -5.55565067
H      -3.52022277      2.63706726     -4.46304399
O       3.13576419     -1.85177992      6.20930750
H       3.63498867     -2.14731874      5.42033266
H       3.64039582     -2.14757467      6.97312896
O       0.46653241     -3.96500396      0.62740313
H      -0.11820440     -3.48652643      1.24690797
H       0.26747237     -4.89808658      0.74655263
O       3.02342373      3.69944168     -0.52216337
H       2.06293322      3.48780551     -0.59870168
H       3.41823149      3.31926158     -1.31291653
O       3.92766299     -2.41980104      3.59315873
H       3.94170779     -1.50621276      3.19911268
H       4.68859879     -2.88218965      3.22897614
O       2.92461468      0.82780546      5.32763738
H       2.01204886      1.14132192      5.40155532
H       2.96177401     -0.02316152      5.80333499
O      -2.73595194     -0.81914306     -4.72827165
H      -3.20561762     -1.41445400     -5.32187423
H      -2.32236297     -0.12590626     -5.32838037
O       0.40696937     -2.01890625     -1.47451869
H       0.86720580     -1.42444182     -0.86239001
H       0.37262988     -2.85593499     -0.98230552
O      -4.62327103      1.69633391      1.58451155
H      -3.96229314      1.07288009      1.94470470
H      -4.20534507      2.55928880      1.67327235
O       1.11313477     -3.02133369      4.31751550
H       1.31907598     -2.66586288      5.19221891
H       1.97337458     -3.00019660      3.86859544
