97
charge=0
N      -0.63206834      1.38536493      1.96125952
C       0.40477494      4.76807098      3.06777452
C       1.53006641      4.92965708      2.22907691
C      -0.35068380      3.60330395      3.06435021
C       1.90981556      3.92379331      1.34824609
C       1.94054514      1.10632213     -0.57793032
C       0.01667260      2.57812463      2.17655333
C       1.14702858      2.74805392      1.30261564
C       1.16692273      1.57028126      0.49918136
C      -1.68686216     -2.37896623      0.00301173
C      -0.81729585     -2.80038960     -1.04230569
C      -1.39331599     -1.19489603      0.64724243
C       0.05522311      0.80635411      0.94482419
C       1.61129090     -0.07315238     -1.16982094
C       0.24805099     -2.01121565     -1.37709417
C      -0.28632656     -0.41045113      0.30608967
N       0.52531814     -0.82529170     -0.73886940
C      -2.85389577     -3.22185877      0.43600272
C      -1.06314189     -4.07640123     -1.80718231
C      -3.23295865     -4.29125590     -0.58829484
C      -1.98144314     -5.03634734     -1.05082064
H       0.12140313      5.58132688      3.73024945
H       2.09131958      5.85882939      2.26193519
H      -1.23289132      3.50096817      3.69344162
H       2.77758464      4.05360437      0.70395113
H       2.78280955      1.66029796     -0.97958041
H      -2.02297577     -0.83946286      1.45718781
H       2.16324301     -0.49794973     -1.99857793
H       0.92930511     -2.28440967     -2.17751061
H      -2.57027143     -3.72017789      1.37631653
H      -3.69567034     -2.55776819      0.66274783
H      -0.10220464     -4.54369371     -2.05217179
H      -1.54333936     -3.79541263     -2.75428739
H      -3.72102682     -3.82738025     -1.45566547
H      -3.95053631     -4.98388983     -0.13509893
H      -2.24815268     -5.87177594     -1.70766623
H      -1.46538461     -5.45742464     -0.17715236
O       4.04358132     -1.03175289     -3.58102183
H       3.45360750     -1.68446408     -3.98825381
H       4.32976042     -1.48793493     -2.77210741
O       0.60850581      2.64900854     -3.47956526
H       1.49587985      2.24730538     -3.47327000
H       0.69610276      3.46429208     -2.95356720
O      -1.98539483      3.86211404      0.00664385
H      -2.66125759      3.28168540      0.42160017
H      -1.39371260      4.03976727      0.75058423
O      -3.68238583      3.45734518      4.01008344
H      -3.72767040      2.92634514      3.19491362
H      -4.14139933      4.27118849      3.78433907
O      -1.29817776      1.61670581     -1.79577790
H      -0.61477063      1.89716700     -2.45155908
H      -1.39909562      2.36741379     -1.18380066
O       4.14664593     -3.01468962     -1.42976684
H       4.92659499     -3.52958432     -1.20199747
H       3.73555667     -2.76404676     -0.55447467
O       3.09591602     -2.21728462      0.86772524
H       2.35710514     -2.64367719      1.34526336
H       3.77180502     -2.02140909      1.54981419
O      -4.57924652     -0.15653923      0.21134063
H      -4.26896955     -0.01255468     -0.70950031
H      -5.53796898     -0.20808929      0.15184372
O       2.65562084      2.84994310      4.54499608
H       2.51182172      3.55178287      3.89107127
H       1.79755159      2.78358203      4.98107531
O       0.41826828     -0.87740932      3.78117221
H       1.28629541     -0.44483280      3.66647506
H      -0.19495169     -0.21964908      3.41255575
O       2.39149445     -3.43375222     -3.54522715
H       2.99872643     -3.56225526     -2.78899221
H       2.36379897     -4.27465652     -4.01043484
O      -1.00840250     -5.39374453      2.58927085
H      -1.25480996     -5.64251174      3.48456893
H      -0.30356924     -4.73492256      2.70302893
O       0.75913180     -3.12130126      2.21614772
H       0.58320671     -2.34273978      2.80314857
H       0.13755535     -2.99128810      1.48677611
O      -3.15953172     -2.17504869     -3.64696904
H      -2.92599468     -1.94383404     -4.55047487
H      -3.25572783     -1.31506081     -3.19998597
O      -3.53321357      0.36095898     -2.33080402
H      -2.67463305      0.85714147     -2.17151182
H      -4.06444469      0.95664211     -2.86938458
O       2.86442382      0.48376877      3.12646456
H       2.85482650      1.34380247      3.60654387
H       2.60951682      0.70010948      2.21709555
O       4.91292830     -1.39102186      2.83044681
H       4.98171623     -1.93121510      3.62365298
H       4.32105487     -0.65292687      3.07981967
O       3.34463610      1.66746134     -3.46480891
H       3.85012880      2.11515855     -4.14962984
H       3.59614946      0.72380439     -3.54534942
O      -3.35488785      1.99756108      1.55811169
H      -2.46407899      1.62786219      1.77556285
H      -3.85686087      1.26101462      1.15514761
O       0.32705966      4.83271464     -1.59186488
H      -0.60769723      4.71045238     -1.36947370
H       0.77716583      4.62750468     -0.76201132
