90
charge=0
N       2.31589831     -1.25834741      4.72634080
N      -0.08544407      3.47893634     -3.25683937
S      -1.36270103     -1.79953233      4.34055454
C       1.60775261     -1.32902618      3.80914284
C      -0.29718319      2.79109541     -2.34774639
O       0.66773615     -2.15076527      0.41676431
C      -0.66110236     -1.24166776      2.89718740
C       0.76976643     -1.42503964      2.67592857
C       1.36772652     -1.72708932      1.45373886
C       0.38209585      1.78945917     -0.21623476
C      -1.78088794      1.24668442     -1.17431024
C       0.12342344      0.95215641      0.85290918
C      -2.02262509      0.38815131     -0.11783220
C      -0.56542997      1.94123584     -1.24078518
C      -1.07264416      0.22762405      0.89998729
N      -1.42608482     -0.61495361      1.97374333
C       3.53987168     -2.77804776      0.59109533
C       3.34661227     -1.52798587     -0.17588546
C       2.80045289     -1.60568298      1.24411203
H      -0.16968557     -2.70054083      0.67952641
H       1.31481937      2.33871249     -0.26502306
H      -2.52299427      1.36292331     -1.95620104
H       0.85393811      0.88733495      1.65043599
H      -2.96133556     -0.15386298     -0.07857986
H      -2.43840453     -0.68614860      2.12785740
H       4.51683532     -2.99784317      1.00792750
H       2.92862473     -3.63502591      0.32784034
H       4.18881308     -0.85729545     -0.29553054
H       2.63191667     -1.54356831     -0.99039339
H       3.34159085     -1.04770710      1.99941843
O       2.22825342      0.17803993     -3.77331553
H       1.56604256     -0.40032293     -3.36381541
H       2.31078229      0.96527059     -3.18025725
O      -0.17600263     -4.67503939      3.34088252
H      -0.36441913     -3.91176935      3.92082927
H      -0.44053361     -5.44785965      3.84968698
O      -1.82610561      3.76142808      1.52643622
H      -1.79542829      3.88622109      0.57202929
H      -2.54399752      3.11199592      1.65017445
O       5.04041325      1.09780661      1.23958428
H       4.21971013      1.41688623      1.68334721
H       5.75419993      1.55170211      1.69767992
O       3.39793681      1.34910060      5.38053115
H       4.33363113      1.27899697      5.59295047
H       3.07990719      0.42676464      5.37884694
O       2.78127104      1.77597935      2.64373236
H       2.18744845      2.54571420      2.54834183
H       2.98105150      1.70914009      3.59855861
O      -1.34568904      0.07479654     -4.44165055
H      -0.76287557     -0.15862304     -3.70207380
H      -0.81775982      0.69829836     -4.98922796
O       2.74167754      2.38533326     -2.23988698
H       2.69044674      3.21969271     -2.71712869
H       3.69339342      2.25660010     -1.97768846
O      -4.16687033      2.15357006      1.61484172
H      -4.31090535      1.19480993      1.71509638
H      -4.90106568      2.57026776      2.07478998
O       4.87010304     -0.64556638     -3.12590487
H       5.39949948     -0.72643624     -3.92483868
H       3.96412187     -0.45409832     -3.44460672
O       5.23055405      1.70999686     -1.52544397
H       5.27554864      0.86228932     -2.00724439
H       5.18427861      1.47801065     -0.57630842
O      -3.75011795     -0.32114421     -3.45211333
H      -2.92862267     -0.04710026     -3.94423566
H      -4.45076811     -0.36494935     -4.10967035
O       0.89465358      3.85877155      2.27476554
H      -0.04982078      3.69101786      2.08114277
H       0.88840165      4.61321313      2.87075007
O       0.53712181      1.68334657     -5.68603922
H       0.45176251      2.49790594     -5.16934538
H       1.24768297      1.19645725     -5.23108534
O      -1.18763847     -3.76793333      0.95316006
H      -0.97378882     -4.18426694      1.81924852
H      -2.11868006     -3.48361972      0.97391988
O       0.07061108     -1.35493468     -2.34516042
H      -0.75730915     -1.86384172     -2.32993844
H       0.30390184     -1.27404258     -1.40875426
O      -3.83428450     -2.89198956      0.25006981
H      -3.49963278     -2.75165288     -0.66783043
H      -4.46451609     -3.61667530      0.17992028
O      -2.72360375     -2.47937737     -2.24735454
H      -3.17423406     -1.73024302     -2.72819575
H      -2.75161055     -3.22599119     -2.85582521
O      -4.38620760     -0.65227329      1.98676977
H      -4.45278596     -1.40475368      1.37497778
H      -4.65702068     -0.98415911      2.87104080
O      -4.65350438     -1.60080948      4.54921341
H      -4.89129743     -0.98023251      5.24600733
H      -3.67510486     -1.63850696      4.57673873
