96
charge=0
O      -1.47790558      1.56374919     -1.88313725
O       0.47924082      0.86870871      2.03699548
S       0.09674574      3.03719635     -0.32770407
S      -1.07019126     -1.23648027      2.36847810
C       2.72226987      0.93287214     -0.04497477
C       2.55648457     -1.10355702     -1.45326117
C      -1.35972565      2.85510969     -2.51381272
C      -0.45213740      1.27070100      3.05858168
C      -1.15045272      3.85469251     -1.40046730
C      -0.94500259     -0.00745199      3.73567205
C      -1.09031221      0.49584887      0.18397313
C       0.70738862      0.54240274     -1.58157754
C       0.99515815     -0.88204391      0.46780168
C      -0.42577454      1.31708918     -0.91774656
C      -0.09407687     -0.09761731      1.18063166
C       1.74203835     -0.09286237     -0.63097206
H       3.24090827      1.45522271     -0.85715993
H       3.48070752      0.42382313      0.56170200
H       2.24038824      1.67858710      0.58939724
H       3.08407506     -0.59414534     -2.26676697
H       3.29467691     -1.59441754     -0.80876072
H       1.90801897     -1.87306475     -1.88778877
H      -0.51463822      2.85422855     -3.21320425
H      -2.28701171      3.02716311     -3.06679510
H      -1.28196465      1.84066262      2.62481028
H       0.08795370      1.91062287      3.75734822
H      -0.75235803      4.79849201     -1.78005820
H      -2.07439644      4.04418373     -0.84563047
H      -1.92460889      0.13448134      4.19907157
H      -0.23109689     -0.37093333      4.47825839
H      -1.86297308      1.08771556      0.68205968
H      -1.58909118     -0.34991048     -0.31019524
H       1.21464644      1.16514573     -2.32465258
H       0.22068881     -0.28722607     -2.11118067
H       0.50505303     -1.74324599     -0.00467731
H       1.70745330     -1.27638671      1.20316143
O       2.22108883     -4.26986974      1.29207423
H       2.34073704     -5.19377354      1.54002477
H       1.98315938     -3.80806826      2.14427206
O       4.95760465     -0.75154728      2.55097082
H       5.72747232     -0.88091004      3.11299670
H       4.89480910     -1.57226987      2.01565116
O       0.57513951      1.27530283     -5.50591293
H       0.33130719      2.21588431     -5.50919155
H      -0.20864139      0.78942832     -5.19987322
O       2.97496840      1.38041617     -4.14125047
H       2.14834711      1.21850001     -4.65148616
H       3.68542865      1.33680980     -4.78806297
O       2.15179432      3.81972288     -3.02776442
H       1.75357030      3.61786211     -2.16392263
H       2.57746371      2.98458940     -3.31542594
O      -1.44061885      2.49642518      5.77751458
H      -2.28065009      2.08155529      5.53427515
H      -0.85461584      1.77201925      6.03178194
O       2.50537169     -0.30995189      3.75704448
H       3.41475022     -0.37892401      3.38823025
H       1.98374952      0.14389050      3.07108169
O      -4.12252319      0.54543612     -2.22967773
H      -3.33080267      0.96165638     -1.84643445
H      -4.80428501      1.22489217     -2.18734432
O      -3.98738852      1.22845621      4.66535547
H      -4.20391032      0.96322781      3.75092782
H      -4.69775523      0.86960785      5.20407881
O       1.25932224      0.93550823      6.09487865
H       1.70678951      1.74249012      6.36656868
H       1.83754298      0.54851127      5.41485810
O       1.51255637     -2.98541519      3.53450167
H       1.96160452     -2.12997214      3.69675655
H       0.61341611     -2.70234940      3.29671900
O      -4.06331440      0.29449892      1.98991894
H      -4.60965881     -0.19139147      1.34056889
H      -3.26806327     -0.25774883      2.05446920
O      -2.74090469     -3.06424079      0.04486944
H      -2.62226931     -2.50991405      0.82753439
H      -1.99057097     -3.69281372      0.09249864
O      -1.08085076     -2.35944329     -2.21285876
H      -1.35894330     -1.93656328     -3.03805684
H      -1.87473449     -2.42559865     -1.65644280
O      -5.12693245     -1.26911190     -0.15540713
H      -4.78068424     -0.77440926     -0.91770253
H      -4.66826086     -2.11954403     -0.19701880
O       4.75756952     -3.08155042      1.03761615
H       3.87842318     -3.51639507      1.04005991
H       5.01075291     -3.02574790      0.11128198
O       0.51840708      4.20653772     -5.16553183
H       1.03647988      4.65623552     -5.84072896
H       1.11305482      4.15624885     -4.37233198
O      -1.67275929     -0.15981755     -4.18523021
H      -1.59028262      0.35143929     -3.35881432
H      -2.61431245     -0.09873712     -4.38801340
O      -1.95272090      5.31100234     -4.18036068
H      -2.18913315      6.15499081     -4.57426902
H      -1.12828660      5.04819610     -4.62613621
O      -0.28204718     -4.43110887     -0.31978640
H      -0.16110857     -3.93831542     -1.14494413
H       0.54394683     -4.31299591      0.17922789
