86
charge=0
O      -2.48862837     -0.91834757     -1.08254667
O      -1.61817768      0.45827303      1.78618408
O      -1.06631781     -1.71402551      1.92103316
O      -0.86599436      1.81780334     -2.44075562
C      -1.68396482     -0.00814284     -1.39677833
C      -0.93989446     -0.50219895      1.42828046
C       0.02072545      1.43857948     -1.48581577
C      -0.41512247      0.33255426     -0.82130141
N      -1.89495799      0.86426718     -2.43577066
N       1.02212817     -1.48782693      0.06685282
C       1.23787944      2.26222727     -1.39615096
C       0.32977797     -2.61283840     -0.59102534
C       1.84659888     -1.92231932      1.21422065
C       0.18093673     -0.32327418      0.38668180
H      -1.73587471     -1.68631213      2.67568217
H      -2.83767545      1.30340453     -2.56478644
H       1.91038824      2.01928223     -2.22674674
H       1.75714602      2.06775009     -0.45491686
H       1.00202075      3.32837626     -1.46325127
H      -0.41080584     -3.09437753      0.05586735
H       1.07878080     -3.36456412     -0.85671956
H      -0.15950847     -2.25557786     -1.50211493
H       2.41110116     -1.06258529      1.59093536
H       2.54441870     -2.69148894      0.87033335
H       1.25408792     -2.34681568      2.03160368
H       0.84828355      0.41336169      0.86347914
O      -3.09297337     -0.75610672     -5.14051907
H      -3.67251942     -0.76521580     -4.36025334
H      -3.60302107     -0.31441656     -5.82634421
O      -4.45366033      1.83914036     -2.29243280
H      -4.99960781      1.04959677     -2.40629777
H      -4.36663470      1.94848950     -1.31995423
O      -3.95944410      1.84671828      0.49798028
H      -4.38160857      1.00650749      0.73837897
H      -3.04476339      1.71509619      0.78911760
O       4.46668541      0.90591270     -0.17797085
H       3.97912771      0.24430220     -0.72542208
H       5.32858448      0.51405229     -0.00452509
O       3.47297131      2.52551313     -4.35766450
H       4.11340840      2.51204339     -5.07472924
H       3.02841536      1.64502625     -4.39702167
O       2.24386369      0.09186313     -4.29919284
H       2.29881593     -0.25940237     -3.39379965
H       1.31032298      0.03082802     -4.57770166
O       2.85956779      5.14121633     -0.75686925
H       3.46321914      4.47887679     -1.18448140
H       3.30418455      5.98599770     -0.87501174
O      -4.76896799     -0.99316811      0.55217889
H      -3.85117904     -1.06654276      0.22395132
H      -5.29128852     -1.09876797     -0.25428710
O      -5.12765905     -2.35761614      2.99751440
H      -5.96066443     -2.09429758      3.40032881
H      -5.12483532     -1.94687512      2.11049005
O       1.72702705     -5.15511938      1.24579135
H       1.47501386     -6.08248126      1.25146987
H       1.48688824     -4.84291652      2.13842530
O       0.11316231     -1.96657800      4.97140689
H      -0.85032428     -1.90442243      4.96478811
H       0.41170216     -1.12793061      4.57026339
O      -2.74939192     -1.38495016      3.94085550
H      -2.85064585     -0.43597836      3.78532254
H      -3.63381399     -1.76993624      3.73043910
O       4.50125084      3.30812028     -1.87226548
H       4.56330241      2.50864097     -1.32354569
H       4.18170908      3.00022385     -2.74694852
O       2.53362351      1.62264166      1.88497050
H       2.54028843      2.60563324      1.91832496
H       3.31477284      1.37507392      1.36347192
O       1.10870243     -4.34490408      3.92127461
H       0.72858790     -3.49639939      4.23809802
H       1.83497618     -4.51647430      4.52751700
O      -0.40540374      0.37516036     -5.26525268
H      -1.25076714     -0.08341648     -5.11191008
H      -0.56650445      1.26974169     -4.94762445
O       2.91382289     -0.82102714     -1.65655238
H       3.33373602     -1.66009294     -1.87839035
H       2.14489316     -1.06147021     -1.00380919
O       2.45754644      4.39006595      1.85523121
H       1.60211143      4.75370386      2.10217370
H       2.60710528      4.70035616      0.93102118
O      -4.65952146     -1.17402119     -2.64784328
H      -4.84301946     -2.09986891     -2.84136418
H      -3.81952585     -1.17158655     -2.11896705
O       0.76280593      0.56781358      3.80389743
H       0.00070375      1.00448406      3.40681753
H       1.51532517      0.85831478      3.25310455
