89
charge=0
N      -4.45980548      2.20230176      0.75699844
O       1.97605896      3.80717804     -4.29833236
O      -1.90141929      1.70320700      2.76938112
N       2.65159193      3.31806316     -3.36481218
N      -3.49069490      1.67339742      0.58380866
O       1.51340941     -2.05909002     -0.38258589
C      -1.50237048      1.10843549      1.72103651
C      -2.30844111      1.06951702      0.50670464
C      -1.91345857      0.40831542     -0.68455756
C      -0.71317600     -0.23337331     -0.69957307
C      -0.27128945      0.40837328      1.60904596
C       0.11957521     -0.22578044      0.45429149
N       2.76602097      2.02960013     -3.36703834
C       1.48146297     -0.88389919      0.42201748
C       3.30703400      1.37024387     -2.17961385
C       2.55887420      0.06605405     -0.12162244
C       2.16473057      0.65132656     -1.47143760
H       0.64476698     -2.53014245     -0.34699076
H      -2.57211731      0.41839545     -1.54519478
H      -0.39252804     -0.75214172     -1.59452335
H       0.36679782      0.38481642      2.48815851
H       2.19461551      1.46602666     -4.01977495
H       1.74518564     -1.13090643      1.46266576
H       3.75468890      2.14968730     -1.55365939
H       4.08514520      0.66130406     -2.48779909
H       3.48335319     -0.52144088     -0.20343612
H       2.73030191      0.86651088      0.60808502
H       1.34382290      1.36453343     -1.33511455
H       1.81213908     -0.15743873     -2.12151002
O       0.52589333      5.46521825     -2.37389721
H       1.01319211      5.10699984     -3.13489486
H       0.97329647      6.29109706     -2.16609312
O      -4.70832128     -0.99523349     -0.29858923
H      -5.58466147     -1.32095780     -0.52710070
H      -4.66596189     -1.07359391      0.68273780
O      -1.26527302     -1.43953280     -3.91967407
H      -1.72672332     -1.74179741     -4.70977167
H      -0.62186223     -2.17379139     -3.70781003
O       0.72932059      2.40055736     -6.47113620
H       1.14319588      2.94841405     -5.77468940
H       1.22917884      2.59193194     -7.27032406
O      -0.41990162     -2.42737183      4.00930394
H      -0.45895790     -3.15487087      3.36566895
H       0.50750629     -2.13661712      3.99386006
O      -4.69130185     -1.11364996      2.44294493
H      -5.38786973     -0.64140452      2.90792472
H      -3.91964267     -1.08767563      3.06231578
O       2.46509597     -3.76537717      1.74919763
H       2.37201658     -3.28268005      0.90662813
H       2.59362770     -3.06642603      2.41392759
O       2.42291911     -1.68634818      3.84113670
H       2.48304655     -0.69887592      3.76720312
H       2.92744986     -1.90433586      4.63142689
O       2.85264935     -1.72689595     -3.96810992
H       3.31131723     -2.27993577     -4.60830346
H       2.28585536     -1.13750819     -4.50170620
O       0.52452603     -3.31457716     -3.24343313
H       0.32438034     -3.63626599     -2.34839490
H       1.39028029     -2.87051075     -3.19220535
O       2.40587381      1.01672110      3.83531119
H       2.45877636      1.63760659      3.08940295
H       1.58041130      1.26628809      4.30064950
O       0.98801520      0.13944449     -4.90770645
H       0.77945432      0.77128032     -5.62587928
H       0.13944890     -0.20551651     -4.57189611
O      -2.92974578     -2.71101470     -1.71952751
H      -3.49684833     -2.11091980     -1.19612780
H      -2.54123921     -2.15705775     -2.41480047
O      -0.11299830      1.60663379      4.95403074
H      -0.75790126      1.67532401      4.21916610
H      -0.49908312      0.95512278      5.54970569
O      -0.61242865      4.26010278      2.24923845
H       0.25618851      3.99477444      2.58442315
H      -1.20814273      3.57245829      2.58666971
O      -2.63230097     -0.74794740      4.19104855
H      -2.36288705      0.11418997      3.83788202
H      -1.84106495     -1.32330939      4.09857062
O      -0.62597515     -3.67913135     -0.58848542
H      -0.69670936     -4.14929882      0.26082508
H      -1.52278357     -3.36014893     -0.84583215
O       0.48715618      3.50123484     -0.26129255
H       0.52980158      4.17753543     -0.96452566
H      -0.12704997      3.85705212      0.40914819
O       2.25315060      3.12963340      1.81624199
H       1.76146187      3.24140858      0.96733848
H       2.93311337      3.81003254      1.80858875
O      -0.10913511     -4.59694887      2.05732617
H       0.86044455     -4.40361136      1.97539457
H      -0.16707305     -5.49273825      2.40418683
