100
charge=0
C       4.84927397     -0.94854406      1.11276414
C       0.28297397     -1.02296178      0.79434747
C       3.70686245     -0.50128486      1.65414915
C       1.28793225     -0.36761083      1.42576806
C       0.99762645     -4.58089817     -0.33449073
C       2.32772162     -4.61612909      0.10423704
C       0.22142545     -3.44178365     -0.15592750
C       2.92386082     -3.51298603      0.71606852
C       0.79966072     -2.31429971      0.43860782
C       2.16176098     -2.35631378      0.85790470
N       2.45866751     -1.13049529      1.46263048
N       0.11494974      1.72270605      1.36071033
C      -1.02618452     -0.35109619      0.53434747
C      -1.13518467      0.92814238      1.37337903
C      -0.06325939      3.01172806      2.06171613
C       1.22409994      3.83591691      2.02654018
C       3.62251995      0.78487003      2.44342798
C       2.42938417      3.06555217      2.58186692
C       2.53749190      1.71381348      1.88525700
C       1.20728320      0.98376962      2.01602969
H       5.74794224     -0.35059904      1.20898445
H       4.89307425     -1.81161733      0.46241897
H       0.55186719     -5.45551779     -0.79759446
H       2.90766370     -5.52619787     -0.01688243
H      -0.82210858     -3.42655243     -0.46196005
H       3.93809191     -3.58064633      1.09279510
H      -1.12163758     -0.11027270     -0.53521118
H      -1.87576992     -1.00163524      0.77522939
H      -1.39356107      0.66425453      2.41279018
H      -1.93518085      1.56116205      0.98099334
H      -0.88222410      3.55432559      1.57504226
H      -0.36791465      2.82433549      3.10944080
H       1.43925110      4.13698706      0.99437347
H       1.06561913      4.75591712      2.60140855
H       3.39364849      0.56038204      3.49696088
H       4.59378101      1.28330115      2.41420763
H       2.30718596      2.90309603      3.66376763
H       3.34930622      3.64476261      2.43796543
H       2.74632827      1.87593962      0.81812362
H       0.98169407      0.88410745      3.10055152
O      -2.16301070     -5.63218414     -1.68098381
H      -2.72778883     -4.88174542     -1.42535019
H      -2.76578547     -6.37465055     -1.78078135
O       0.87005131      2.14273519     -1.22770765
H       0.60442463      1.98451814     -0.26413812
H       1.57969199      2.82212481     -1.21211473
O      -1.85717936      2.33371719     -2.26163315
H      -1.63695806      1.71754182     -2.97182600
H      -0.98956079      2.50963927     -1.85716067
O       5.14416146      2.29316215     -0.60552540
H       5.59929403      2.05490127      0.21544508
H       4.71727555      1.48133799     -0.94823312
O      -3.01822552     -2.94440515     -1.37379929
H      -3.68897507     -2.24068242     -1.34547129
H      -2.61119984     -2.91987001     -2.26735756
O      -1.66627324     -3.51564367     -3.72339821
H      -1.56499917     -4.41174628     -3.36814460
H      -0.78190424     -3.11252066     -3.65076534
O       3.00778251      3.95349844     -0.99252971
H       3.82079850      3.42901141     -0.79439971
H       3.24119462      4.47984204     -1.76307925
O      -3.03428068     -1.28670670      3.75749049
H      -3.24546913     -1.78637251      2.93503990
H      -2.07314997     -1.28516225      3.85097046
O      -4.11243810      1.63467745     -0.69204032
H      -3.32562234      1.88950986     -1.21463842
H      -4.03728520      2.09913138      0.16143266
O       0.41249685      0.60770904     -3.45254984
H       0.65630399      1.12178397     -2.64865730
H       1.10354856      0.82657359     -4.08786363
O       3.44044462      0.47000458     -1.86272454
H       3.51366907     -0.50321716     -1.94841476
H       2.56585076      0.63701098     -1.48524774
O      -0.81909747      0.49097269      4.94955445
H      -0.73518405      0.30071185      5.88902414
H      -1.65918357      0.97336592      4.87117372
O       0.75264616     -2.12328363     -3.02617279
H       0.59080758     -2.27173811     -2.08174728
H       0.59836983     -1.16018460     -3.15757958
O      -3.55419210      1.29113656      4.14215678
H      -4.26307316      1.33846202      4.79179424
H      -3.48097169      0.32158551      3.91600008
O       6.91568489      1.89027913      1.81064506
H       7.81121622      2.02332492      1.48642580
H       6.99413345      1.24408495      2.53309052
O      -3.86167693      2.95220102      1.84467319
H      -4.58398910      3.55741816      2.03614104
H      -3.78728350      2.38191176      2.63613388
O      -4.85921780     -0.91114664     -0.58315821
H      -5.77736193     -0.88328111     -0.86805150
H      -4.54491079      0.03544743     -0.62051215
O      -3.87383348     -2.58092430      1.48731549
H      -4.32987443     -1.94985904      0.89739667
H      -3.29772772     -3.06041014      0.87749857
O       3.54324521     -2.31611237     -2.36428084
H       2.67129465     -2.35587701     -2.80048798
H       3.42869127     -2.88601528     -1.59183175
O       6.55930763     -0.21632340      3.79250742
H       7.18945516     -0.80780764      4.21562647
H       5.96797540     -0.79659871      3.29015745
