82
charge=0
O       0.68620108     -0.40320246      1.53899533
O       1.08008686      4.42683594      1.42891413
O       0.15903836     -0.95482754     -0.60975723
O       1.48557549     -2.76812469     -0.04698701
C       0.38516062     -0.07106017      0.42492972
C       0.55666124      3.62058639      0.61333907
C       1.32366581     -4.12361864      0.11810533
C       0.24937301     -2.27824678     -0.31399747
C       0.02063212     -4.46532458     -0.06510380
C      -0.68699471     -3.25404356     -0.34948010
C      -0.10353881      4.00139124     -0.59889050
C      -0.56018530      3.05654613     -1.47451293
C      -0.41036113      1.68221241     -1.19560951
C       0.18351472      1.32195907     -0.02002160
N       0.62325976      2.26611366      0.85522127
H       2.21136395     -4.66791851      0.39853157
H      -0.40922989     -5.45317053      0.01297802
H      -1.73925532     -3.12755216     -0.54513531
H      -0.18213636      5.06293116     -0.80651154
H      -1.01826310      3.35521942     -2.41186543
H      -0.73905009      0.92175664     -1.88901697
H       1.12933094      1.95389911      1.70001355
O      -1.56945874     -0.20678200     -3.91994071
H      -1.25108267     -1.10927185     -4.09576192
H      -2.12355729     -0.29609211     -3.12681313
O       1.19444781     -0.42978378      4.43301995
H       1.73672254      0.21734248      3.93142147
H       1.49689502     -0.34786957      5.34277840
O       2.33535140      1.77873363      3.27038102
H       1.82724634      2.49352939      3.72303224
H       3.12073950      2.19109111      2.87396791
O       1.38521035     -3.87690142     -3.07865479
H       1.94884062     -3.13998789     -2.81527073
H       1.12544190     -4.28053596     -2.23356172
O       3.51667794      4.57043698     -1.55195111
H       3.94592772      4.21973012     -0.75701967
H       2.96746042      5.29900172     -1.20918547
O      -3.04072384     -5.52527130     -1.18116832
H      -3.63287515     -6.19604436     -1.53331565
H      -3.16688153     -4.73838483     -1.76503796
O      -1.17748601      1.15312390      3.62559105
H      -0.51177034      0.53070897      3.96670145
H      -1.36231074      0.81469438      2.73854477
O       2.70776650      2.14117311     -2.74406899
H       2.84650075      3.07359335     -2.48165148
H       1.85549960      2.09740509     -3.21149803
O       0.41270529      3.52039718      4.14205605
H      -0.27713947      2.85721092      3.94617121
H       0.46796393      4.06171333      3.33807599
O      -0.89391887     -2.97364854     -4.31908709
H      -0.86788159     -3.32276852     -5.21546072
H      -0.07381964     -3.30297321     -3.88247932
O       3.83390556      3.21311826      1.19803005
H       3.56660505      2.44013751      0.65625267
H       3.01901348      3.73042994      1.30818428
O      -2.54866178     -0.24752850      1.11703412
H      -2.40043963     -1.11458570      1.61529467
H      -3.29826396      0.15404390      1.57092700
O      -3.19582895     -4.88635910      1.51714235
H      -4.09813611     -5.03336309      1.81488762
H      -3.19614284     -5.12651226      0.56566804
O       1.90137160      6.54643650     -0.16858827
H       1.59423969      5.94876188      0.54450936
H       2.40579045      7.23527124      0.27421611
O      -3.22059116     -0.67206143     -1.53525117
H      -4.07600465     -0.23544393     -1.60372145
H      -2.93619450     -0.52446859     -0.59894266
O       0.24290754      1.90959704     -4.29626135
H      -0.36682281      1.14986280     -4.19362925
H       0.40765063      1.97282055     -5.24133484
O      -3.29829206     -3.31995163     -2.76771998
H      -3.33888445     -2.46683661     -2.30175094
H      -2.49880614     -3.25607183     -3.32118706
O       0.49430804     -2.94697596      3.22196204
H       0.46969799     -3.48418166      4.02017291
H       0.83011413     -2.08219464      3.52501191
O      -2.18631105     -2.43891691      2.49937386
H      -2.51209940     -3.27326742      2.10751852
H      -1.24259652     -2.60788908      2.70648639
O       3.08836527      0.94555551     -0.37291966
H       2.92891351      1.31037654     -1.28500490
H       3.82493898      0.33428752     -0.46887388
