88
charge=0
O      -0.40599726      1.42636426      3.54741859
O      -1.39671949     -1.97583922      2.79685218
O      -1.65443008     -1.47245079     -2.76702783
O       1.34571737      0.43856007     -0.02764958
O      -1.43376648      2.93162052      1.73087863
O       0.30807727     -3.77868857      2.04829434
O       0.89740873     -2.40755886      4.00881793
O       0.90611799     -0.94803696     -3.01552911
O      -0.66967306      0.82219334     -2.10950186
C      -0.76698345      0.46099560      0.95497828
C       1.03641333     -1.15576811      1.67225427
C      -0.16131381     -1.40134065     -0.52225980
N       0.36268990     -0.43355340      0.52349423
P      -0.36052270      1.85783009      2.09793412
P       0.05553806     -2.35852577      2.69529615
P      -0.41557726     -0.76883372     -2.27345905
H      -1.13438377      3.81542594      1.15092405
H      -0.46710400     -4.20892851      1.58707367
H       1.07298612     -1.48312128      4.47584440
H       2.33432444     -1.14627636     -2.06529947
H      -1.52874369      1.15904409     -2.49967761
H      -1.51254034     -0.16913088      1.44978729
H      -1.18224708      0.88557638      0.03776922
H       1.86917595     -1.71949541      1.23358675
H       1.45241338     -0.37642318      2.32017703
H      -1.12435893     -1.77482499     -0.15296773
H       0.53221816     -2.24706151     -0.58178316
H       0.90232950      2.33798019      1.70099783
O       1.32759661     -0.15057082      5.04215006
H       2.12761818      0.23171214      4.61918638
H       0.61783028      0.42176925      4.68629053
O      -1.61625206     -4.95217991      0.62699242
H      -2.34719832     -4.29696792      0.53171153
H      -2.01550809     -5.75438055      0.97912150
O       0.66235341     -4.59299729     -1.30730640
H      -0.06424407     -4.89001157     -0.74306258
H       0.23667914     -4.42265353     -2.18797229
O       2.84239126      3.64700875      2.91728051
H       2.65794670      3.93971934      2.00973966
H       2.06987526      3.94039235      3.43776446
O      -0.79717859      4.90418157      0.43513035
H       0.18116628      4.97207704      0.41334095
H      -1.06157459      4.72567869     -0.51114822
O      -2.96457876      1.90601300     -2.85744781
H      -3.21012535      1.84025929     -3.78695474
H      -3.49280183      1.19285583     -2.38939622
O      -3.17398833      0.10846169      3.47389022
H      -2.55907136     -0.64611044      3.50565667
H      -2.60989304      0.86057956      3.69989204
O       1.05572762     -2.62413772     -5.31421896
H       1.05480507     -1.97609599     -4.58407111
H       1.97318134     -2.90120711     -5.39479399
O      -4.60061086     -0.29594820      1.14161888
H      -5.50913651     -0.00601537      1.26797659
H      -4.12516287     -0.03605586      1.96434379
O       0.44810337      4.08996913      4.40413085
H       0.05343743      3.20117480      4.40571178
H      -0.26890612      4.67092805      4.12901041
O      -3.08911184     -2.72946572      0.75909914
H      -2.64691868     -2.46069546      1.58951501
H      -3.91378205     -2.22221548      0.74228867
O       1.30295415      2.96127672     -1.80568540
H       0.82048156      2.18809433     -1.46844639
H       1.89162586      2.53697906     -2.47469447
O      -3.97410352     -0.21723891     -1.68206875
H      -3.27230480     -0.84965924     -1.93915425
H      -4.05310476     -0.24270652     -0.71288608
O      -1.28411566      4.25186755     -2.12460447
H      -1.96382771      3.58207189     -2.30394015
H      -0.43731780      3.81916450     -2.33378436
O       2.99426723     -0.99831109     -1.34284931
H       3.15501663     -1.89600887     -0.97081610
H       2.06272698     -0.16891489     -0.47891015
O       3.19730776      0.96965926      3.31728534
H       4.14630096      0.81958597      3.36173163
H       3.09804387      1.94266822      3.16912717
O      -0.70926444     -4.08664330     -3.59251534
H      -1.21241263     -3.27932696     -3.38083603
H      -0.12304502     -3.79203931     -4.31430205
O       2.85552748     -3.46524101     -0.21216863
H       2.09575458     -3.95463640     -0.61657092
H       3.49616527     -4.13432161      0.04342655
O       2.00646198      4.58690010      0.24302752
H       1.90720554      3.96436046     -0.52194070
H       2.55111342      5.31134510     -0.08292514
O       2.65924701      1.28994640     -3.50741800
H       3.38279899      0.86250852     -3.03308984
H       1.97162259      0.59627084     -3.53385882
