88
charge=0
Cl      3.73985113      2.49719603     -1.04665772
Cl     -0.16637910      4.19408040      2.12654200
Cl     -0.59743360      1.17951804      3.51176786
Br     -1.78563802     -1.92341159     -0.13969471
Br      0.51031623     -0.20623229     -2.77715856
C      -1.26150762     -0.54309669      1.05718056
C       1.06910513      2.09049437     -0.51248520
C       0.59756998      2.00085917      0.72855226
C      -1.94039795      0.59019318      1.15522375
C       2.64196741      0.12169141     -0.14130055
C       2.10034915      0.94544128     -2.47864105
C      -2.81357977      2.46081563      2.53417474
C       2.22736379      1.29354525     -1.00399578
C      -0.64166215      2.68280007      1.19029503
C      -1.56260549      1.76445221      2.02623393
H      -0.38366153     -0.80545900      1.63583680
H       0.57870520      2.72657560     -1.24773518
H       1.09961932      1.38503343      1.46892377
H      -2.82973215      0.75770830      0.55211878
H       3.46234737     -0.42366406     -0.61062777
H       1.79127085     -0.56205735     -0.04849562
H       2.94241201      0.43807416      0.85999798
H       1.92847891      1.82573014     -3.09658068
H       2.94594356      0.35577899     -2.83118971
H      -3.37764507      2.83638578      1.67173898
H      -2.56365356      3.29759220      3.18900667
H      -3.44507146      1.74694260      3.07064563
H      -1.23257244      3.03353064      0.33639901
O       4.64322141      2.11319318     -4.56879933
H       4.93349136      2.21083940     -3.65529777
H       4.60396174      1.13839254     -4.71495709
O      -1.51888886     -2.67613279      3.63809960
H      -2.04337640     -1.97833652      4.11742133
H      -1.64222598     -3.46903577      4.17125667
O      -0.51897752      3.69502570     -3.56728573
H       0.07963260      4.30226681     -3.08987506
H       0.07286892      3.27399962     -4.20450439
O       4.10056513     -1.92625923     -2.60056081
H       3.29250780     -2.43044863     -2.37958965
H       4.67035831     -2.03640970     -1.81444237
O      -5.26920104     -0.59001712      3.08349397
H      -5.35540027     -0.26946561      2.14055212
H      -6.14680780     -0.49286989      3.46527031
O      -5.63345450      0.02319848      0.53672420
H      -5.20849060      0.75073422      0.04485961
H      -5.45925155     -0.80886190      0.05034373
O      -3.17981733     -1.00218591      4.91736397
H      -2.93883784     -0.17883776      5.37431571
H      -3.88619479     -0.74478763      4.29520965
O      -4.24142542     -3.17466650      2.22233888
H      -4.64186771     -2.39403372      2.64530368
H      -3.29017019     -3.05051953      2.35832970
O       1.07542378     -2.04395530      2.95253165
H       0.16781847     -2.30505550      3.23624139
H       1.37651449     -1.41263007      3.61267825
O      -2.02891555      2.13659162     -1.85650634
H      -1.55900611      2.68639697     -2.52295540
H      -1.59778348      1.27432482     -1.91064005
O       1.84863095     -3.30308289     -1.53489312
H       1.06523884     -2.74296845     -1.59129934
H       2.07450691     -3.31725644     -0.58710008
O      -5.17267473     -2.60070830     -0.36715960
H      -4.77964555     -2.89951734      0.48235261
H      -5.97568275     -3.12264791     -0.45898385
O       5.31298493     -2.21232145     -0.03849741
H       4.54977247     -2.51125552      0.48145874
H       5.55028742     -1.35138368      0.34486640
O       1.70686190      5.11213902     -2.52569410
H       2.17326232      4.66097096     -3.25507027
H       2.16063431      4.82338944     -1.72625104
O       4.44911268     -0.59649936     -4.92230381
H       5.08277402     -1.04691993     -5.48726804
H       4.37974016     -1.15035641     -4.10910913
O      -4.47760159      2.31802833     -0.66279600
H      -3.66410671      2.27763352     -1.21201625
H      -5.12849235      2.77278248     -1.20546430
O      -2.69207847      1.61874957      6.07579655
H      -1.97393165      1.94720885      5.51913019
H      -2.41420771      1.80065830      6.97897657
O       2.34461158      3.54564624     -4.81137572
H       2.39181928      4.03442684     -5.63891258
H       3.16964103      2.99885741     -4.78964797
O       2.80729309     -3.28464276      1.18915690
H       2.20414012     -2.86657114      1.84143608
H       2.94619424     -4.17911341      1.51702922
O       5.84281600      0.49266275      0.94632221
H       6.75508029      0.79932271      0.94989533
H       5.37191703      1.12649803      0.38840167
