76
charge=0
S       0.25783275      0.14083214      0.54873616
S      -2.00312197      0.25092391     -1.51433057
C      -0.38259866     -2.22724810     -2.39938730
C      -0.63244876      1.58128662      1.03765141
C      -1.87171645      1.94741609      0.69355984
C      -0.29208745     -1.91697741     -1.10776592
C      -2.83355357      1.21751250     -0.18428726
C      -1.01240282     -0.81479036     -0.40288644
H       0.17392505     -3.07202292     -2.79349428
H      -1.01523514     -1.67933501     -3.09392926
H      -0.04337277      2.21847644      1.69503651
H      -2.22314700      2.89509568      1.09850757
H       0.35382343     -2.51621651     -0.46418243
H      -3.45944171      1.93698267     -0.72045187
H      -3.46229250      0.52826124      0.39446844
H      -1.70129498     -1.22530418      0.34773685
O      -2.86860881      4.96692993      2.65511533
H      -3.48654078      4.25928895      2.86170906
H      -1.99193631      4.65803236      2.98271707
O       3.99507421      0.29812965     -2.60306533
H       3.98838370      0.86821208     -1.81550937
H       4.14391481     -0.58833401     -2.23065985
O      -2.17014901      5.83622464      0.13397127
H      -2.56524570      6.70036373     -0.01997209
H      -2.54109895      5.53197171      0.99416960
O      -1.36688752     -5.38545868      1.20929345
H      -2.05163588     -5.22916393      0.52531304
H      -0.59753686     -5.57415334      0.64240752
O      -1.05544910     -3.10428830      2.50579165
H      -1.29489469     -3.27753841      3.42307234
H      -1.15753343     -3.98953333      2.04008206
O       0.55080615      5.72129745      1.10749398
H      -0.28328256      5.83761969      0.61825427
H       1.16735280      5.29927751      0.48037649
O       3.11566000      1.68065617     -0.20085829
H       3.04567419      2.65321205     -0.21991807
H       2.23459645      1.38544160     -0.48278446
O      -0.27318745      4.21387710      3.18143926
H       0.15285291      4.50638707      3.99289756
H       0.12965865      4.76565287      2.46017314
O       4.33027887     -2.09333961     -0.95790706
H       5.23936267     -2.40436326     -0.89145918
H       4.16920749     -1.58498946     -0.11938025
O       2.24452574      4.35141495     -0.73887078
H       1.54278994      3.88991244     -1.27367501
H       2.72642651      4.90439682     -1.36255204
O      -3.55413067     -1.73683120      1.52629765
H      -2.82259723     -2.26899638      1.87684669
H      -3.87750500     -2.22276377      0.75483650
O       1.71131560     -2.66084503      2.27300650
H       0.73295783     -2.70020729      2.37323100
H       2.05875390     -3.06771342      3.07361005
O      -4.03203570     -2.35907380     -1.37660846
H      -4.82245059     -2.34019894     -1.92576302
H      -3.54517118     -1.53905034     -1.59215837
O       0.30354243      2.95964805     -1.95624693
H      -0.27701574      2.61404975     -1.26058305
H       0.63102192      2.15040626     -2.42264926
O       2.48727151     -4.10325473     -0.09448645
H       2.25466976     -3.65987959      0.74147054
H       3.09251958     -3.48355381     -0.54263076
O       1.30079094      0.68907768     -3.14099147
H       0.88032235     -0.10210959     -2.78045946
H       2.26672674      0.51757129     -3.04608533
O      -2.59273771     -4.86761733     -1.24703296
H      -2.98975562     -3.99390439     -1.40024213
H      -1.67592504     -4.79060391     -1.54824632
O      -2.63454371      3.88116819     -2.03857029
H      -2.46920281      4.55638721     -1.36159105
H      -1.76997218      3.74093793     -2.44488994
O       3.71762480     -0.72400585      1.29613896
H       3.50056442      0.18623472      1.02996204
H       2.90232474     -1.10203362      1.66408497
O       0.37536926     -5.46296883     -1.09393320
H       1.18558286     -4.96556082     -0.82595712
H       0.69576101     -6.29809179     -1.44785773
