93
charge=0
N      -2.59397798      3.24191140      0.88240962
N      -2.48336513      2.16515449      1.76679223
O      -0.48569912      2.60271183      0.95730475
C      -1.39739076      3.46087509      0.44387805
C      -1.23491941      1.81473164      1.78577372
N      -0.51385637     -0.60357470      1.92632285
C       0.86249728      1.21570406      2.94855619
C      -1.36296496     -2.96547065      1.98760638
C      -3.03911008     -1.11269887      2.21617086
C      -1.41208475     -0.46347215     -0.47469718
C       0.76407605     -1.62092229     -0.00419245
C      -0.54547915      0.73553981      2.57811382
C      -1.57283582     -1.51949996      2.43884485
C      -0.20181300     -0.53351660      0.46431819
H      -1.05162012      4.19993659     -0.26803888
H       1.28831708      0.55920185      3.70979749
H       0.81813716      2.23263808      3.34965034
H       1.52790108      1.21749700      2.07890809
H      -0.33713408     -3.30455934      2.14946664
H      -2.02449181     -3.61071822      2.57722234
H      -1.61690351     -3.10511033      0.93337494
H      -3.23199435     -0.07295933      2.48526860
H      -3.67348117     -1.73135417      2.86460831
H      -3.35260445     -1.25299778      1.17750760
H      -1.05975212     -0.21600305     -1.48025953
H      -2.13595648      0.30000536     -0.17259548
H      -1.92568982     -1.42582291     -0.55162279
H       1.65677460     -1.67378130      0.62450155
H       0.30940538     -2.61149469     -0.04860803
H       1.09481424     -1.38347599     -1.02211237
H      -1.12839147      0.64453091      3.50229920
H      -1.41785113     -1.50257939      3.53078950
H       0.34845089      0.40827426      0.35188451
O       3.09343256      0.77368538     -0.33994847
H       3.80396495      1.38163578     -0.56758870
H       2.35347439      1.02748778     -0.92827258
O      -2.75318831     -3.73682063     -1.37496956
H      -3.24842933     -3.79633174     -2.19735706
H      -3.38475541     -3.99874677     -0.68168047
O       4.00008233     -0.89127138      1.92054346
H       3.61000673     -0.30039264      1.25888083
H       3.27987060     -1.06003223      2.54746224
O       0.62010555      5.52683537     -4.78199971
H       0.43873978      6.47123019     -4.82729602
H       1.56239138      5.44937569     -4.96433544
O      -1.62708445      2.10699174      5.43121492
H      -1.48072554      2.29351194      6.36328534
H      -1.32491292      2.91251030      4.95736485
O       0.25011875     -1.87106776     -4.09033467
H       0.29290323     -2.36988515     -4.91337452
H       1.14869716     -1.42089376     -4.00614370
O      -1.02751421      4.28366658      3.79283999
H      -1.94717668      4.60167657      3.59952464
H      -0.55062016      5.06365563      4.09220008
O       3.35475522     -3.76153524      1.52283584
H       2.64540472     -3.50269927      2.12718540
H       3.86315797     -2.93616779      1.45123287
O       2.77368332     -4.15187994     -1.25346321
H       1.82615147     -4.24159487     -1.45729209
H       2.84850859     -4.15941453     -0.28037279
O      -2.52815882      2.58465207     -2.59441155
H      -2.23075528      1.70457253     -2.88004184
H      -2.96068056      2.45649210     -1.74241963
O      -0.98807033      0.54706663     -3.89866156
H      -0.79882014      0.98115220     -4.73745898
H      -0.69945238     -0.38880971     -4.02850187
O       1.61880487     -2.00493059      3.26157704
H       1.36312205     -2.04865219      4.18816413
H       0.89698380     -1.49883805      2.80220940
O       1.18255382      1.62758783     -2.23810543
H       0.88152175      2.56130054     -2.22522244
H       0.43447529      1.16946449     -2.66117514
O      -0.15143820      4.08926729     -2.37824897
H      -1.01635601      3.66701785     -2.55850029
H       0.05875519      4.61193636     -3.16999125
O      -4.25545333      2.32093613      4.16571775
H      -3.86365214      2.05866101      3.31528010
H      -3.51819489      2.17389623      4.78406163
O       2.51009657     -0.54342091     -3.85565010
H       2.32768345      0.32373249     -3.46529074
H       3.08082467     -1.00514796     -3.17779191
O       0.03616355     -4.19413501     -2.27240197
H       0.07697537     -3.36629189     -2.77871789
H      -0.82452701     -4.15855515     -1.82875547
O       3.90797899     -1.74366328     -1.91741926
H       3.50133954     -2.61846055     -1.69409558
H       3.72217629     -1.17463090     -1.15724000
O      -4.56109136     -4.20907812      0.80173192
H      -4.32518480     -4.94477592      1.37692378
H      -4.43765611     -3.42391243      1.34831473
O      -3.62903138      4.93782362      3.27466959
H      -4.02250583      4.13681650      3.68438144
H      -3.69912052      4.75673455      2.32723169
