99
charge=0
O       3.08177745     -2.55486562      2.05861966
F      -6.46197908     -5.36731645     -1.50359997
F      -6.13627162     -3.80521222     -2.99401007
F      -7.66544097     -3.57052974     -1.46457076
F      -6.75551044     -1.61005281      0.07712806
F      -4.64200764     -1.17714456     -0.08908873
F      -5.85953573     -1.31512907     -1.88492420
F      -0.49558249     -3.96217632      1.60243925
F      -0.46131933     -5.75304780      0.31686281
F      -1.28578723     -4.32714694     -1.81260642
F      -1.11453671     -2.43459420     -0.69368695
F      -3.04014985     -2.97871026      0.91193254
F      -3.05015280     -5.12544147      0.46472685
F      -3.49908897     -2.71022463     -2.04421169
F      -3.91857988     -4.85775373     -1.92378979
F      -5.58679092     -3.91085014      0.48851212
S       3.84002958     -4.19116490      0.11578957
C       3.89115371     -2.73224933      1.16146054
C       5.38896251     -1.55191747     -0.37390131
C       5.01644454     -1.80151403      0.88652723
C       5.60267805     -1.11612333      2.08668257
C      -6.43669993     -4.04819787     -1.70699270
C      -5.66378841     -1.83108574     -0.65828261
C       2.18713990     -4.80914539      0.60335115
C       1.10640511     -4.04043191     -0.15584263
C      -0.28528898     -4.40183777      0.31173733
C      -1.38801984     -3.76411100     -0.58433416
C      -2.86482552     -3.89781814     -0.06289585
C      -3.92180868     -3.70328385     -1.21808524
C      -5.38858595     -3.37473763     -0.75038269
H       6.16624880     -0.82579576     -0.59132667
H       4.89941723     -2.02640084     -1.21842596
H       6.41874339     -0.45623341      1.78725357
H       4.84690119     -0.51170249      2.59919903
H       5.97337199     -1.85043340      2.81063825
H       2.17104170     -5.87616726      0.36543513
H       2.09090298     -4.68067629      1.68541849
H       1.17433624     -4.24966243     -1.22870316
H       1.24650343     -2.96324177     -0.03579479
O      -3.66904860      1.80070090     -2.06660202
H      -4.02759896      1.56410947     -1.19408039
H      -3.75509064      1.00887765     -2.63043394
O      -0.53619548     -0.72243032      2.36515446
H      -0.52276290     -1.64484472      2.08154738
H      -0.34234365     -0.19429529      1.55512249
O       0.13588915      0.87753628      0.27466070
H       0.92754977      1.41395472      0.44367575
H      -0.36273562      1.29552967     -0.47307111
O      -4.63494694     -4.62345656      3.46349739
H      -4.84414103     -3.71699542      3.18600017
H      -3.74959793     -4.77582765      3.12171128
O      -4.38797586      1.71939982      0.74384456
H      -5.24510504      1.43466663      1.15537920
H      -4.35789954      2.67379045      0.87040999
O       2.93000800      0.99113127     -2.88399807
H       2.46445345      1.82533593     -2.65779453
H       3.88327359      1.14676791     -2.70599621
O       1.33624320      3.19489421     -2.24285090
H       1.30025312      3.95972841     -2.82439993
H       0.42409159      2.83069875     -2.23711548
O      -3.19618065      0.08570865      2.74472798
H      -3.37641692      0.66857294      1.98211838
H      -2.25942851     -0.19014022      2.67679248
O      -0.98525550      1.75434700     -2.00435878
H      -1.97300800      1.88194613     -2.00751984
H      -0.83061190      0.94299650     -2.53564259
O      -6.55341252      0.81518241      2.13788392
H      -6.28995669      1.04282789      3.04647272
H      -6.45019754     -0.15106585      2.13799923
O       1.63555771     -0.12144336     -5.06361280
H       1.51166791      0.51961584     -5.76975920
H       2.21780865      0.32106231     -4.40849903
O       5.60055029      1.34374962     -2.20710250
H       6.15673225      1.94960708     -2.70538266
H       5.61396329      1.67371951     -1.27952486
O      -5.10383320      0.78094053      4.64909329
H      -4.25620230      0.66711178      4.17675744
H      -4.90612320      1.31038417      5.42664388
O      -0.43446571     -0.67783587     -3.32120273
H       0.09213063     -1.13059060     -2.64248510
H       0.21270716     -0.50902825     -4.04453540
O       2.95079131      1.00088478      0.92497339
H       2.71725815      0.65504549      1.82344898
H       2.94318353      0.21101474      0.36045189
O       1.73788161     -0.96815953     -1.19874956
H       1.12151751     -0.38680513     -0.71122670
H       2.20471652     -0.35502668     -1.80435863
O      -3.23034040     -0.33537520     -3.89744134
H      -2.32684074     -0.65152170     -3.71788135
H      -3.76011008     -1.13094974     -4.00284740
O       5.46062623      2.03796791      0.46052539
H       4.56392752      1.71124550      0.70653873
H       5.46163181      2.96578313      0.71489798
O       2.19417189     -0.13214863      3.30948099
H       1.23521390     -0.27236891      3.22357075
H       2.56072390     -1.01340566      3.12716271
O      -5.32005464     -1.78265175      2.95558479
H      -4.50117009     -1.26922594      2.80061808
H      -5.54687633     -1.54941608      3.86551587
