104
charge=0
O       2.35999795     -2.95828312      0.01305536
F      -0.67882570      2.25188396      5.15827884
F       0.44710704      0.49677290      4.45869503
F       1.48567894      2.41543148      4.76976203
N       4.13797541     -0.95770536     -2.31524150
N       4.30973154     -1.25238795     -3.55982062
N       1.72747406      3.06774392      1.27248755
O       3.29820417     -2.96713104     -2.63560888
O       2.72104147      2.59594779      0.50426662
O      -1.01113111      1.42281803      2.41364162
C       3.07968965     -2.03561052     -0.33460280
C       3.51102387     -1.97243440     -1.73267609
C       3.81866876     -2.46607932     -3.77640976
C       1.26206120      2.09594685      2.04336344
C       2.87893710      1.27426349      0.79954317
C       1.97485391      0.92462820      1.77314142
N       3.49394118     -1.07418906      0.58815758
C       3.83180039      0.31227747      0.18883181
C       3.98789271     -4.68795392     -5.04455878
C       2.63617072     -4.09727808     -5.35397175
C       3.82099243     -3.17358529     -5.09469736
C       0.60119086     -1.17486442      1.81115014
C       3.12274965     -1.27883948      1.99014198
C      -0.42665448      3.70343524      2.93377723
C       0.33824298      1.82704540      4.39582434
C       1.85201485     -0.47205911      2.33460517
C       0.03529091      2.24985668      2.91870200
H      -1.17316201      1.69224088      1.47855129
H       4.85583308      0.53458743      0.49910895
H       3.78787490      0.41312778     -0.89649919
H       4.54669113     -5.17804058     -5.84422340
H       4.15035133     -5.13961799     -4.06450504
H       2.24101417     -4.15803168     -6.37060000
H       1.85900568     -4.14233625     -4.58992543
H       4.24934994     -2.60693152     -5.92904361
H       0.64523731     -1.26226322      0.72441871
H       0.49820928     -2.18215600      2.21722450
H      -0.29690514     -0.61570990      2.07051079
H       2.96791971     -2.35371785      2.13525797
H       3.97087075     -0.98969575      2.61861627
H       0.34355787      4.34210356      3.36410556
H      -1.33062083      3.79411406      3.53465496
H      -0.65013116      4.04718271      1.92491138
H       1.78497495     -0.38057013      3.43099314
O      -2.98302693      4.90581839      1.74037089
H      -3.30447597      4.43503235      0.94747776
H      -2.82917674      5.81721955      1.45035884
O       0.33260185      0.00887707     -1.16621608
H       0.77766774      0.46059243     -1.91037855
H      -0.30195691      0.66868457     -0.83412765
O       0.40071521     -2.53394454     -2.56462401
H       1.34419086     -2.76398125     -2.46817944
H       0.29049867     -1.74636300     -2.00328983
O       3.76634010     -5.11328479     -0.63453136
H       2.92694683     -5.06335851     -0.14265800
H       3.65849130     -4.42254280     -1.31726513
O       0.03469609     -3.14844656     -6.84156266
H      -0.58845752     -3.26980939     -7.57284885
H      -0.39176502     -3.55877851     -6.06381496
O      -1.07203263     -4.19790988     -4.38702903
H      -1.77000450     -4.65750898     -3.89852266
H      -0.61148458     -3.65248261     -3.72134087
O      -1.92290279     -2.89795892      2.94655180
H      -2.19321085     -3.78382638      3.22980047
H      -1.86362538     -2.37205621      3.76710919
O       0.82096284      3.42232492     -1.61910083
H       1.08107125      2.81822843     -2.33938663
H       1.45963954      3.22787259     -0.89659068
O       4.51359359      1.76888922     -3.95078062
H       4.71264391      2.22996727     -3.11275907
H       4.52748531      0.80818486     -3.72814067
O       0.89769640     -0.98519689     -5.05871405
H       0.70933614     -1.48247293     -4.23761144
H       0.64098542     -1.60240732     -5.76627756
O      -3.23618839     -0.47610766      1.93034064
H      -2.89792588     -1.34462319      2.20913361
H      -2.52254248      0.14705531      2.17343413
O      -4.66053482      3.39007838      3.63256107
H      -5.23833219      4.01297573      4.09780931
H      -4.08743640      3.93715381      3.06014413
O       4.89057237      3.06227015     -1.37044272
H       5.30920557      3.90947770     -1.15899508
H       4.16417968      2.96200650     -0.72462822
O      -1.78455329     -1.13536007      5.16861230
H      -2.46108114     -0.45301519      5.28646301
H      -0.97771384     -0.61678974      5.01563558
O       5.04549325     -3.73363615      1.69622218
H       5.81691540     -4.28418496      1.90426805
H       4.62880625     -4.15944563      0.92371435
O      -3.38352161      1.29855824      5.26269473
H      -2.47434385      1.64656126      5.28033850
H      -3.87710105      1.95035365      4.73039838
O       1.61419749      1.36886095     -3.50560140
H       2.54105617      1.56480158     -3.73138351
H       1.36301421      0.65043015     -4.11422490
O      -1.39539627      2.21942212     -0.28066569
H      -2.26473644      2.62085367     -0.45209968
H      -0.74905951      2.75686429     -0.77313634
O      -5.18805714      1.56722432      1.35168750
H      -5.11535360      2.10283114      2.16538841
H      -4.61914377      0.79508231      1.52166410
O      -4.03964676      3.37783569     -0.54487084
H      -4.59850352      3.45447062     -1.33057984
H      -4.49682019      2.73572171      0.03058465
