79
charge=0
O      -0.80619632     -0.89170455      2.26256246
O       3.80756782      3.80697565      0.65574724
O       2.18593769     -1.04918891     -3.82352324
N       0.71276405      0.68254214      1.87320022
N       0.17975181     -1.06315738      0.29300342
N       3.42209895      2.17316258     -0.83814976
C       0.02747759     -0.42711114      1.48784803
C       3.20253770      2.79025393      0.35968263
C       2.09399179     -0.58783559     -2.70464727
C       1.57049321      1.14468613      1.01169181
C       1.05320034     -0.55696152     -0.52241385
C       2.71142918      1.11142650     -1.08810395
N       2.28364336      2.28208876      1.25804409
N       1.21838992     -1.10677022     -1.77248764
N       2.84267105      0.50680305     -2.31739051
N       1.80019172      0.54996379     -0.19470723
H       2.09614171      2.78820941      2.12223936
H       0.64251799     -1.91507096     -2.00438421
H       3.46531314      0.93124701     -2.99369567
O      -1.17369355      4.14154823      0.92074819
H      -1.90462539      4.59165679      1.37034143
H      -0.68999290      4.84197462      0.44126287
O      -0.13804079      0.10743195     -5.15129584
H       0.67783554     -0.26826790     -4.76520670
H      -0.84364342     -0.43867214     -4.75874612
O       0.38006565      2.94861978     -5.27977002
H       0.23410777      3.20091977     -6.20401310
H       0.19105009      1.99229237     -5.24436079
O       3.46207853     -2.54073822      1.04888279
H       4.24642122     -3.07853327      1.24233108
H       3.70799341     -1.63996459      1.32786594
O      -0.48901445     -3.48669743     -2.07591384
H      -1.22409322     -3.82473633     -1.53161822
H       0.28029860     -3.84097624     -1.59488844
O       4.34613246      0.07532632      1.89090141
H       4.05659744      0.55497691      2.68846230
H       5.13099503      0.55564525      1.58577270
O      -3.07297754     -1.84271358      0.61979059
H      -2.83306947     -2.74325201      0.32504342
H      -2.30446512     -1.52572228      1.13958557
O      -0.36180716     -5.29324274      1.89023621
H      -0.04035767     -6.01420527      2.45065320
H      -0.75053331     -4.64695593      2.50890314
O       1.48378560     -4.26141991     -0.21220750
H       0.93501903     -4.61178723      0.51692964
H       2.14807064     -3.68794958      0.21248985
O      -2.35248610     -4.58855129     -0.15719062
H      -1.70012093     -4.87511783      0.51039748
H      -2.99002594     -5.31401173     -0.21941568
O       2.05016187      5.86046209      1.70692382
H       2.72555095      5.25363874      1.33931064
H       1.46465719      6.03943956      0.94813709
O       3.54098465      1.58949944      4.21625964
H       3.64994321      1.48711128      5.17309550
H       2.94872346      2.35671360      4.10498534
O      -4.47825031     -2.69943768      3.06580958
H      -5.33860722     -2.27120113      3.18599929
H      -4.13306833     -2.36312188      2.21593646
O       0.71381261      4.09104793     -2.63755304
H       0.36537087      3.35439249     -2.09898884
H       0.63278805      3.76950378     -3.55293790
O      -2.00487260     -1.70194209     -3.79563521
H      -1.49386927     -2.34498385     -3.26697501
H      -2.59217148     -2.23378491     -4.35256196
O       0.33971630      6.13146570     -0.65321891
H       0.50972290      5.48114137     -1.36037886
H       0.26669273      6.98199986     -1.10997336
O      -0.46996459      2.03403422     -0.97821528
H      -1.21449472      1.43130569     -1.15669342
H      -0.78370884      2.65826391     -0.29581937
O       1.72903010      3.82599898      3.71407762
H       1.82710140      4.61680304      3.15383721
H       0.94296051      3.99728680      4.25145824
O      -2.56916261      0.13205208     -1.52716344
H      -2.42609710     -0.42406343     -2.31674956
H      -2.81162337     -0.49368409     -0.81854962
O      -1.64563250     -3.34805520      3.54208618
H      -2.61103368     -3.21893734      3.53677392
H      -1.29889107     -2.50761380      3.18064783
