70
charge=0
O      -1.55830520     -0.40615187      0.88078554
O       0.71272193     -1.92817004      0.61508885
O      -1.49660594     -2.61955433     -0.63550461
O       0.61504882      0.47029192     -0.38705248
O      -1.63479421     -0.05763810     -1.66459503
O       0.57322325     -1.55931767     -2.04298145
P       0.03142927     -0.48035483      0.75590201
P      -1.96041212     -1.09555895     -0.49981955
P       0.07170940     -2.37686957     -0.77731336
P      -0.04603163     -0.12540718     -1.70997679
O      -3.42444702      1.07793116      2.46295280
H      -3.55786293      0.38289905      3.13053580
H      -2.82706832      0.64182756      1.82461145
O      -0.44649926     -1.30677914      3.75513157
H       0.34921918     -0.82751602      3.45660559
H      -0.46321945     -2.15272858      3.26701608
O       1.92818683      1.16718186     -3.30892991
H       1.29460727      0.67910663     -3.87170902
H       2.58531770      0.50751630     -3.02940113
O       3.56796932     -2.19924612      1.18524137
H       2.60753097     -2.08561664      1.03813173
H       3.91020549     -1.29570462      1.31529073
O       4.45770141      0.56940203      1.47118971
H       5.39154891      0.82170020      1.47044513
H       4.03486811      1.15481234      0.81552008
O      -4.17526009     -0.59849480     -4.20089194
H      -3.69450122      0.24222787     -4.08098555
H      -5.01617888     -0.35664455     -4.61525352
O      -3.32413159     -1.19966586      4.22465196
H      -3.53601291     -1.50861716      5.11699408
H      -2.34869015     -1.23008974      4.16065309
O       0.82421325      4.19956843      0.01657277
H       0.70593636      3.82185048      0.90995788
H       0.64937648      5.14755968      0.10827343
O       4.53545871     -3.53675776     -1.15533078
H       4.25618183     -3.15678493     -0.29981105
H       5.23839934     -4.16853362     -0.94351525
O      -0.34857051     -0.17749212     -4.50517964
H      -0.79761417     -1.00227119     -4.24263677
H      -1.04613896      0.50292161     -4.44808042
O       0.60509903      2.99409970      2.70765220
H       1.04017651      3.41822687      3.46386698
H      -0.34627462      3.14646457      2.85539860
O      -3.40450148     -2.51435214      1.50752161
H      -3.52559462     -2.06859192      2.36801656
H      -2.58047098     -3.02526506      1.63074989
O      -0.31530501      2.68667723     -2.27535821
H       0.01974871      3.20939507     -1.52291874
H       0.48394873      2.28637478     -2.66675711
O      -2.16119483      3.54846830      3.11757127
H      -2.86458037      4.18320535      3.31665608
H      -2.62526331      2.72073496      2.89623627
O      -1.99746381     -2.38064034     -3.49984199
H      -2.34147778     -3.22879720     -3.18338367
H      -2.78492706     -1.85094373     -3.73259123
O       3.40432360     -1.09432636     -2.24953847
H       3.87877953     -1.89684244     -1.97253302
H       2.45724972     -1.34000416     -2.18600295
O       2.91129742      2.19383788     -0.28641736
H       2.21530725      1.52122155     -0.42204465
H       2.39374376      3.01601579     -0.25762461
O      -0.79313565     -3.81712330      2.11862985
H      -0.47478062     -4.72867159      2.05523369
H      -0.20078936     -3.28154338      1.55336873
O      -2.52023227      1.77057433     -3.68973310
H      -2.04677658      2.60881987     -3.57112883
H      -2.25375559      1.24994134     -2.90371742
O       1.80873537      0.28853147      2.66408314
H       2.72728541      0.38101358      2.35221176
H       1.45248025      1.20043161      2.68478098
