74
charge=0
O      -0.97573342      1.26620333     -1.37615337
Cl      3.16088740      0.32177886     -2.63660825
Cl      1.93736105     -1.99471049     -3.82078542
Cl     -0.70027226     -0.89181882     -3.70709383
Cl      0.81513048      1.54528163     -3.70492561
S       1.63474841     -1.48546249     -0.97420269
C      -0.12763521      0.41220780     -1.52028056
N       0.40299487     -0.36897734     -0.51681235
C      -0.07545950     -0.20839742      0.82756383
C       1.75564541     -0.73883743     -2.60116059
C       0.48592415      0.05956563     -2.83252304
H       0.31238202     -1.00407357      1.45804920
H      -1.16409604     -0.24816112      0.81827079
H       0.25006936      0.75691250      1.21178124
O       2.51889007     -0.12280822      2.88335228
H       1.79626597     -0.66228208      3.25782877
H       3.22868209     -0.76807522      2.70138816
O      -3.71795527      0.46902322     -1.20891525
H      -2.79035230      0.76086869     -1.31790373
H      -3.80331859     -0.28175858     -1.82211674
O      -1.62955670     -3.64560123     -2.37154063
H      -1.15870591     -4.38181022     -2.79060932
H      -1.33967264     -3.65581382     -1.44067597
O       4.50625307     -2.15293949      2.06992395
H       4.84085445     -1.77015261      1.23813849
H       5.26302713     -2.61624383      2.45551080
O      -0.75660402     -3.68709908      0.35761668
H       0.15483265     -3.56890553      0.68045663
H      -1.30827043     -3.39734224      1.10872814
O      -3.92101533      2.29541956      2.60175124
H      -4.38719338      2.52754918      1.77556856
H      -3.10575203      2.83344650      2.59739490
O      -1.40601104      3.77881996      2.54871874
H      -0.56623907      3.31330647      2.72726019
H      -1.41055455      4.53755292      3.15154631
O      -3.76595981     -1.79795273     -2.97095500
H      -4.20727751     -2.16013977     -3.75387061
H      -3.04414256     -2.42335584     -2.77099629
O       3.48378162      1.17520125      0.36858312
H       3.13313814      2.08329861      0.34915039
H       3.14773820      0.78999798      1.20184007
O       2.34398135      3.83046393      0.46267951
H       1.43031556      3.89157992      0.12708863
H       2.76041899      4.66758409      0.21409300
O       1.78434795     -3.08150911      1.58177474
H       2.72271783     -2.84838623      1.69934104
H       1.34289255     -2.74673407      2.38717551
O      -0.41734814      3.86390318     -0.27342691
H      -0.64072767      3.00701250     -0.68559079
H      -0.87598984      3.86515890      0.58839576
O       5.34631117     -0.87722575     -0.36826419
H       5.73241643     -0.70331124     -1.23866469
H       4.73880047     -0.13146702     -0.20121800
O      -5.12999296      2.69660596     -0.01327980
H      -5.72923984      3.06959357     -0.67688148
H      -4.67914512      1.95396343     -0.45964476
O       0.34967291     -1.74790021     -6.78766071
H       0.98955533     -1.01386524     -6.85544561
H      -0.04382765     -1.63392336     -5.90410992
O       0.33639028     -1.85418330      3.80585084
H      -0.54352120     -2.11586595      3.47590279
H       0.26263246     -1.90109472      4.76981054
O       2.13978655      0.56742185     -6.62901719
H       2.68989645      1.26498294     -7.01450895
H       1.85988523      0.89526130     -5.75662900
O      -2.22558394     -2.65372350      2.71944130
H      -2.60519319     -1.84086114      2.33834994
H      -2.98792384     -3.16636495      3.02407499
O       1.15422125      2.46625406      2.82104298
H       1.63662255      1.62670691      2.93170348
H       1.62360597      2.93794764      2.10557750
O      -3.19153546     -0.28279384      1.56901341
H      -3.45221697      0.53434568      2.02622268
H      -3.43025771     -0.11137353      0.64019722
