88
charge=0
Cl      2.95341691      2.53583113     -0.20098740
Cl     -1.21778254      4.92699954      1.29922002
Cl     -2.00274234      2.10200598      2.35756742
Br     -2.36178752     -1.37023123     -0.81249452
Br      0.78299659     -0.23373009     -2.97035467
C      -2.36638884      0.11873787      0.33534707
C       0.41918180      2.04122244     -0.75160983
C       0.05429544      2.90950315      0.17855213
C      -2.44663448      1.34188362     -0.14095897
C       1.73376885      0.17530885      0.21704808
C       2.10866987      0.88825798     -2.16315136
C      -3.73990685      3.28283945      0.72181211
C       1.73916780      1.34892464     -0.75205644
C      -1.28439575      3.54144809      0.22023358
C      -2.39079022      2.58282648      0.70147446
H      -2.28088155     -0.06693759      1.38726762
H      -0.27398366      1.78127958     -1.53087744
H       0.74596759      3.16107119      0.96458128
H      -2.53409420      1.47101211     -1.20604993
H       2.70945015     -0.30736706      0.24840217
H       0.99717080     -0.56932514     -0.08281846
H       1.48935071      0.50922087      1.22513503
H       2.24023936      1.75006081     -2.81748891
H       3.05224917      0.34263216     -2.15024648
H      -4.03086258      3.60308524     -0.27892419
H      -3.70496608      4.15791733      1.37045937
H      -4.50732161      2.60953920      1.10204046
H      -1.54216189      3.91326383     -0.77931761
O       4.62242954      1.23107588     -4.36580675
H       5.21267322      0.74902020     -3.75812792
H       4.29178999      0.55915294     -4.98154553
O      -1.57464232     -1.74431182      3.77173968
H      -2.45553956     -2.14398366      3.89426345
H      -1.61620757     -0.90404215      4.26514357
O      -1.08154907      4.16649737     -3.14749927
H      -0.13067239      4.26058815     -2.95559914
H      -1.35835350      5.03951848     -3.46291365
O       5.35686502     -2.81111518     -1.71777634
H       4.70021987     -3.47903728     -1.97870929
H       5.17154288     -2.65071788     -0.77186175
O      -6.04314858      1.53859024      3.25689946
H      -5.90249771      1.20461972      2.35137210
H      -6.89426611      2.00144709      3.22732981
O      -5.60245583      0.55703858      0.57960563
H      -5.40694185      0.67328048     -0.36879222
H      -5.33321167     -0.35944703      0.78323734
O      -4.66997534     -0.09372419      5.22741492
H      -3.76540753      0.27329615      5.26261673
H      -5.15549026      0.48605815      4.61107683
O      -4.34003071     -2.72308741      4.17210468
H      -4.53005511     -1.85645472      4.57921337
H      -4.69855489     -3.37717371      4.78889073
O       0.02358160     -2.29772548      1.47152508
H      -0.44763454     -2.15347929      2.31058032
H      -0.63849342     -2.08207728      0.79161847
O      -2.32749895      1.58428030     -3.35429888
H      -1.94957961      2.48340715     -3.33539617
H      -1.55554621      0.99537255     -3.39935207
O       3.21279411     -4.70727738     -2.20135528
H       2.66356130     -5.46486567     -2.45206011
H       2.83438023     -4.37913883     -1.36245302
O      -4.78675745     -2.14285074      1.33865648
H      -4.64185271     -2.34564291      2.28200574
H      -4.57193202     -2.96020148      0.86402141
O       4.70600284     -2.08813886      1.12247617
H       4.95207709     -1.18088571      0.85882068
H       5.13807128     -2.23103462      1.97716383
O       1.71001738      4.42642733     -2.57321364
H       2.42240764      4.36236115     -3.23424038
H       2.06060406      3.94574045     -1.80258496
O       6.33109481     -0.28963816     -2.59644907
H       7.28111916     -0.39142975     -2.75459830
H       6.01676227     -1.18341451     -2.36389928
O      -4.95686733      0.93279143     -2.26610765
H      -4.08881579      1.14512139     -2.65750434
H      -5.52872744      0.72146946     -3.01986781
O      -1.85787974      0.86656860      5.16973091
H      -1.86791309      1.34382753      4.31959714
H      -1.35591229      1.42628334      5.77894547
O       3.86616760      4.01236967     -4.41479845
H       4.51060664      4.45848086     -4.98419011
H       4.13613145      3.07455825     -4.40371214
O       2.30941857     -3.58735530      0.27709611
H       1.53484381     -3.18372270      0.70842354
H       3.08169771     -3.09427430      0.61760072
O       5.41544996      0.51034018      0.10823464
H       4.72616863      1.19134271      0.01856507
H       5.74722754      0.35434384     -0.79120893
