106
charge=1
O      -0.14405260     -4.48719250     -1.94418454
C      -0.31582807     -3.29349215     -1.87664174
C       0.40984260     -2.36572626     -1.06862765
C       0.20805940     -1.01916141     -1.17431859
C       0.32709864     -3.36098429      1.83924697
C       1.35590345     -2.76423423      1.24508338
C       0.22951467      3.22214553     -3.05059520
C       1.16260266      3.46738921     -2.05790077
C      -0.38032606      1.99109274     -3.16004153
C       1.50718958      2.47973309     -1.15635446
C      -0.05164936      1.00184141     -2.24540828
C       0.90618252      1.24696683     -1.25562090
N      -0.50867504     -0.32788780     -2.13761890
C      -0.71009228     -4.15287437      1.14764156
C       2.76447247     -1.85108537     -0.64554471
C       0.30213116      0.29279895      0.99179408
C       3.86246479      0.00922055      2.01006349
C       2.33637614     -1.97395754      2.05993761
C       1.40259052      0.34167755      2.03768595
C       2.44929613     -0.47675499     -0.02646487
C       1.60514796     -2.81913913     -0.26465631
C       0.99489066      0.01404526     -0.37111687
N       2.54221486     -0.54378588      1.52984444
H      -1.10424670     -2.89929623     -2.49681415
H       0.21535873     -3.22270621      2.90204758
H      -0.03133755      4.00906918     -3.74005717
H       1.62113111      4.43918920     -1.97102170
H      -1.08433681      1.77792554     -3.94511230
H       2.22394464      2.66676984     -0.37886380
H      -1.04540855     -0.77537599     -2.88902594
H      -1.26078675     -4.79632420      1.83595488
H      -0.26527054     -4.79512421      0.38760059
H      -1.43294562     -3.50310852      0.65248131
H       2.84581048     -1.76743875     -1.73438227
H       3.72538556     -2.22760999     -0.28133004
H      -0.26142735      1.23077511      0.94930502
H      -0.41623647     -0.50225668      1.21261182
H       3.93871073     -0.08648088      3.09005258
H       3.94738470      1.06222640      1.75587024
H       4.69021533     -0.51939347      1.54580746
H       2.01416691     -1.91988720      3.10091908
H       3.30004292     -2.48663300      2.06878550
H       1.06023711      0.00905730      3.01938832
H       1.79082085      1.35404191      2.15356835
H       3.16257597      0.27275077     -0.38521553
H       1.85485109     -3.85247422     -0.54786969
O      -2.16150892      0.64239434     -5.51738097
H      -1.83647615      0.34515480     -6.38095456
H      -2.28863646     -0.17645871     -5.00512946
O      -2.88424471     -0.48733286     -0.30222237
H      -3.49432970     -1.03490276     -0.82764537
H      -2.09430958     -0.39837902     -0.87715051
O       6.85512324      0.21105048      1.11554580
H       7.51375180     -0.34633223      0.67460006
H       7.35336498      0.74205150      1.75489785
O      -3.06795195      3.38355929     -5.55568361
H      -3.99578512      3.37064508     -5.83370335
H      -2.78589122      2.44954099     -5.54927408
O       1.43641795     -1.11472675      5.15391950
H       1.50402310     -1.71213300      5.92114436
H       0.51641358     -1.21019408      4.84053027
O      -2.11389278     -6.33090461     -1.01649044
H      -1.78228502     -7.22446621     -1.18723259
H      -1.42401403     -5.72833772     -1.35762648
O      -2.43129136     -1.77600392     -4.01135740
H      -3.17041605     -1.90884377     -3.38699405
H      -2.18454969     -2.67474472     -4.29544615
O       2.71955398      1.46016635      4.95279321
H       3.13993088      1.64113877      5.80649564
H       2.29120473      0.58922909      5.05392589
O      -1.57144877     -4.51078934     -4.53312362
H      -1.05754788     -4.61912072     -3.70833973
H      -1.36720218     -5.28721255     -5.07362509
O      -1.26230792     -1.39249235      4.09929654
H      -1.78240143     -0.79084906      3.53469840
H      -1.91452143     -1.82723003      4.66989260
O       3.66035206      3.62413375      0.84852707
H       3.04797051      3.60377172      1.60750640
H       3.43664388      4.43854976      0.35891679
O      -4.53181608     -2.18384849     -1.99202510
H      -4.55117220     -3.08680398     -1.62511228
H      -5.44420935     -2.00648995     -2.26337902
O      -1.08794794      2.62115654      2.98445615
H      -1.65896059      3.31637062      3.34522530
H      -1.68164821      1.86706386      2.80798392
O      -4.57270730     -4.82435553     -0.90035497
H      -5.25658109     -5.46344226     -0.65210757
H      -3.74696586     -5.34096230     -0.93974291
O       2.87955899      5.95887768     -0.76261405
H       3.55052408      6.34516326     -1.34533881
H       2.37938809      6.71018787     -0.41019238
O       4.86606151      1.47079894     -0.67402969
H       4.53799233      2.25252486     -0.18912589
H       5.57297256      1.09317938     -0.11486567
O      -2.87800724      0.36548249      2.40884144
H      -3.80968098      0.52778792      2.61931375
H      -2.88299916      0.08278767      1.47632850
O       1.59215351     -2.90311513      7.43672241
H       2.16440978     -3.67628741      7.55161772
H       1.20191537     -2.73926780      8.30818583
O       1.73500827      3.35408983      2.98547565
H       2.09064502      2.80005791      3.70646142
H       0.77448895      3.18108987      2.99384221
O      -0.91349639      5.23330078     -5.04087215
H      -1.66275246      4.63780668     -5.23507986
H      -1.03684955      5.99857396     -5.62245488
