64
charge=0
O      -0.99404764     -0.72993659     -0.80887799
Br     -0.81369020      3.41654532     -1.92228715
C      -0.91076912      1.61703716     -1.39774738
N      -0.98380855      0.41964302     -1.08213214
O       1.02706585     -2.77080302     -0.31590100
H       0.63367209     -2.64454914     -1.19836285
H       0.27781648     -3.02792179      0.25364544
O      -3.61589574     -3.71229798      0.20583050
H      -2.75039091     -3.73965560      0.65895369
H      -3.71203750     -4.57365475     -0.22626599
O      -3.56097702     -0.83294910      0.47509621
H      -2.74070015     -0.67395340     -0.04256542
H      -3.72128596     -1.78609236      0.36408671
O       2.46865456     -1.95818927      2.13471318
H       1.79272602     -2.14117944      2.81443014
H       2.05177991     -2.23153215      1.29713415
O      -0.45404935      0.39687259     -4.29237279
H      -1.40703483      0.52463610     -4.13355969
H      -0.25178257     -0.50819867     -3.98424214
O       4.20613340      0.25139261      2.56710864
H       5.02547391     -0.11415524      2.93196831
H       3.62395687     -0.52032767      2.43409175
O      -3.25859468      0.84758499     -3.76013987
H      -4.04823608      0.39215295     -4.09023218
H      -3.59348669      1.52907951     -3.14784814
O       1.96853611      1.46593715     -3.19089114
H       2.30532744      0.62869595     -2.81613951
H       1.14773768      1.20262857     -3.64123245
O       3.19152314      3.25364466     -1.33698747
H       3.67702043      3.92951863     -1.83213590
H       2.76625497      2.69604552     -2.01616903
O      -4.29463274      2.83250797     -1.92419674
H      -4.56896359      2.42140074     -1.08358905
H      -4.70384421      3.71091629     -1.92111061
O      -0.35911704      1.70733560      2.47423962
H       0.53757160      1.89401417      2.80785413
H      -0.43167591      2.27905234      1.69160011
O       1.13532899      3.43793114      0.72285299
H       1.81236305      3.40606557      0.02119603
H       1.61282569      3.17684437      1.53422374
O      -1.66862223     -0.81785970      2.74979058
H      -1.23341231      0.05213349      2.69171507
H      -2.38264330     -0.76680429      2.08794035
O      -1.06709806     -3.50904201      1.62224052
H      -0.62033805     -3.97885010      2.34127318
H      -1.26349519     -2.62585663      1.98970376
O       2.41688050      2.42995177      3.18046341
H       2.81172225      2.90413334      3.92682481
H       3.03345751      1.70034475      2.98300452
O       2.88997882     -1.04705074     -1.89303677
H       3.51502353     -0.50429904     -1.37869562
H       2.42696437     -1.58939752     -1.22610756
O       0.32068676     -2.42265622      4.09267577
H      -0.36203613     -1.82854107      3.72695853
H       0.20791461     -2.38476359      5.05372625
O       0.57944398     -2.21855974     -3.32160695
H       0.86749641     -2.86836013     -3.98103554
H       1.39948311     -1.80946000     -2.98151423
O      -5.09450282      1.58464116      0.54310698
H      -5.61662779      1.55986125      1.35864552
H      -4.59137148      0.74891551      0.53651259
O       4.49778685      0.77226576     -0.32733151
H       4.41531264      0.68572638      0.64100967
H       4.11887597      1.64089317     -0.56249532
