78
charge=0
C      -3.48924079      0.16252922     -0.36912906
C      -2.68467873     -0.81681558     -0.07967606
C      -3.42404912      1.35670064     -1.05220191
C      -2.27013399      1.96098845     -1.42995751
C      -1.54511337     -1.64838626     -0.02814231
C      -0.90628510      1.52987522     -0.99567980
C      -0.24342220     -0.89576689     -0.37625161
C      -0.42374017      0.14116076     -1.50714947
H      -4.36315869      1.82592206     -1.31162993
H      -2.33592687      2.86714704     -2.00890230
H      -1.69945130     -2.46387983     -0.74691006
H      -1.46661393     -2.13248204      0.95341279
H      -0.87797900      1.53715442      0.10049931
H      -0.17855333      2.30134327     -1.28165260
H       0.54134692     -1.61817017     -0.63643099
H       0.13623471     -0.37995825      0.51409324
H      -1.13037311     -0.24656271     -2.25025535
H       0.51868558      0.25900083     -2.05806781
O       3.35165928     -4.18408510     -1.48652907
H       3.63688269     -5.08183299     -1.71220771
H       2.45249090     -4.28094825     -1.11893950
O      -2.91869729      5.44372966     -0.80763071
H      -2.32810093      5.23547653     -1.55712935
H      -3.64710486      5.95881133     -1.18558293
O       3.49022684     -0.59530944      1.01158448
H       2.96660209     -1.34811206      1.34936147
H       2.94841560      0.20018275      1.17370302
O       1.66238164      4.10851830     -2.40165309
H       2.35361817      4.50081547     -2.95549199
H       1.98231589      3.20825401     -2.20698063
O       1.09053250      4.53477222      0.46697250
H       1.46305118      5.39293137      0.71777077
H       1.25039886      4.45269751     -0.49259913
O       1.56329798     -1.25714037     -3.89758314
H       2.25018784     -1.25831138     -3.20468893
H       1.94468465     -0.75328171     -4.63175252
O       1.80614281      1.78557692      1.24400603
H       1.26642858      1.57956068      2.02934533
H       1.58461192      2.71517130      1.04202893
O      -3.76577646     -3.61430706      1.95661138
H      -4.70888361     -3.44460041      1.81302025
H      -3.44885796     -2.84489383      2.46387652
O      -1.13279803      4.75210149     -2.98454552
H      -0.20302537      4.53907078     -2.77824660
H      -1.23630111      4.55501755     -3.92799146
O      -0.33942590     -3.20334597     -2.88767789
H       0.28863426     -2.54998467     -3.24919475
H      -1.07630707     -3.22494275     -3.51636443
O      -1.71188251     -5.33884702      0.89730497
H      -2.39864701     -4.74248006      1.24809414
H      -1.98835780     -6.22590189      1.17344164
O      -1.67256786      4.05836522      1.39993313
H      -2.17386681      4.53428280      0.71317146
H      -0.74013006      4.20547453      1.14885678
O       0.63980716     -4.32658652     -0.40557509
H      -0.13943844     -4.71173565      0.03444557
H       0.28450018     -3.96897285     -1.24179065
O      -2.52018680      1.49590313      2.33007784
H      -2.83462366      1.09635796      1.49893040
H      -2.31618096      2.41501689      2.07619645
O       0.05511124     -1.69187927      3.68937309
H       0.20505709     -0.72733561      3.63764360
H       0.69545249     -2.09647199      3.07463813
O       0.11711682      1.23323897      3.52706845
H      -0.78261237      1.33050137      3.16155535
H       0.09145381      1.67834005      4.38638849
O       2.61395369      1.53217641     -1.62351341
H       2.38694680      1.56930062     -0.67395296
H       2.96813132      0.63595599     -1.75349993
O      -2.80526615     -1.30169384      3.38443565
H      -2.80064440     -0.37042055      3.09403664
H      -1.86784368     -1.50138632      3.56706864
O       3.55140841     -1.30650140     -1.76912640
H       3.56942279     -2.28142300     -1.74579148
H       3.63946899     -1.06793783     -0.82678809
O       1.92150609     -2.93738278      1.81447736
H       1.47908590     -3.39236450      1.07412377
H       2.46426801     -3.61972910      2.23783844
