87
charge=0
O      -1.59824131      3.12103308      1.11337085
N       1.77217896      2.31061151      0.32558047
O       0.02352884      4.58875354      0.55565519
C      -0.45158857      3.32977469      0.75501275
C       0.45426246      2.20269170      0.48624057
C       1.59086745     -4.12759285     -3.90380220
C       1.29412366     -2.99960630     -3.29212334
C       0.06212756      0.85194253      0.28166917
C       1.21150978      0.16969780     -0.00851870
N       2.22466861      1.10384778      0.02607484
C       0.17409338     -2.89802572     -2.32034146
C      -1.16048426     -0.02486702      0.15593765
C       0.92008374     -1.26623659     -0.37098736
C       0.08557679     -1.53534167     -1.62517794
C      -0.61939555     -1.41295551     -0.27972051
H      -0.69481795      5.20033623      0.83177802
H       1.02117256     -5.01473424     -3.70572414
H       2.39815986     -4.20305193     -4.60523781
H       1.86943870     -2.11014326     -3.49128125
H       3.21032165      0.91200906     -0.22475479
H       0.28949205     -3.68043117     -1.56291538
H      -0.77263783     -3.11103835     -2.82984493
H      -1.69126768     -0.08277907      1.11088203
H      -1.85190836      0.37484737     -0.59124201
H       1.54985517     -2.04230341      0.07513336
H      -0.02742490     -0.69660098     -2.31726843
H      -1.04338443     -2.30635281      0.19414628
O      -2.93649819      2.65995989     -1.40738040
H      -3.24215603      3.55817311     -1.62331398
H      -2.50610126      2.76957939     -0.53559246
O       2.53441176      0.76798659      3.03781393
H       2.37571019      0.94259732      2.08049771
H       1.65553601      0.57699920      3.42104905
O      -2.80980967      5.69573736      1.22064176
H      -2.50696099      4.76460904      1.25641218
H      -3.29536382      5.84759714      2.04497710
O      -1.20483364      1.16051913     -3.18265852
H      -0.32891869      1.57502768     -3.07781649
H      -1.80542322      1.70282781     -2.63771379
O       2.02013896      4.95204430     -1.54524643
H       1.45678429      4.80998471     -0.75969709
H       2.81397835      5.39559694     -1.21376514
O       5.00900638      0.28484162     -0.79471910
H       5.22388050      0.50596334     -1.71361849
H       5.71049690      0.68510943     -0.25865595
O       1.43571806      2.31114315     -2.64651726
H       1.62461641      3.24376775     -2.43954133
H       1.66171868      1.85862084     -1.80028335
O      -1.79466766     -5.21573289     -0.93125855
H      -1.25605043     -4.94168332     -0.16552412
H      -2.37140125     -4.45017797     -1.11477104
O       4.14972031     -2.41414096     -0.01034658
H       4.45125082     -1.53581321     -0.30786551
H       3.96399192     -2.29689753      0.94108606
O      -3.35544911     -2.83612105     -1.51286857
H      -3.08253312     -2.31492040     -2.29123239
H      -4.29407583     -2.63082922     -1.38624869
O      -2.51817581     -1.29630205     -3.79960150
H      -2.08187647     -0.44717549     -3.60404032
H      -2.75326200     -1.24547227     -4.73790923
O      -0.63726167      5.51479745     -2.28243798
H      -0.45751616      5.18266231     -1.38043181
H       0.23795762      5.55518278     -2.70076654
O       0.69867559     -2.78383473      3.62355557
H       0.40653408     -1.87179001      3.81549329
H       0.49450916     -3.29143666      4.42325004
O      -3.47175633      5.54336729     -1.67352691
H      -2.56736628      5.63564898     -2.02904022
H      -3.36127800      5.69970720     -0.71467098
O      -0.30320766     -6.50344053     -3.04459021
H      -0.65215484     -7.40586815     -3.11152758
H      -0.81632248     -6.08651122     -2.32642920
O      -0.04901471     -4.22354168      1.17011058
H       0.79263474     -4.40345795      0.70758957
H       0.20068569     -3.77325836      1.99349739
O      -0.06582741     -0.03151228      4.22403913
H      -0.84261464      0.37315765      3.79831732
H      -0.07839526      0.31014643      5.13116330
O       3.38330330     -1.98999524      2.73146959
H       2.54338494     -2.38101311      3.03711119
H       3.25295049     -1.03558993      2.88107782
O       2.37726607     -4.64012441     -0.36250780
H       2.88448647     -5.39466520     -0.69617599
H       3.02045688     -3.91257736     -0.27679597
O      -2.34053163      1.20133731      3.03591838
H      -3.30549060      1.26087042      3.09367595
H      -2.08347864      1.87636963      2.37847024
