107
charge=0
O      -1.41358044      2.92102576     -3.98250075
N      -0.62996640      0.56402127     -1.41729678
O       4.31814699     -2.93558745      2.99186090
O       0.82720028     -1.34519744      4.09613523
O       2.82552499     -0.51282747      3.10978833
C       4.44142751     -2.59923804     -0.63694598
C       4.56318319     -3.11088471      0.57062814
C       0.29193526      1.27851558     -0.76003689
C       0.72681307      2.52894740     -1.18485271
C      -1.18273493      1.12801048     -2.48033992
C       0.17458332      3.09083594     -2.30633438
N      -2.16116872      0.44440280     -3.14236482
N       0.52660282      4.30831408     -2.82454777
N       0.81963641      0.70789918      0.42831183
N      -0.82522589      2.38843134     -2.94994621
C       4.68394681     -2.26842204      1.78637837
C       4.41540807     -2.08644750      4.12092856
C       1.91862625     -2.02913657      4.68200196
C       1.37562490     -0.65643929      0.40173629
C       1.13095751      1.52949475      1.61005739
C       1.04508913     -1.43610200      1.66771902
C       0.75813224      0.79811900      2.89644076
C       3.17354985     -1.21476517      4.30759395
C       1.37556443     -0.62658831      2.94956221
H       4.36376721     -3.21596539     -1.51064069
H       4.40485194     -1.53798565     -0.78513042
H       4.60623374     -4.17857087      0.70437554
H       1.53472506      3.02350906     -0.67926049
H      -2.52904972     -0.40554727     -2.72659120
H      -2.72691255      0.85489385     -3.87668888
H      -0.08207157      4.70389518     -3.52931607
H       0.97481653      5.01519237     -2.25737948
H       4.03989549     -1.39116311      1.69468152
H       5.71426127     -1.91024058      1.89358755
H       4.56756082     -2.72446687      4.99817079
H       5.31361311     -1.46979776      4.01005216
H       1.95733374     -3.03887391      4.26248858
H       1.76089047     -2.10147509      5.76511630
H       2.45654620     -0.57019019      0.27133837
H       0.99333234     -1.16186439     -0.49212226
H       2.19484310      1.77479228      1.59361786
H       0.58497277      2.47677776      1.52283384
H       1.60241097     -2.37661410      1.70425892
H      -0.01035028     -1.71733287      1.68152848
H       1.10407755      1.35511054      3.77332205
H      -0.32860699      0.72192566      2.98775749
H       3.35372372     -0.43932971      5.07047420
O      -1.35438409      3.74472639      0.87975885
H      -1.79692797      3.98941601      0.04398620
H      -1.99956667      3.17160196      1.33773889
O       0.02375765      0.62216285      6.10163929
H      -0.86886132      0.87550885      5.80997485
H       0.28931288     -0.06526403      5.45529269
O       3.57817781      3.44825133     -0.08986455
H       3.99088879      4.31567365      0.03429897
H       3.97070906      2.87369126      0.59425454
O      -3.56620059     -1.01394244     -5.73534377
H      -2.60601856     -1.18429464     -5.70628915
H      -3.63404497     -0.04066924     -5.74679515
O       4.59562022      1.26786768      1.63143764
H       4.04536242      0.69888459      2.20323406
H       4.49362832      0.89392927      0.73385021
O      -2.76819259      4.33123279     -1.66572687
H      -2.26526135      3.79886425     -2.31620909
H      -3.45230176      4.78817923     -2.17850531
O       2.73795669      0.37976035      7.12288238
H       1.81738773      0.49639829      6.82159549
H       2.81290878      0.92021850      7.92472414
O       1.97975607     -0.28380802     -3.13767217
H       1.60170013      0.24561610     -3.86433509
H       1.29786135     -0.95649258     -2.94898763
O       2.13440782     -4.63901828      2.11288237
H       2.87968154     -4.08514680      2.41888046
H       2.20308039     -5.46864819      2.61121891
O      -2.06342372     -0.42458934      0.79905001
H      -1.17770057     -0.04247010      0.59753095
H      -2.30945437     -0.91690849     -0.00355644
O      -2.55161956      1.04092835      4.79322797
H      -2.49688189      0.10706200      4.51111636
H      -2.84539011      1.49329159      3.98179312
O       0.66767461      1.25929043     -5.30756101
H       0.07011454      1.81570642     -4.76721618
H       1.00592915      1.84428684     -6.00072126
O      -4.79044970     -2.37689104     -3.54602661
H      -4.40733870     -1.92968118     -4.32272152
H      -5.64756681     -2.71056492     -3.84753152
O      -3.31724020      1.87850691      2.08263966
H      -2.94286482      1.10020162      1.62435601
H      -4.24015107      1.93258412      1.79317669
O      -0.10217931     -2.33105029     -2.64837262
H      -0.98519512     -2.22690739     -2.24610124
H       0.13453961     -3.26095844     -2.50852409
O       3.88716171      0.59204300     -1.17419870
H       3.73368710      1.55193489     -1.08029615
H       3.26957202      0.30704865     -1.87262456
O      -3.57906752      1.89571587     -5.53691578
H      -2.84219752      2.35493392     -5.08898750
H      -4.02087894      2.57230219     -6.07130265
O      -2.83545251     -2.16398919     -1.49910682
H      -3.52562278     -2.23289947     -2.18419762
H      -3.04792007     -2.88425490     -0.88362491
O      -2.05892153     -1.55376290      3.53302708
H      -1.10483813     -1.58186459      3.74906926
H      -2.10399635     -1.23711803      2.60853959
O      -0.69865249     -1.34034088     -5.39660447
H      -0.49131203     -1.69980186     -4.51208036
H      -0.23208413     -0.48347376     -5.42810048
