88
charge=0
Br     -5.73468043      1.93141673     -3.26434015
N       3.16979704      0.67419732     -0.88712418
N       2.21749559      0.03627867      1.27189557
O      -0.82592873     -1.42377642     -0.66067042
S      -3.82930621      0.65102818     -1.00984081
C       2.66509195      0.82740489     -2.08980750
C       1.06281417     -0.11767627      1.85857053
C       2.15739037      0.23480900     -0.09865696
C      -4.64462414      0.57476819     -2.54004047
C      -4.38393630     -0.59577644     -3.15281129
C      -3.51315730     -1.44835756     -2.41173590
C      -3.11985194     -0.92800015     -1.22886846
C       0.99747373      0.15734275     -0.85637478
N       1.01028218     -0.31087536      3.22517239
N       1.31585049      0.57292078     -2.11731382
N      -0.16863006     -0.08723805      1.20377897
C      -2.18636204     -1.60448334     -0.29109642
C      -0.32659067     -0.15359509     -0.25161256
H       3.25923379      1.10909091     -2.95215237
H      -4.77872916     -0.85509766     -4.12429997
H      -3.16532357     -2.40042539     -2.78235190
H       1.83232519     -0.26644856      3.81463395
H       0.19513273      0.01792702      3.72867055
H       0.68738490      0.51740765     -2.92971095
H      -1.00357637      0.23239479      1.69795119
H      -2.37762824     -2.68327033     -0.28560787
H      -2.32767670     -1.24958194      0.73461411
H      -1.05445911      0.59911676     -0.58350362
O       3.09433074     -0.63887141      5.43478872
H       2.86862452     -0.19542179      6.26544672
H       2.63412067     -1.49737249      5.48775823
O       1.11347242     -3.50221475     -0.33162992
H       0.48184780     -2.75952448     -0.41275398
H       0.64845620     -4.28288213     -0.67315474
O      -1.25690474      0.99901458      4.59583746
H      -1.86022746      1.07075704      3.83326723
H      -0.75192313      1.83743819      4.57350973
O       0.38835008      3.44072274      4.25304980
H       0.30686674      4.11861114      4.93979650
H       1.34309210      3.39583242      4.04998325
O      -5.34305355      0.79523588     -6.54315240
H      -5.45699958      1.20145711     -5.66773972
H      -5.17456054      1.52735857     -7.15332709
O      -0.35946486     -1.76798990     -4.11975834
H      -1.14862321     -2.27861924     -4.38114176
H      -0.68003089     -0.85445998     -3.99273844
O       1.41426348     -3.05251982      5.50174441
H       1.31804078     -3.22161975      4.54686022
H       1.37480338     -3.92480785      5.91933523
O      -1.30903113      0.98504043     -3.58646085
H      -1.21395488      1.94105184     -3.44079886
H      -2.07948041      0.73581298     -3.05032725
O       4.21706094     -0.71608415     -4.06902050
H       3.53897529     -1.32049420     -3.71140331
H       5.03174487     -1.24226100     -4.10264918
O       3.26858472      3.33012764      3.54750046
H       3.68088840      2.44886586      3.48886106
H       3.98358921      3.92087383      3.82564306
O      -0.68285704      2.87864468     -1.55557622
H       0.00122653      2.18629670     -1.68722345
H      -0.64760317      3.09592156     -0.60672162
O       1.15357286     -3.26555422      2.62378395
H       1.08298505     -2.29079130      2.73292728
H       1.20818302     -3.39756345      1.66098196
O       2.20736167     -2.49566994     -2.98111774
H       1.35693369     -2.25972763     -3.39969347
H       1.96197721     -2.82206248     -2.09559374
O      -2.77181893     -3.24669913     -4.84398811
H      -3.52014804     -2.84087373     -5.32070826
H      -2.67158481     -4.12931409     -5.23192059
O       2.34207231      3.36089867      0.71765911
H       2.76511522      2.62506216      0.24250941
H       2.72243798      3.35542517      1.61721562
O       0.32671119     -0.48689908      6.65340009
H      -0.25358587     -0.04367654      6.00421195
H       0.57193962     -1.35186839      6.26777998
O       4.38402337      0.68622956      3.23081859
H       3.73898043      0.44189162      2.52913390
H       4.08714488      0.18218433      4.01109534
O      -5.00849507     -2.05383923     -6.22704797
H      -5.68971571     -2.46350112     -6.78120974
H      -5.10555835     -1.09505912     -6.37545986
O      -0.43692100      3.28698156      1.42874107
H      -0.30929160      3.40068776      2.38982522
H       0.48236724      3.34866111      1.10521673
O      -2.62475574      1.39719322      2.00860834
H      -3.09267616      1.21096371      1.17787781
H      -1.99370544      2.11040653      1.78538244
