99
charge=0
O      -0.05474549      0.47922476      1.08919174
O       2.42282068     -2.97007096     -1.04357177
O       0.88861181     -1.86361286     -2.56470545
O      -2.93466372     -0.92356436     -0.99905755
C       0.85144608     -0.00376396      0.44534818
C      -2.49811893      1.38914131     -1.26473919
C       3.41866866     -0.93495791     -0.09302403
C      -1.67937073      2.49878433     -1.56848701
C      -2.06971536      0.09228170     -1.43080809
C       2.28954358     -1.85108674     -0.24333476
C       1.05781694     -1.45889442      0.33427712
C      -0.27241293     -1.44654482     -1.92938929
C       3.20201051      0.38107964     -0.08803088
C      -0.45494084      2.34717688     -2.08573061
C      -0.78375341     -0.15379533     -2.02317310
C      -0.13711072     -2.31089414      0.27408098
C      -0.89440723     -2.24276507     -0.87063070
C       1.41758943     -3.08810137     -2.05458567
C      -2.38866288     -2.24562536     -0.86179315
C       0.19658834      0.94065967     -4.01365294
C       1.80551264      0.88119759     -0.34683398
C       1.55629946      0.85492004     -1.88651443
C       0.11515913      1.00191735     -2.47964931
H      -3.46782219      1.54901722     -0.82944649
H       4.41116992     -1.34379539     -0.02701472
H      -2.04714812      3.48917229     -1.35432111
H       4.01994869      1.07565691      0.00015661
H       0.15542018      3.21339448     -2.27310719
H      -0.58217834     -2.69232936      1.18008312
H       1.88063098     -3.61592370     -2.89447110
H       0.61274098     -3.72877543     -1.68528312
H      -2.77407278     -2.66551289      0.07399942
H      -2.77828527     -2.85127272     -1.68685624
H       0.85034356      1.71856766     -4.40512252
H      -0.79066516      1.07529284     -4.45321488
H       0.57782983     -0.02471739     -4.34167228
H       1.68735492      1.90796265      0.02915789
H       1.94988230     -0.09633863     -2.24894589
H       2.19272375      1.61532776     -2.34810332
O       2.95518630     -1.18490371     -4.53044438
H       3.67609135     -0.83570434     -3.97322500
H       2.28812420     -1.49959358     -3.89186658
O      -1.15308978      3.01664733      1.69328411
H      -0.74267862      2.15109006      1.50488263
H      -0.67640700      3.63819004      1.11344530
O       0.16090321      4.90379627     -0.09567673
H      -0.66465911      5.23932274     -0.49592173
H       0.82532357      5.59024280     -0.25747006
O      -2.10368617     -3.57849256      2.58156542
H      -2.17117770     -2.60640422      2.62440587
H      -3.02771760     -3.88706672      2.61123938
O       4.87585893      0.19698011     -2.88369166
H       4.59862405      1.09458499     -3.15406972
H       5.45795097      0.32278707     -2.11273366
O      -3.13236364      4.43939715      3.21241150
H      -2.79998391      4.64045907      4.09898015
H      -2.38723424      4.01239706      2.74877207
O       2.94019164     -4.58464943      1.35134382
H       2.06383556     -4.78324033      1.72876674
H       2.75284136     -4.08610795      0.53203379
O       2.72761995      1.20252309     -6.13154911
H       2.73238010      0.96547100     -7.07043140
H       2.79204676      0.35360215     -5.65428162
O       0.30294954     -5.12568401      2.43818062
H       0.12684272     -5.90415380      2.98918692
H      -0.51135148     -4.59293186      2.49210535
O      -6.72338419     -2.42484909      1.59909696
H      -7.64282425     -2.18000151      1.41428714
H      -6.19397851     -1.66687106      1.28960683
O      -5.17383573     -0.20236120      0.67684253
H      -4.44389673     -0.47402040      0.08752020
H      -4.78023945      0.49557417      1.23270100
O      -2.25101302     -0.70595085      2.50058759
H      -1.46854346     -0.35995824      2.02591309
H      -2.86127726      0.05352573      2.50841608
O       6.16596295     -0.89550316      1.87972682
H       6.12639104     -0.55608507      2.78694902
H       5.96032866     -1.84418781      1.96215764
O      -2.36027369      5.78108513     -1.20174308
H      -3.03543315      5.77729782     -0.49755396
H      -2.77537509      6.24255837     -1.94568217
O       6.55317539      0.58559347     -0.55086467
H       7.49351354      0.82130748     -0.55666499
H       6.42510145      0.07717885      0.27146408
O      -4.88178524     -4.40193590      2.61809456
H      -5.44530021     -5.09661906      2.99214430
H      -5.49974957     -3.73085486      2.27277336
O       3.78706580      2.74771382     -3.89827456
H       4.07969183      3.61356104     -4.22057591
H       3.42300952      2.28895407     -4.68030338
O      -3.80594175      1.82992456      2.24225298
H      -2.93144276      2.18501330      1.99176163
H      -4.19482318      2.53222045      2.78817754
O      -4.33720446      5.74769190      0.90051264
H      -5.25817961      5.93574494      1.13424586
H      -3.95510155      5.31934912      1.68927381
O       5.51170216     -3.66493577      2.20132532
H       4.63040532     -3.97079069      1.92096822
H       6.00034659     -4.47621289      2.40641428
