87
charge=0
O       2.09419894      5.55379600     -2.45261867
Cl     -0.00120081     -1.01767700     -4.44309372
Cl     -2.24285074      0.49197532     -3.48445671
Cl     -0.23564451      1.77979268     -5.10348792
N       1.79695000      4.89090939     -3.39780605
C       1.35998345      3.58928698     -3.02386810
C       0.11917172      3.44756510     -2.27281170
C       2.12120332      2.52772251     -3.28938620
C      -0.37817413      2.23280068     -2.03582167
C      -0.53033953      4.67083689     -1.74348996
C       2.43761507      0.09272952     -3.69326176
C       0.02159425     -0.16556462     -1.52298931
C      -0.51734912      0.56572838     -3.85289553
C       1.79063492      1.15026813     -2.80132158
C       0.23371927      0.94754605     -2.56311105
H       3.03351374      2.67405126     -3.83922076
H      -1.29026628      2.14764841     -1.47263937
H      -0.08874710      4.95142162     -0.78676921
H      -0.38810218      5.50640388     -2.42988198
H      -1.60116359      4.52428331     -1.59745207
H       3.51758023      0.23440083     -3.75576707
H       2.25229377     -0.91633122     -3.32492674
H       2.04051797      0.15695586     -4.70614417
H       0.47296571      0.10070524     -0.56855824
H      -1.04037505     -0.34021097     -1.35577971
H       0.46390391     -1.10140047     -1.85775209
H       2.24716739      1.06445231     -1.80086829
O      -5.21837596     -0.09687212     -2.50604435
H      -5.80813461      0.07730927     -3.25466634
H      -4.31971063      0.09367813     -2.82913686
O       5.05418828      1.61223913     -2.60736050
H       4.84648996      2.48731328     -2.22487709
H       5.25413062      1.03465808     -1.84409880
O      -1.22582391     -4.30992306      0.96086974
H      -0.43647477     -4.08497296      0.42929259
H      -1.30919289     -3.61451600      1.64200774
O       2.91692661     -1.51471010     -0.29960075
H       3.80398221     -1.14194724     -0.44850186
H       2.65313431     -1.12124037      0.55309794
O       4.29317668      4.17387977     -1.33490849
H       3.52532635      4.62663299     -1.73642739
H       4.94465119      4.87688785     -1.19961466
O      -4.67893202      3.83516718      2.15392189
H      -5.22596524      4.62594800      2.03766425
H      -3.89966708      3.96571124      1.58187491
O       5.19708886     -0.88821841      2.50730612
H       4.25081226     -0.64889634      2.52225617
H       5.40184753     -1.18588617      3.40474153
O      -1.06744910     -3.56804217     -2.81799915
H      -0.34212199     -3.64778908     -2.16689094
H      -0.82754503     -2.80198082     -3.36733030
O      -3.30889491     -3.94699505     -1.04319886
H      -2.72355889     -4.16984219     -0.29497317
H      -2.67766544     -3.84435948     -1.77795012
O       2.42850961     -0.05219078      2.20881172
H       2.70854842      0.73603080      1.70142220
H       1.47061433      0.05250846      2.34306569
O       3.46963420      1.99151652      0.36276018
H       4.17751289      1.34462835      0.17268052
H       3.71934670      2.77491205     -0.15917144
O      -0.43256998      0.28782236      2.35587053
H      -0.70276732     -0.62361859      2.57033608
H      -1.28575174      0.75699608      2.40965454
O       1.09477621     -3.68605785     -0.80582428
H       1.65482141     -4.47281385     -0.89068544
H       1.71391265     -2.95119566     -0.64041953
O      -4.41115773     -1.27531815      2.58166650
H      -4.62825121     -1.45454944      1.64880091
H      -5.22395377     -1.48294912      3.06541721
O       0.66695667      2.64708928      0.90649816
H       1.60890054      2.48681795      0.71621472
H       0.36282134      1.86663529      1.41211527
O      -3.12511416      1.34685643      2.45187937
H      -3.61630725      0.50633023      2.50388973
H      -3.79552446      2.04951913      2.52401593
O      -2.07823499      3.43647301      0.65184418
H      -2.40992563      2.68068839      1.17594704
H      -1.11266858      3.31818084      0.69573660
O       5.57319045     -0.12206548     -0.23897447
H       6.43217294     -0.43960030     -0.55405704
H       5.54944318     -0.37905089      0.70297947
O      -1.67410981     -2.24617603      3.02393528
H      -1.67886944     -2.67537173      3.89261021
H      -2.59365855     -1.94850493      2.88084266
O      -4.99566993     -1.78585306     -0.13153387
H      -4.48491804     -2.54793124     -0.46237034
H      -5.11792166     -1.21535320     -0.91189313
