76
charge=0
S      -1.00706893      0.62718606      0.29670376
S      -1.74272625     -0.48762605     -2.47477248
C       0.04296745     -2.87983250     -1.19811888
C      -1.51565404      2.00322998     -0.67851462
C      -2.39828627      1.96451262     -1.66612026
C       0.00019989     -1.63319551     -0.76643296
C      -3.01578185      0.70324281     -2.12741496
C      -1.23793395     -0.81040179     -0.77553562
H       0.95030537     -3.45082853     -1.18306821
H      -0.83848363     -3.36657350     -1.56465277
H      -1.07024148      2.93808303     -0.39421847
H      -2.64887119      2.87913259     -2.18364354
H       0.90304999     -1.15798907     -0.41176941
H      -3.61682134      0.84810017     -3.03089905
H      -3.68041409      0.30179591     -1.35793116
H      -2.05009054     -1.38852825     -0.32093936
O      -2.77760382      3.77052910      2.21616760
H      -3.22597691      3.16589191      2.82502333
H      -1.85435144      3.45824798      2.17932914
O       2.94104193     -0.97209928     -3.02535687
H       3.07226130     -1.51547164     -3.81658716
H       3.54406750     -1.34567484     -2.35640622
O      -2.46877005      5.83277507      0.20869325
H      -3.08950153      6.54923062      0.40457690
H      -2.64391645      5.15191648      0.88536235
O      -1.50362522     -4.18161513      1.36042938
H      -2.26082367     -4.53522587      0.85782110
H      -0.75304846     -4.74932790      1.10269316
O      -0.32072011     -1.80455381      2.47913323
H      -0.56196219     -1.08190490      1.87372017
H      -0.76320878     -2.59925903      2.12731353
O       0.39006577      5.28915641     -0.01385898
H      -0.53649597      5.58201036      0.06162529
H       0.46019692      4.92065894     -0.91699251
O       2.20649034      1.67519134      0.47122086
H       1.88575872      1.53628701     -0.44101413
H       2.60080057      2.56823752      0.47194019
O       0.01286411      3.07354466      1.93405473
H       0.68549504      2.45130262      1.60776285
H       0.15849510      3.86537544      1.37823765
O       4.74881868     -2.06915608     -1.01707578
H       5.71001390     -2.18607263     -1.02614140
H       4.57229540     -1.46548353     -0.27029493
O       3.11023366      4.42367204      0.52581877
H       3.64758718      5.14621942      0.88162662
H       2.22688094      4.80785586      0.36690313
O      -4.51564626     -2.44672031      0.99511530
H      -4.29971280     -3.38674536      0.84453185
H      -4.26394445     -2.26742987      1.91266089
O       2.46586409     -2.22453233      2.90195364
H       1.50988980     -2.06380501      2.79685878
H       2.59385729     -2.36667358      3.85092345
O      -4.16753115     -2.77118600     -1.92253327
H      -3.48267221     -2.13386392     -2.18843184
H      -4.42410256     -2.48875184     -1.02371774
O       0.61481372      4.02362604     -2.62969765
H       1.13124087      4.30872569     -3.39783149
H       0.81524388      3.07449286     -2.52998672
O       2.93170821     -3.89387312      0.49692133
H       2.80500239     -3.36442335      1.30817040
H       3.53536337     -3.36252833     -0.05331222
O       1.22391399      1.20794445     -2.30899460
H       0.35684517      0.76622730     -2.32029614
H       1.84446773      0.50973841     -2.58551707
O      -3.77807237     -5.13070001     -0.20956897
H      -3.90254855     -4.49449903     -0.93882062
H      -4.13840980     -5.96890683     -0.53169929
O      -2.17024645      5.05413591     -2.63316329
H      -2.30396423      5.34076401     -1.70768644
H      -1.24771773      4.73045580     -2.67444853
O       4.01893142     -0.45153826      1.19241398
H       3.42834540      0.29851103      0.99634335
H       3.52203591     -1.00257548      1.82635392
O       0.76550002     -5.78974400      0.51896574
H       1.51923541     -5.17026155      0.50213698
H       1.15985462     -6.67230450      0.45164525
