71
charge=0
N       2.52302676     -0.55044401     -4.05431578
N       3.79101976      2.56264980     -1.22494393
N       0.02987470      2.59373625      0.38031413
N      -1.16220362     -0.41988528     -2.60197143
C       2.41277661     -0.01964995     -3.03160676
C       3.08590549      1.67940868     -1.47535319
C       0.31221299      1.71333909     -0.31692096
C      -0.34595607      0.06584684     -1.94137368
O       1.73813997     -0.22954018     -0.69516460
C       2.19317855      0.60547078     -1.76828122
C       0.70680640      0.64175564     -1.17151252
O      -1.43738860     -3.09921867     -1.20306221
H      -2.10907901     -2.42172909     -0.99377697
H      -1.48921625     -3.20160547     -2.17114189
O      -1.58773792     -0.64346203      1.72757287
H      -0.92388050     -1.30045943      1.43817406
H      -1.30292377     -0.40908069      2.62730559
O       1.88111135     -1.86760136      3.24049297
H       2.47270615     -1.19898796      2.83973320
H       1.41802436     -2.24584085      2.47322831
O      -1.09419308      1.17979829     -5.26532254
H      -0.76325983      0.27378856     -5.41936798
H      -2.04457100      1.08306600     -5.06791075
O       0.54467818     -2.50226523      0.76153952
H       1.02539178     -1.81613316      0.25275544
H      -0.09209759     -2.86716769      0.12279592
O       3.82648976     -0.72954564      5.22336021
H       4.32091430     -1.31576672      5.81266462
H       3.18010382     -1.29932986      4.76600057
O      -3.20402920      1.79355394     -1.82684191
H      -2.68524365      2.61929032     -1.85046389
H      -3.43024263      1.59117365     -2.75455178
O      -1.47518542      4.19747309     -1.72285680
H      -1.66109116      5.13393446     -1.56649719
H      -1.02752675      3.87496408     -0.91685758
O       3.67985391      0.44828681      2.49319840
H       3.95227534      0.19339823      3.39423008
H       2.94332947      1.07448280      2.62658177
O       0.15899256     -1.53069047     -5.65891063
H       0.95119675     -1.25263038     -5.15970818
H       0.45733015     -1.63403141     -6.57467800
O      -3.31026894     -0.85653861     -0.58954474
H      -2.84290729     -0.76908503      0.26213875
H      -3.32529613      0.05347102     -0.94576568
O      -1.66610391     -3.23852110     -4.12705369
H      -1.06337606     -2.66295615     -4.63531416
H      -1.71001829     -4.06889764     -4.62413693
O      -0.31266290     -0.11904296      4.25281779
H       0.38174579     -0.78309025      4.06882554
H      -0.26415712      0.05496242      5.20832339
O       4.73744513     -0.37372728     -0.09519380
H       4.37772888     -0.09428033      0.76901785
H       5.69800023     -0.42927834      0.03157073
O      -4.05710248     -1.70551073     -3.32866940
H      -3.89191640     -1.49361651     -2.39048626
H      -3.29658545     -2.25478040     -3.60038399
O       0.47673152      2.60208465     -3.30799402
H      -0.16263378      3.19759297     -2.87238279
H      -0.02697583      2.17696774     -4.02637178
O       1.28444545      2.04295272      3.07829784
H       0.65360494      1.39041662      3.44085553
H       0.87191570      2.34736547      2.25069222
O       2.49975063      1.83649435      5.81051107
H       2.15152863      2.05906662      4.92562982
H       3.02701705      1.02502132      5.67171833
O       0.14058088      0.61705091      7.01601875
H      -0.04809499      0.94953782      7.90530688
H       0.94918633      1.08283324      6.72748310
O      -3.91497228      0.88277780     -4.56324934
H      -4.74167812      1.05723153     -5.03570445
H      -4.01515973     -0.01552215     -4.19463864
