106
charge=0
O      -2.64940660     -2.16742606      2.46409057
O      -2.23387323      1.80435735      3.16203177
O       5.71880468     -0.48930574     -0.26418003
C      -3.10909858     -1.21859973      1.88900394
C      -1.55672210      0.81580586      3.05552345
C       6.22225359      0.47923495      0.23836611
C       3.73698920      0.61808598      1.61191836
C       4.84567700      0.29685293      2.26905830
C       2.42051712      0.16031170      1.99473523
C       1.36765733      0.12915554      1.17075179
N      -1.55256901     -1.34423215      0.00213503
C      -4.52172875     -0.79056102      2.09002037
C      -1.15729949      0.05078167      4.27073035
C       6.87340922      1.53889713     -0.58097428
C       1.45069086      0.64361654     -0.22202354
C      -0.28162923     -1.71990225      0.62863425
C      -2.25247514     -0.42380257      0.93255153
C      -1.13491505      0.35840889      1.67372291
C       0.10945460     -0.58099244      1.60673902
C       7.29357874     -0.21515282      2.38032172
C       6.20344190      0.64192915      1.74422800
H       3.83575207      1.16236055      0.68921989
H       4.77538661     -0.28239671      3.17315388
H       2.32412509     -0.28119380      2.97114025
H      -1.33415783     -0.85428183     -0.88071557
H      -4.57585123      0.26858652      2.34058682
H      -5.11480802     -0.96571608      1.19251039
H      -4.97364419     -1.35436528      2.90571174
H      -1.69378487      0.43507827      5.13741159
H      -0.09068826      0.15080478      4.46981263
H      -1.40572492     -1.00500174      4.16922835
H       7.93424849      1.61872145     -0.34544629
H       6.40693465      2.50816473     -0.40368787
H       6.77812373      1.30425724     -1.64030279
H       2.14258112      0.04447071     -0.81355784
H       0.47976700      0.60849756     -0.71357158
H       1.79009650      1.67851660     -0.25227354
H       0.50075816     -1.89105100     -0.11952235
H      -0.43068522     -2.67324860      1.14469983
H      -2.89833201      0.26420229      0.36580847
H      -0.90144202      1.26584694      1.10048469
H       0.28224588     -1.01478230      2.59921655
H       7.30504776     -0.11005226      3.46565217
H       8.28088096      0.05175141      2.00230884
H       7.12631418     -1.26654550      2.14690483
H       6.39151994      1.70341660      1.97270468
O       3.53778464     -2.50077709      0.18583210
H       4.28296591     -1.86553862      0.18555345
H       3.22826919     -2.57712048      1.10836573
O       1.62701549     -0.39175382     -4.07240477
H       2.02345711      0.19660526     -4.73163617
H       2.35180344     -0.61595063     -3.46730242
O      -0.02698998      4.94619356      0.95622944
H       0.19594763      5.87561646      0.79345160
H      -0.89542352      4.82378678      0.53120014
O       0.10740758     -2.84536948     -4.64839655
H       0.78022969     -3.43603078     -5.02134946
H       0.57878105     -2.01468214     -4.45245032
O       2.16925200      3.75434331      4.60436996
H       2.44843730      3.70229408      3.66976589
H       1.20718879      3.89352168      4.52853753
O      -2.67718708      4.70231872     -0.22378408
H      -3.19924236      4.25252987      0.46599035
H      -3.26177427      5.39339691     -0.56868626
O      -0.31836436     -3.47983975      3.46266880
H      -1.12029160     -3.03930353      3.12107465
H      -0.64160154     -4.30765981      3.84878865
O       3.70167933     -1.09891820     -2.25845729
H       4.43255091     -0.82266833     -1.67562599
H       3.39055431     -1.91796173     -1.83487731
O      -6.81628543     -3.10836532      2.55759303
H      -7.45643296     -3.83687238      2.58874657
H      -6.02700857     -3.47966943      2.11966724
O       5.32333113      3.74589230      1.28895635
H       5.58873101      4.55488128      1.75381797
H       4.35512453      3.69400403      1.40221457
O      -2.05607225      2.59842499     -2.16391163
H      -2.82331662      1.99624234     -2.12699659
H      -2.25430455      3.31253837     -1.53084416
O      -2.53253203     -3.63064307     -3.75047702
H      -1.64300838     -3.34450508     -4.02882939
H      -2.91194555     -4.06882546     -4.52743986
O      -0.59233977      4.08019245      3.76918372
H      -0.43485813      4.42259403      2.86617190
H      -1.18563426      3.31625598      3.63543811
O      -4.15693349      3.37294546      1.80620172
H      -3.50303271      2.82544579      2.28319325
H      -4.94324048      3.37452511      2.37124119
O      -3.77787019      0.05445614     -2.13832246
H      -2.84233090     -0.04367482     -2.40535651
H      -4.04767718     -0.85327031     -1.91430635
O      -0.85966370      0.02145962     -2.61880341
H      -0.04279727     -0.08951565     -3.13795772
H      -1.04319455      0.97917879     -2.59930034
O      -3.79215459     -2.86827474     -1.29924973
H      -3.41147787     -3.19364217     -2.13496134
H      -3.04197036     -2.40842958     -0.85181460
O       2.46804788     -2.81892730      2.92781330
H       1.53087086     -3.03835203      3.08976744
H       2.96302065     -3.34116186      3.57823912
O       2.43498000      3.55132481      1.65516105
H       1.61784574      4.01585950      1.39630887
H       2.20509987      2.60802745      1.67236427
O      -4.42044843     -4.11917831      1.25926585
H      -3.78688772     -3.55108143      1.74134655
H      -4.30527922     -3.83259949      0.33476064
