95
charge=0
S       4.88974907     -2.09895174      0.76790475
Br     -5.47683090     -2.57047668      0.44690165
N      -4.22068651     -1.09261858      2.55110663
N      -1.29718281     -0.26744809      4.59915989
N      -0.73842956     -1.64858038      2.70084579
O      -0.05977197     -2.21326936     -2.34144819
O      -2.91554557     -1.98780809     -1.67716091
O      -0.96663740     -3.82220950      0.88985551
O       2.57997022     -0.54496194      1.82958281
O       3.31224611      0.12872587     -0.60764664
O       2.12001428     -2.18839301     -0.27668221
C      -4.08104545     -1.94024385      1.56319371
C      -0.63248799     -2.70007323     -1.18172018
C      -1.94249575     -2.58935421     -0.89057329
C      -0.44968184     -0.97257193      3.80362647
C      -2.54741961     -0.23758672      4.24240551
C      -2.03242443     -1.65273131      2.39600232
C      -2.98761432     -0.94357915      3.12286553
N       0.89060292     -0.97849293      4.18938234
N      -2.75055959     -2.30732427      1.41371638
C       1.13513389     -2.60353887      0.61873042
C       0.04480769     -3.44748450     -0.06175100
C      -2.19539050     -3.24989760      0.43483091
P       3.09614872     -1.09791770      0.40993803
H       0.90060696     -2.41309895     -2.37705199
H      -2.48231106     -1.54623871     -2.44378057
H       3.15397897      0.22341974      2.03617844
H       2.42357690      0.50010776     -0.78277491
H      -3.24550212      0.32715230      4.83814595
H       1.58035932     -0.90783266      3.44312200
H       1.13599919     -0.37040737      4.95305099
H       0.68364484     -1.70704783      1.06640046
H       1.63310554     -3.16644874      1.42126550
H       0.46832839     -4.38418429     -0.46127576
H      -2.90649179     -4.07778633      0.31020165
O      -1.53094458     -0.45136176     -3.97335451
H      -0.88897686     -1.02611630     -3.51465944
H      -1.07094211     -0.17949426     -4.77962024
O      -0.77621340     -5.86011328     -1.70445031
H      -0.85227591     -6.82712070     -1.69416755
H      -1.66669900     -5.53359042     -1.93746843
O      -5.63794477      2.24282698     -0.35187731
H      -6.45745830      2.57213320     -0.74656714
H      -4.95678496      2.90642296     -0.57681779
O      -2.09683756      3.17502091      1.69888025
H      -2.90091390      2.72350076      2.01406440
H      -1.37409599      2.52315799      1.77669290
O       0.40286060      1.54887244      1.89446002
H       1.01658935      0.79208891      1.95427471
H       0.90293065      2.29366243      2.28036656
O       3.99835272      1.78957507      2.35989094
H       3.38783731      2.52617159      2.55539283
H       4.76693433      2.19597597      1.92393826
O      -3.46527620     -4.83209857     -2.36095205
H      -3.35072808     -3.87965900     -2.17825046
H      -4.25546945     -4.89731148     -2.91730420
O       1.41818500      0.01426642     -3.71398341
H       1.19974418      0.40034069     -2.84278356
H       1.97360975     -0.76442669     -3.51558336
O       6.23604503      2.92971230      0.93702287
H       7.08602245      3.38435109      0.84122773
H       6.09122828      2.47111336      0.08751615
O       0.67418786      1.12897803     -0.98309135
H       0.51788742      1.30574711     -0.03703248
H      -0.14181821      1.43607861     -1.41474527
O      -4.68541155      1.89914787      2.42274102
H      -5.09777005      2.03371577      1.54795038
H      -4.54526558      0.93424020      2.48277225
O       0.53678809     -3.96022811      3.47893429
H       0.62353300     -3.01790049      3.75936115
H      -0.08065177     -3.92568621      2.71753491
O       1.95131554      3.84009572      2.97379590
H       2.31150653      4.30839188      3.74202101
H       1.24477866      4.42494957      2.64172123
O       3.26895422     -4.39484891      2.65485660
H       3.65864694     -5.12141385      3.16567420
H       2.35855090     -4.30008170      2.99253369
O       2.96564974     -2.40124735     -2.91988592
H       3.70065896     -3.00217191     -3.10796251
H       2.89900773     -2.35664288     -1.94824423
O      -3.28126578      0.48341305     -0.12445865
H      -3.30331068     -0.38305217     -0.57361349
H      -4.16189265      0.89105571     -0.22411135
O      -0.27716404      5.40983531      2.04598028
H      -0.94344612      4.70735311      1.92421164
H      -0.67915573      6.20908155      1.67618771
O       5.68096278      1.50665100     -1.52157341
H       4.89215504      1.01150483     -1.22727608
H       5.67507864      1.44643873     -2.48831035
O      -1.85157618      1.83800723     -2.23502470
H      -2.33194062      1.38658215     -1.51084947
H      -1.77263912      1.15329086     -2.92357137
O      -3.33102194      3.96564304     -0.85777146
H      -2.90568094      3.82064366      0.00975249
H      -2.80616521      3.41316314     -1.46504405
