87
charge=0
Cl     -0.86549736     -1.78945957      4.91557473
Cl      0.44384369      0.02257246      2.73602550
Br      0.95287867      1.75524800     -5.11759899
N      -2.05061175      0.87597168     -2.46414000
O      -2.78195578     -1.05032229     -1.36904595
C      -0.74964254     -2.58859707     -2.60788134
C      -1.49885016     -3.16306511     -1.68105486
C      -1.19535448      1.45974759     -3.28058881
C      -1.88128034     -0.43787733     -2.23747136
C      -2.15263530     -2.99507219      2.87327172
C       0.01479854     -0.52040413     -3.71700915
C      -2.52800020     -3.11915252      1.54769150
C      -1.08815290     -1.30284953      0.96087132
C      -1.25579557     -2.01806489      3.24597376
C      -0.70799531     -1.17804175      2.27922145
C      -0.16663213      0.81468303     -3.93119821
C      -0.85397659     -1.17521804     -2.85708197
C      -2.01258335     -2.26672128      0.58523235
C      -2.45777068     -2.37077435     -0.85261745
H      -0.06940482     -3.17385443     -3.20309341
H      -1.38152864     -4.21391487     -1.47132914
H      -1.31866622      2.52057999     -3.43958365
H      -2.55925904     -3.64769991      3.62693123
H       0.82405236     -1.04618485     -4.19421304
H      -3.23171146     -3.87956169      1.25678161
H      -0.66913632     -0.63754122      0.22643498
H      -3.42751549     -2.89464111     -0.86976302
O       0.92418360      0.93675505     -0.35723571
H       0.66085840      1.48997526      0.39917000
H       1.27685421      1.58338255     -0.99784137
O       3.83712433     -2.02308786      1.31692675
H       3.50158262     -2.89086604      1.61258363
H       3.81249138     -1.45777152      2.11166344
O       3.37996705      0.50809466     -3.00139718
H       2.95011413      1.35581624     -2.78126778
H       3.09667077     -0.09923253     -2.29092682
O      -0.37079000      4.53119046     -1.97029495
H      -0.81393770      5.23469314     -2.46741236
H      -0.87608293      4.45451273     -1.14046495
O       3.68800154     -0.38441708      3.75526226
H       3.20593371      0.45320335      3.63293624
H       4.52530647     -0.13075752      4.17230187
O      -1.91417842      4.34980534      0.48862585
H      -2.73535020      4.72187842      0.12005218
H      -2.21518020      3.59163067      1.02424817
O       0.90271247     -3.94984521     -0.09398238
H       1.43985372     -4.19510681      0.68406746
H       1.33733976     -3.15784099     -0.45367164
O      -4.37370403      5.17338173     -0.81108355
H      -4.42988817      4.22198166     -1.02684903
H      -5.23049689      5.54678841     -1.06552336
O      -2.59411219      1.99770157      2.10950311
H      -2.62714366      1.67714489      3.02895503
H      -3.20113107      1.40704570      1.62621909
O       0.16221850      2.83683201      1.73433496
H      -0.03086223      3.69785964      1.32722012
H      -0.71985060      2.47891088      1.94217847
O       2.32071977     -1.46758834     -1.01566007
H       1.78448294     -0.70086162     -0.73688470
H       2.91267752     -1.63473991     -0.25967101
O       2.37822664      2.14452030      3.46210160
H       2.47123584      2.95234518      3.99075109
H       1.63211214      2.32436355      2.86223044
O      -2.61603136      0.93247246      4.78461785
H      -2.75474424      1.14860920      5.71830575
H      -2.08135875      0.11964514      4.78137656
O       1.03204385     -4.08890337     -4.78046008
H       1.71985599     -3.46752878     -4.47425593
H       1.51431818     -4.81198306     -5.21086053
O      -4.33011463      2.36046658     -1.28226954
H      -4.53128972      1.74636016     -0.55464969
H      -3.57905111      1.90956113     -1.72729545
O      -4.40224872      0.20243674      0.66656140
H      -5.10611935     -0.42743534      0.87884065
H      -3.84963397     -0.23859472     -0.00928021
O       2.92475859     -2.20083640     -3.78176802
H       3.40908605     -1.40249833     -4.04984520
H       2.73775979     -2.05761146     -2.83461437
O       2.03250898      2.98716848     -2.16410557
H       1.21042099      3.51160351     -2.14044728
H       2.74187841      3.64469848     -2.22789434
O       2.15629076     -2.76310992      4.45046678
H       1.24243969     -2.45961109      4.58737827
H       2.66738842     -1.95086329      4.27334572
O       2.57944775     -4.54679574      2.26517950
H       2.86118898     -5.41234804      2.59507465
H       2.39526361     -4.01331110      3.06167956
