96
charge=0
O      -1.36026479      2.25424494     -2.26417332
O      -0.39697727      1.14314266      1.87644785
S      -0.85950151      3.33749326      0.08006798
S      -1.06147709     -1.39906481      1.41995796
C       2.05260875      2.28422664      0.75844786
C       3.13817919      0.78527617     -0.91373472
C      -1.30891431      3.65867151     -2.52761644
C      -1.59344836      0.94527112      2.62971874
C      -1.25021750      4.47136023     -1.23181536
C      -1.94835383     -0.53898190      2.70926547
C      -1.17691108      0.64989074     -0.40557084
C       0.86966033      1.73782666     -1.43121288
C       1.13432760     -0.05696058      0.36372311
C      -0.61807617      1.93571134     -1.04946705
C      -0.33275311      0.16732041      0.79959021
C       1.79173614      1.19703922     -0.29175412
H       2.46024654      3.18152095      0.29507458
H       2.76256826      1.94020121      1.50762316
H       1.13302226      2.55741908      1.27117767
H       3.61149179      1.63359084     -1.40699244
H       3.82093166      0.41687381     -0.14989798
H       3.00330906     -0.00320443     -1.65340454
H      -0.42024332      3.82877828     -3.14826461
H      -2.18210636      3.91918826     -3.14010092
H      -2.38210791      1.52057165      2.12828265
H      -1.45612176      1.39682175      3.62042139
H      -0.49489241      5.26081053     -1.26898800
H      -2.21165394      4.93869548     -1.00468714
H      -3.02000847     -0.71500325      2.58581878
H      -1.65802338     -0.96728316      3.67172575
H      -2.20272986      0.83516478     -0.07825998
H      -1.22899948     -0.13881912     -1.15998604
H       1.26565199      2.69068340     -1.78929087
H       0.91159988      1.05744610     -2.28640472
H       1.17501510     -0.89122296     -0.34052510
H       1.72074791     -0.36366712      1.23371245
O       3.40202602     -3.55475953      2.82984820
H       3.59684836     -4.26552865      3.45717093
H       2.63416400     -3.08314016      3.20448248
O       4.11338013      1.05901931      3.11837157
H       4.93529189      1.53545881      3.30737246
H       4.38626259      0.27322284      2.60879839
O      -2.68260280     -0.88701527     -6.13397449
H      -3.27062482     -0.18140237     -6.44336251
H      -2.78160618     -1.60942841     -6.77194777
O       0.07125955     -0.01222900     -5.37529714
H      -0.82348587     -0.25402884     -5.68110172
H       0.17489158     -0.52094752     -4.55109081
O       1.80821877      2.24341702     -5.57900171
H       2.51087511      1.91051381     -6.15828391
H       1.18776882      1.49821452     -5.49044114
O      -3.35278789      0.41875199      5.59150952
H      -3.65908101     -0.12762728      6.33171492
H      -2.41801305      0.60991080      5.79174347
O       1.41262148      0.82493883      4.12650773
H       2.32619958      0.96334478      3.81788497
H       0.84820376      0.98704335      3.34447229
O      -4.06026493      1.30228987     -2.45206327
H      -3.17631620      1.71067972     -2.36145814
H      -4.37951861      1.17772405     -1.53889292
O      -4.87018234      0.97897965      3.18501050
H      -5.59836107      1.54319723      3.48866652
H      -4.35074785      0.78417851      3.98735783
O      -0.57512305      0.92256573      6.22206584
H      -0.11109433      1.25801089      7.00386589
H       0.10337239      0.88770592      5.52313374
O       1.16528699     -2.05430978      3.79545292
H       1.31303140     -1.12992537      4.06139118
H       0.47069730     -1.97556597      3.11804507
O      -4.78737089      0.64367117      0.28339879
H      -4.54411837     -0.29074422      0.13147565
H      -4.83449497      0.74985930      1.25144527
O       0.43273337     -3.36462893     -0.67461269
H      -0.04224728     -2.83279855     -0.01057443
H       0.02659172     -4.24326139     -0.64812724
O       0.02993587     -1.58103382     -2.95954833
H      -0.94559275     -1.51232779     -2.98716605
H       0.22181106     -2.19327796     -2.22665801
O      -3.74703632     -2.05233471     -0.47368880
H      -3.47912414     -1.87020500     -1.39493846
H      -2.94461502     -1.91849565      0.06642468
O       4.85700373     -1.29185166      1.61805429
H       4.44959054     -2.03576674      2.10025079
H       4.79837292     -1.56602990      0.68791048
O       1.71859341      4.65723456     -4.04577179
H       1.41993489      5.31742655     -4.69016463
H       1.75424435      3.82013720     -4.54379305
O      -2.88900291     -1.23703150     -3.20118688
H      -2.84224902     -1.20267975     -4.17551464
H      -3.30731154     -0.38638366     -2.96881454
O       2.75391612      4.68703656     -1.34643138
H       3.22443582      5.53282912     -1.27196873
H       2.40235923      4.66853106     -2.25693835
O       3.30034806     -2.98268429     -0.07860625
H       2.37256926     -3.10766620     -0.35357681
H       3.32071251     -3.26835607      0.85638324
