97
charge=0
N      -1.49663192      0.84369896      1.97826005
C       0.95817796      2.81094313      3.89949032
C       2.07444813      2.57989294      3.07429210
C      -0.26784715      2.28723312      3.60184118
C       1.97222310      1.83034339      1.93578361
C       0.87535812     -0.14256923     -0.55547920
C      -0.40987501      1.50335589      2.44016044
C       0.72105926      1.28688733      1.60438185
C       0.25391884      0.46680927      0.55466783
C      -3.92406663     -1.71824649     -0.64428628
C      -3.24828863     -2.33277595     -1.72240251
C      -3.22694668     -0.87036283      0.18121282
C      -1.11836905      0.24627524      0.83500789
C       0.14027459     -0.96026153     -1.33975761
C      -1.92108647     -2.06372331     -1.91066920
C      -1.87886141     -0.60301328     -0.03302516
N      -1.22224747     -1.20868081     -1.08883036
C      -5.38202988     -1.98022008     -0.36741450
C      -3.95586764     -3.25069417     -2.68493366
C      -6.12954707     -2.61996855     -1.54932843
C      -5.31110825     -3.76048234     -2.16711622
H       1.07770291      3.40626421      4.78975512
H       3.03201872      2.98245735      3.35761218
H      -1.12055555      2.45393814      4.23659744
H       2.82311599      1.64352553      1.30469944
H       1.91807885      0.03443129     -0.74536236
H      -3.72423347     -0.40970019      1.01440216
H       0.58574100     -1.45424216     -2.18416091
H      -1.40396768     -2.49108007     -2.74998538
H      -5.45701924     -2.63135679      0.51114833
H      -5.86271076     -1.03756615     -0.07623293
H      -3.29490891     -4.09437679     -2.92121186
H      -4.10014410     -2.71583880     -3.63123014
H      -6.31859335     -1.85628602     -2.31407553
H      -7.12127518     -2.97687510     -1.23784392
H      -5.87604654     -4.25454011     -2.97003691
H      -5.14073369     -4.53411854     -1.40797882
O       3.03035589     -0.50537796     -2.97032580
H       2.48306864     -1.21347098     -3.35674158
H       3.43194913     -0.91647072     -2.18239036
O      -0.29225173      2.94194311     -2.56929348
H       0.63672555      2.72891224     -2.78058023
H      -0.26310984      3.35202916     -1.68395579
O      -0.11480631      4.06431380      0.14432075
H      -0.79297967      4.65186493      0.50610179
H      -0.05923647      3.32034040      0.76293034
O      -3.02630340      2.63374748      5.35443588
H      -3.38748767      1.95678248      4.75124923
H      -3.79418854      2.98083630      5.83586725
O      -2.19518661      0.88280298     -3.10553148
H      -1.59337925      1.63499558     -2.97029107
H      -1.91068219      0.22703531     -2.43321547
O       4.06979307     -1.76038784     -0.58949611
H       4.85163534     -2.31793673     -0.45497962
H       3.67576732     -1.66475972      0.29688348
O       2.97686065     -1.49042313      2.04471069
H       2.08258520     -1.59390353      2.42004121
H       3.45537292     -0.93244252      2.68645355
O      -4.80954029     -2.14700364      3.09957521
H      -5.51693252     -2.59029907      3.59299326
H      -4.32015062     -2.86461296      2.65618574
O       5.06676612      4.18468786      0.97139086
H       4.26064261      4.07020250      0.43641336
H       5.67057434      4.68716271      0.40352578
O       0.23523715     -1.64514176      3.20170234
H      -0.07586551     -1.68863252      4.11746568
H      -0.00326116     -0.75494988      2.88933614
O       1.35510087     -2.67335505     -3.92822333
H       1.72236817     -3.56839027     -3.85579604
H       0.46464842     -2.79643790     -4.30578902
O      -3.40332896     -4.30717747      1.78506767
H      -3.39521671     -5.25717886      1.59477562
H      -2.51877968     -3.99200352      1.52389997
O      -0.78203474     -3.35916838      1.04790568
H      -0.37519167     -2.85486504      1.77717990
H      -0.90610884     -2.69509350      0.33746147
O      -1.29724747     -3.12716578     -4.99086062
H      -1.64934581     -3.77738358     -5.61778784
H      -1.88019665     -2.35041677     -5.07950653
O      -3.05329211     -0.85008421     -5.21439326
H      -2.77896348     -0.24382968     -4.50210577
H      -3.62132153     -0.31632409     -5.78954965
O       5.33150377      2.87720523      3.50211906
H       5.24528086      3.29826337      2.62716268
H       5.87894403      3.48790153      4.01923243
O       4.37239722      0.18408333      3.95381720
H       4.78235468     -0.06327563      4.79722187
H       4.68779395      1.08923677      3.77460932
O       2.51525448      2.28353560     -3.08880860
H       2.92340442      2.56121141     -3.92252526
H       2.69184369      1.32720522     -3.03544125
O      -4.01417665      0.61645371      3.51677002
H      -3.18418631      0.68799281      2.98896612
H      -4.31164320     -0.30370037      3.39239716
O       2.73781031      3.86915096     -0.65128998
H       2.69778237      3.34238049     -1.47128753
H       1.80692398      3.99246857     -0.38683991
