80
charge=0
O      -0.05677748     -1.47945662     -1.59270274
O      -2.55926874     -0.95374623      2.24741815
O      -3.03793023     -0.49189572     -0.33790482
O      -0.12049100     -2.87098346      0.10070651
C      -0.18774448     -1.74884879     -0.40116026
C       0.02309905      0.75005457      0.06743976
C      -0.44573865     -0.60737977      0.55597994
C      -2.08542791      1.46150441      1.13371053
C      -0.60687264      1.81407184      0.96863160
N      -0.43471535      3.19171299      0.42410824
S      -2.22133335     -0.34890945      0.91567009
H      -0.33701552      0.89280418     -0.95501802
H       1.11586930      0.83513004      0.03334860
H       0.03364380     -0.84206339      1.50612154
H      -2.48797442      1.76574736      2.10072441
H      -2.68182107      1.94119404      0.35699971
H      -0.10741193      1.76059991      1.95413065
H       0.55641640      3.49562671      0.44957110
H      -1.00999627      3.84689563      0.98698633
H      -0.76626530      3.21098229     -0.55889730
O      -2.82559405      3.95600846     -0.28389254
H      -3.33706997      3.80708621     -1.09950428
H      -3.22155443      4.73635582      0.13046325
O      -1.64989402     -1.41663166     -4.02829700
H      -1.13674122     -1.50336030     -3.19886457
H      -1.49497980     -2.23847894     -4.51565108
O       0.18911890     -2.65372051      3.15519265
H      -0.50407065     -3.17939791      3.57470592
H       0.07265444     -2.81122035      2.19478673
O       1.24544976     -3.43511133     -3.25537307
H       0.80496746     -2.73617315     -2.72561942
H       0.88207307     -4.25074945     -2.86875352
O       0.50220263      0.29893194      3.44473704
H       0.34138577     -0.65956796      3.52082264
H       1.40633063      0.35422864      3.08409748
O       1.19153684      0.64888234     -3.10794119
H       0.75422683     -0.11334290     -2.67184764
H       1.39711490      0.35199531     -4.00558598
O       3.63655659     -2.63876951     -1.73814428
H       2.97571660     -2.89548489     -2.40710618
H       3.41244204     -3.20914486     -0.97921823
O      -0.11410231     -5.30903251     -1.47874463
H      -0.91774998     -5.81330353     -1.28581951
H      -0.18502432     -4.48752542     -0.94823819
O       3.09336546      0.16437884      2.06685997
H       3.22311529     -0.76639542      2.32157129
H       3.14174564      0.15197032      1.09233731
O       2.34914689      3.98615161      0.57000209
H       2.87966768      3.63431315      1.30769221
H       2.97669942      4.48087576      0.02339935
O       3.08118754     -2.64300177      2.68826554
H       3.05830810     -3.24403007      1.92175397
H       2.16336755     -2.67357056      3.02087349
O      -4.38205245      3.36696385     -2.63553117
H      -4.94825443      3.53925049     -3.40180533
H      -4.01862922      2.47236226     -2.77968502
O       2.44861813     -4.28246093      0.36636000
H       2.29982759     -5.20701353      0.12343640
H       1.57912804     -3.84257689      0.25782094
O      -3.14746027      0.77209172     -2.90746846
H      -3.22796954      0.34496070     -2.03249373
H      -2.73387083      0.07506484     -3.44479176
O      -0.89453966      2.62070001     -2.43517340
H      -1.68622675      2.09667767     -2.65912258
H      -0.14840403      2.08343743     -2.76293062
O      -2.23604226     -3.79094865      1.86812101
H      -2.54969292     -2.89609012      2.09609427
H      -1.56009145     -3.61181168      1.18258594
O      -1.85661035      4.65496396      2.56908998
H      -1.99670443      5.42003033      3.14612542
H      -1.75330868      3.89113216      3.17052158
O       3.89848214      2.84362231      2.71176134
H       3.66525848      1.91259619      2.53383375
H       4.55412351      2.81292742      3.42357673
O      -1.49279478      2.26178436      4.20440359
H      -1.92282963      1.95662693      5.01626007
H      -0.80439760      1.59603820      4.01950513
O       3.02719542      0.03898016     -0.82749744
H       3.33585047     -0.84119455     -1.10963397
H       2.53984039      0.37032972     -1.60379574
