94
charge=0
N      -3.16049793     -0.38905140      1.83717504
O       2.03704693      0.33128687     -6.56039709
O       3.79609112      0.21530236     -5.28476954
C      -2.06255030     -0.33216746      1.44676042
N       0.37510696      0.52958640     -4.32268011
N      -0.07578250      0.46064121     -3.15487749
N       2.12195455      0.17224167     -3.03526429
N      -2.64350554      3.23395832     -1.34156949
O       1.55987804     -0.88530716      1.13593177
C       1.72090951      0.36019976     -4.26856601
C       1.77146359     -0.52733257     -0.19617067
C       0.79995982      0.00059833     -0.96647896
C       0.26082251     -0.91128080      1.61641482
C      -1.92404611      4.19164525     -0.78335577
C      -2.17019092      2.01313675     -1.20435628
C      -0.74104123      3.97698996     -0.11756754
C      -0.25939310      2.69769395     -0.00206185
C      -0.99822716      1.67823556     -0.55527954
C      -0.78005973     -0.30564326      0.94955189
N       0.98524258      0.24228332     -2.37140528
N       2.57221721      0.30042428     -5.44421914
N       0.03528623     -1.62634567      2.77093834
C       3.11545094     -0.78456957     -0.75299498
C      -0.57731102      0.23368906     -0.43953306
H      -2.31382008      5.19571569     -0.87223569
H      -2.75371251      1.22401116     -1.65326058
H      -0.20252637      4.79819500      0.32563087
H       0.67388633      2.48880363      0.49570775
H      -0.86823155     -1.83401178      3.19353700
H       0.77327039     -2.21570568      3.13751407
H       3.58984935      0.14949769     -1.06314681
H       3.05120200     -1.44700413     -1.61749548
H       3.74557320     -1.26645159     -0.00763009
H      -1.23992425     -0.35452795     -1.09472692
O      -2.25708319      0.62810317     -5.64343010
H      -1.87649193      0.41045394     -6.51099892
H      -1.45207196      0.61255318     -5.07403380
O      -0.58774653      0.08383262     -7.90191612
H       0.28829096      0.16870727     -7.47823346
H      -0.40420540     -0.20103859     -8.80894915
O       3.75361746     -3.53679307      1.06100233
H       3.25359601     -3.54138253      1.90052450
H       3.08529724     -3.68977820      0.36832046
O       1.70783352     -3.85326733     -0.96645706
H       1.56955132     -4.44228047     -1.72279432
H       0.81783359     -3.69541533     -0.60017752
O       1.44298651      5.01929157      1.65647477
H       2.09449760      5.73436871      1.69880920
H       1.95806212      4.20281142      1.51410686
O      -3.89303559      0.06440255     -3.19469788
H      -4.45200962      0.86154274     -3.15407408
H      -3.39797401      0.15886031     -4.02982127
O      -3.02808541     -1.62313973     -0.99787968
H      -3.60573090     -1.35713994     -0.26026560
H      -3.36491436     -1.13690329     -1.77267234
O       2.76769356      2.49424795      1.34211669
H       3.56087195      2.04076227      1.00423697
H       2.73906271      2.29459884      2.29892882
O      -2.52782182     -2.06355358      4.12581914
H      -2.94929320     -1.52932554      3.42680151
H      -3.25268116     -2.56899422      4.53450911
O      -0.25870754      1.10215888      4.14007569
H      -0.16576760      0.23454453      3.69358011
H      -1.06927686      1.02125874      4.66262603
O      -3.94843469      2.99040717     -5.69020689
H      -3.36644820      2.20655159     -5.71262199
H      -4.03401965      3.27611439     -6.61168181
O       2.46831990      2.04750371      4.25395775
H       2.58304967      2.65400103      4.99842654
H       1.52850110      1.78172543      4.27558383
O      -0.90469778     -3.32873982      0.16512380
H      -1.63940616     -2.82317492     -0.23107405
H      -0.66621700     -2.85294844      0.98810572
O       2.39324355     -3.24504920      3.74895694
H       2.83454512     -2.37379295      3.78250544
H       2.74431971     -3.74877114      4.49754685
O      -4.70524830     -3.55730923      5.31165693
H      -4.68962235     -4.51062348      5.48500756
H      -5.59808755     -3.26145760      5.54483864
O       5.57495199     -1.41320787      1.75200973
H       4.96329497     -1.09782357      2.44525034
H       5.15487760     -2.24012187      1.45640586
O       3.36913021     -0.54159737      3.39996181
H       3.16589118      0.33486035      3.76749691
H       2.75911927     -0.62595219      2.63611276
O       5.13152071      1.08743420      0.36204875
H       5.95073037      1.38504362     -0.05883693
H       5.36779129      0.26372073      0.82621827
O      -5.11421579      2.81124167     -3.05501959
H      -4.33497584      3.00019294     -2.48238139
H      -4.80029116      2.96620338     -3.96659833
O      -0.84767800      3.92368710      3.22006623
H      -0.61776642      3.00993055      3.48386420
H      -0.07481836      4.28326581      2.74072616
