85
charge=0
F       4.62410323     -1.43863524     -2.92207079
F       2.55823697     -1.59511126     -3.65046683
F       3.20190072      0.18773806     -2.56461140
F       4.44425231     -3.59328165     -1.43383431
F       2.51484113     -3.83712614     -2.45056283
F       2.61283438     -3.87319733     -0.26582146
F       2.74004471      1.46552310     -0.33829878
F       2.11249938      1.37135055      1.74448430
F       4.23217425      1.12558741      1.23428704
F       2.77319119     -2.66815028      1.90917883
F       4.02695646     -1.04006117      2.66513844
F       1.84026671     -0.94474297      2.86867636
N       1.56377651     -1.52437647     -1.05949077
C       1.42638872     -0.92383147      0.06535208
N       0.22752441     -0.55727925      0.60787956
N       3.72211516     -1.20844780     -0.22912765
C       3.34336987     -1.13858224     -2.66591395
C       3.13275156     -3.33487187     -1.37488327
C       2.97354307      0.88522242      0.84525526
C       2.85480262     -1.34713488      2.09442864
C       2.92051485     -1.79421427     -1.31990346
C       2.75532542     -0.64585701      0.71199975
H      -0.65240302     -0.72907149      0.12006562
H       0.12213316     -0.07296327      1.49899723
H       4.35152157     -1.90164996      0.21880401
O       5.56599666     -2.96934675      1.03708378
H       5.93900207     -3.77100312      0.64434684
H       5.74610032     -3.03023839      1.98561414
O      -0.06017809     -3.46339901      1.66741624
H       0.89157843     -3.29688660      1.75774431
H      -0.47856868     -2.96788012      2.39634794
O       0.03162300      2.65870784      0.13014565
H       0.12468352      3.35439352      0.80649122
H       0.94098082      2.36998244     -0.05046046
O       1.24781798      2.80255136      4.47732840
H       2.14412088      2.90760374      4.10856321
H       1.35738003      2.91814165      5.43182493
O      -2.34888108     -0.89459557      1.06535241
H      -2.16622903     -1.30926729      1.92744853
H      -2.95565512     -1.49670120      0.60409481
O       0.61403962      0.92643019     -3.80789368
H       1.51361229      0.68019914     -3.53671195
H       0.44295253      0.44953848     -4.63934912
O      -1.33174460     -1.80932592      3.69351961
H      -0.95398807     -0.91060353      3.63112944
H      -1.48012316     -1.96485954      4.63646548
O      -4.02884949     -2.65028090     -0.45954796
H      -3.80114291     -2.17864865     -1.28401472
H      -4.93807949     -2.95688786     -0.58286870
O      -1.56463175     -4.31089273     -0.63815724
H      -1.04858586     -4.08642632      0.15828594
H      -2.40523378     -3.82295969     -0.54405305
O      -1.04851594      0.53116108     -1.55711543
H      -0.78337191      1.29626461     -1.01389604
H      -0.52416003      0.65099748     -2.36881602
O       3.80469606      3.26773984      3.24402871
H       3.58442903      4.03428192      2.68184550
H       4.01702923      2.55574768      2.61902426
O       0.14367561      4.55073472      2.36157531
H       0.47330805      4.01953355      3.11301591
H      -0.80729787      4.66006538      2.53710605
O      -0.30404371     -4.20609573     -3.21291325
H      -0.74719003     -4.30867264     -2.35073919
H       0.63610768     -4.10904078     -2.99324353
O      -0.37248571      0.84154179      3.12051399
H       0.20104394      1.47390651      3.58465895
H      -1.10121378      1.37303211      2.75121013
O       2.80052353      5.42134289      1.55670667
H       2.76038766      6.22811103      1.02268550
H       1.87429958      5.20900496      1.78402803
O      -3.09304588     -1.23720338     -2.74691881
H      -2.68178874     -1.63349407     -3.53744120
H      -2.43301428     -0.60848482     -2.39760479
O      -2.53662851      1.98023122      1.39236046
H      -1.77308336      2.24815470      0.84437855
H      -2.63072305      1.02564760      1.22149576
O      -1.79441302     -2.63127568     -5.04873387
H      -2.35288310     -3.25197870     -5.54054398
H      -1.26096369     -3.18989398     -4.45262525
O      -2.71272231      4.49339720      2.80727892
H      -2.77221932      3.63915003      2.33737425
H      -3.62224350      4.81871985      2.87067678
O      -0.03139763     -0.59520534     -6.15438312
H      -0.01892237     -0.72499301     -7.11435701
H      -0.63198474     -1.28106781     -5.80449647
