102
charge=0
N      -4.85481797      2.78519949     -5.01772135
N      -3.56286810      0.85245966     -3.30741605
N      -2.90032761      3.35776730     -5.93478368
N      -1.48311717      0.12575135     -3.40094975
N       1.35335049     -0.55968112      4.77905682
N       2.96751207     -1.26847594      3.16964781
N       0.14726524     -1.28715274      0.22631764
O      -1.60851621      1.10806824     -4.30470804
C      -3.54251087      2.57407854     -5.02767409
C      -2.90785734      1.53894333     -4.22015428
C      -3.83435116      4.08665469     -6.47250808
C      -2.66588984     -0.00310078     -2.81327354
C       2.58178839     -0.94098250      4.40829496
C       0.45084346     -0.52538739      3.83434235
C       2.02959152     -1.22818194      2.26292570
C      -0.75997366     -1.35158546     -0.72387425
C      -0.26697520     -0.86890314      1.43144375
C      -1.58099346     -0.46912560      1.64821276
C      -2.49577815     -0.52615802      0.63087219
C       0.72174405     -0.86191639      2.51836378
C      -2.08663352     -1.00562940     -0.59497959
N      -5.04509025      3.72003822     -5.92463660
N       3.55637135     -0.96432358      5.39007161
C      -4.57613165     -2.41220076     -2.52287550
C      -4.52426951     -1.23466725     -1.52668419
C      -3.03760437     -2.50233726     -2.47517349
C      -2.99215123     -1.08546648     -1.81171508
H      -3.66033777      4.83595983     -7.23421479
H      -0.53434426     -0.19603899      4.12672432
H       2.30813278     -1.49194232      1.25655717
H      -0.41849490     -1.68614940     -1.68998414
H      -1.88113167     -0.10722266      2.61400659
H      -3.50930970     -0.19632998      0.77807201
H      -5.95675002      4.19071298     -6.07547311
H       4.53806472     -0.89258636      5.14629909
H       3.39953114     -0.57144130      6.30944423
H      -5.09270801     -3.30400219     -2.14127336
H      -4.96584206     -2.13550015     -3.51164302
H      -4.74523113     -1.53129937     -0.49443887
H      -5.11005272     -0.35575058     -1.82965385
H      -2.55143706     -2.53868066     -3.45897177
H      -2.65711929     -3.29088744     -1.81470480
O      -2.09288841      5.66850318     -8.43877467
H      -1.40989836      5.11140179     -8.02019307
H      -1.60794104      6.27282821     -9.02190030
O       5.26508269      1.80742015      6.29933257
H       5.66067196      2.62409660      5.96110737
H       5.71481686      1.08578065      5.81907796
O       5.50170538     -1.65675157      9.06792797
H       4.86243201     -0.98196645      8.77243301
H       5.36123126     -1.73382174     10.02377110
O      -7.49096738      5.17639234     -6.60766589
H      -8.37999971      4.88998321     -6.34799999
H      -7.59920809      6.06038183     -6.99039841
O      -6.34535074      0.47910365     -3.68927951
H      -5.88347502      1.27403931     -4.03930725
H      -5.99849296     -0.22465628     -4.26959787
O      -1.31536601      2.35576803      6.50022361
H      -0.59499567      1.80965299      6.86850002
H      -1.72134660      1.80295681      5.80222289
O       2.59024465     -1.40101322     -1.47675948
H       1.79610673     -1.35106163     -0.89966735
H       3.18670192     -0.70017797     -1.17196269
O       0.75131485      0.48150392      7.48069894
H       0.36416030     -0.25834340      7.97431543
H       0.94886078      0.12906580      6.58141540
O      -0.18579200      3.86607481     -7.01622807
H       0.44368979      3.27868671     -6.57343499
H      -1.06116222      3.65408150     -6.61722459
O       3.61566903      0.35342949      8.18220902
H       4.12580046      0.96809972      7.62032327
H       2.67411196      0.55244358      8.02617503
O      -2.00691433     -1.50636102     -5.69817547
H      -1.12512205     -1.87908707     -5.84375167
H      -1.84780974     -0.63091754     -5.28237688
O      -1.03234730     -4.11351911      1.02891857
H      -0.68355473     -3.20533653      1.02854122
H      -0.25507447     -4.69025653      1.05304991
O      -5.32085875      0.98463059     -7.39665376
H      -5.22161990      1.84273185     -6.92429307
H      -5.19564517      1.18729871     -8.33606264
O       0.91812637     -1.63681396     -3.95983159
H       0.19195078     -0.99381235     -3.80856229
H       1.51607633     -1.55854694     -3.19166045
O       5.81118919     -1.91977852      2.48483174
H       5.79527968     -2.52479051      1.72845471
H       4.86803060     -1.71932102      2.68872245
O      -2.64241030      0.63461071      4.41940603
H      -3.17716948      1.36168097      4.06260332
H      -3.26862589      0.04846119      4.87248113
O      -3.86482917     -3.78616370      0.40805080
H      -4.32326615     -4.52272490      0.84188282
H      -2.92063841     -3.90823321      0.62493664
O       7.39154443     -2.28737196      6.95696538
H       6.76439677     -2.09291116      7.67980740
H       8.02686456     -2.91625148      7.33095224
O      -4.94108814     -1.30255238     -5.59658365
H      -5.11271560     -0.59577952     -6.24933997
H      -3.97576601     -1.43846191     -5.65057829
O       6.49065109     -0.45559563      4.91455264
H       6.87446460     -1.08570985      5.55275885
H       6.41957720     -0.94321168      4.07342232
