72
charge=0
O      -1.55178466      1.70767495      2.90661895
O      -1.26849556     -0.43158434      4.63374378
Br     -0.77368340      1.53751850     -0.06262114
Br     -2.16928248     -3.27143155      4.09871199
Br     -1.34066802     -1.35479279     -1.15218035
Br     -2.18617640     -3.78830183      0.85829801
C      -1.49468511      0.56407677      2.51534292
C      -1.54431920     -0.58675316      3.46483051
C      -1.36942766      0.22743941      1.11107320
C      -1.85872781     -1.88535638      2.89838123
C      -1.57390084     -1.01939795      0.66834065
C      -1.87507632     -2.08715738      1.57347963
O       0.31318719     -6.00227194      0.02248930
H       0.60220258     -6.81590147      0.46331179
H      -0.63943729     -6.13023806     -0.14075213
O       2.37706247      0.72210239     -0.64697461
H       2.26077151      1.59308539     -0.22620951
H       2.06228175      0.07785073      0.01614724
O       0.38746026      3.53161898     -1.92174123
H       1.02241390      3.37153054     -2.64592007
H      -0.45752826      3.19583209     -2.27483326
O       0.00090643      2.20327879      5.02482162
H      -0.44295077      1.33466345      4.93591279
H      -0.62528202      2.81906287      4.60878774
O      -2.53535591     -6.45872477     -0.42429063
H      -2.92424893     -6.18925018     -1.27009815
H      -3.23186922     -6.94752775      0.03903458
O      -1.64726088     -1.91163666      7.09459892
H      -1.52712493     -1.41151304      6.26135105
H      -1.33369761     -1.31764147      7.79519904
O       1.80073835     -1.49613319     -2.46348763
H       1.88131238     -2.27248252     -1.87883992
H       2.00925950     -0.74138805     -1.88117352
O       2.11312212      1.68789216      3.03958036
H       1.44910754      1.97346491      3.69673091
H       2.01125395      2.28626076      2.27390375
O       1.81637618      3.43995121      0.57026668
H       1.32750025      3.53457215     -0.27139539
H       2.49513268      4.13122722      0.54752341
O       2.20509270      2.92052292     -4.09388152
H       2.19274633      1.97913272     -4.35239497
H       3.05419542      3.26564871     -4.40846778
O      -3.55755018      2.95029219      1.15927852
H      -2.92110238      2.54828765      1.78384086
H      -3.57563683      3.89059101      1.39008797
O       2.02892477     -3.76548594     -0.53913433
H       1.41615766     -4.50438268     -0.37068791
H       2.91140452     -4.16655243     -0.52152838
O      -2.03074214      2.35828882     -3.16808430
H      -2.63943572      2.94281692     -3.64586634
H      -1.61419721      1.80417492     -3.85597838
O      -0.54270278      4.30810281      2.17046312
H      -0.90030120      3.43582452      2.43611464
H       0.25111172      4.09114456      1.64446971
O      -0.76655429     -1.90241151     -3.94077115
H       0.07752678     -1.83521000     -3.44966315
H      -0.86543408     -1.03584039     -4.38060370
O      -3.74657987      1.07046122     -1.09460735
H      -3.19897944      1.49518992     -1.78521124
H      -3.75053856      1.70047648     -0.34781379
O       1.57631395     -1.07769678      3.85021717
H       1.89248597     -0.17473197      3.65541530
H       0.68701919     -0.93669662      4.22956402
O      -0.71568513      0.78934094     -5.24825734
H       0.24496958      0.63311157     -5.16341684
H      -0.88350616      0.84700005     -6.20046686
O       1.35766676     -1.36659537      0.98621771
H       1.60034439     -2.23265870      0.60941645
H       1.49305346     -1.41484480      1.94785944
O       2.10394748      0.09092010     -4.87439385
H       2.73031419     -0.38018753     -5.44254290
H       2.04016715     -0.45294660     -4.06742925
