82
charge=0
O      -0.60752310     -1.21137906      1.74287346
O       0.16912216      3.37328372      0.82088395
O       0.12074844     -2.47305720     -0.01562111
O      -0.00194912     -4.13689049      1.80306260
C      -0.05999605     -1.30694027      0.66449383
C       0.46726548      2.34698927      0.21429869
C      -0.83345967     -5.18781334      2.05606634
C      -0.41781567     -3.58782711      0.62554346
C      -1.76112885     -5.31411001      1.05703509
C      -1.49524559     -4.31021976      0.13733432
C       1.25070292      2.37019250     -0.97897090
C       1.59732612      1.21302616     -1.59516428
C       1.18965296     -0.02194302     -1.08421252
C       0.42700863     -0.06313002      0.04924471
N       0.08163781      1.10096763      0.66727857
H      -0.76214098     -5.80995049      2.94231625
H      -2.57741332     -6.01822325      1.01286836
H      -2.03758049     -4.09020774     -0.76669796
H       1.57250203      3.32178951     -1.36306871
H       2.19440273      1.24526008     -2.49224950
H       1.46440112     -0.93748308     -1.57789179
H      -0.49268357      1.04001527      1.50413665
O      -1.11881915      0.01783756     -3.23726258
H      -0.79683317     -0.84602007     -3.55920699
H      -1.73149237     -0.19712260     -2.50980910
O       0.92773037     -0.35032440      4.00106755
H       0.43774095     -0.60328984      3.19030203
H       1.68811785      0.16391914      3.67423795
O       2.92439342      1.44000654      2.90112380
H       2.41118887      2.21940714      3.19200551
H       3.43675225      1.77184974      2.14247828
O       1.87698948     -3.23563687     -2.12979482
H       1.30859993     -3.06189024     -1.35408925
H       2.66040790     -3.68392888     -1.78104803
O       3.03877502      5.15804748     -1.86601564
H       3.88179801      4.66376635     -1.86839855
H       2.83426506      5.29041100     -0.92236455
O      -4.50219874     -5.33634543     -2.39614833
H      -4.82694207     -5.55633107     -3.28167826
H      -3.86483267     -4.60920000     -2.52902016
O      -0.45793621      1.90346397      5.22715698
H      -0.03546889      1.09876733      4.86983842
H      -0.77951515      1.65749128      6.10719631
O       2.83100545      2.99106310     -3.88843325
H       2.73782966      3.83913261     -3.41400437
H       1.92793093      2.76834797     -4.17789471
O       1.11312825      3.70658074      3.55161947
H       0.54307364      3.20047930      4.16043635
H       0.70781642      3.59267628      2.66667255
O      -0.13177549     -2.60914210     -4.10216802
H       0.19443786     -2.85728311     -4.97877808
H       0.58482408     -2.84553335     -3.48381808
O       4.18465667      2.72869973      0.61219005
H       4.57886578      2.79978025     -0.27722509
H       3.69039842      3.56305097      0.74153851
O      -3.86932183     -2.51790109      0.97501292
H      -3.68591015     -2.46994191      1.93020282
H      -4.19582880     -3.42710704      0.83257535
O      -4.75910474     -5.30295930      0.47167868
H      -5.62018585     -5.68499928      0.69851931
H      -4.70469185     -5.34827973     -0.50184874
O       2.45959024      5.14413973      0.97461700
H       1.64145399      4.60783255      0.94186598
H       2.44632263      5.55885734      1.84761410
O      -2.94893874     -0.74321554     -1.06114537
H      -3.30945310      0.12383457     -0.82134828
H      -3.23220588     -1.32547229     -0.33195189
O       0.10975376      2.29532173     -4.48667202
H      -0.31489003      1.52677124     -4.06254229
H      -0.58411007      2.70114170     -5.02726316
O      -2.60599588     -3.20229281     -2.65899504
H      -2.76326877     -2.37351657     -2.16917467
H      -1.80160810     -3.03426401     -3.18340964
O      -0.52180465     -2.88196706      4.43056788
H       0.00061540     -2.06145295      4.43717113
H      -0.31676148     -3.28711758      3.56388119
O      -3.34667381     -2.50613895      3.82333185
H      -3.73677874     -2.14223853      4.63257554
H      -2.40068046     -2.62184291      4.02764909
O       5.17986076      3.02989904     -2.13865826
H       4.49683794      2.88558541     -2.82071141
H       6.02703117      2.89152986     -2.58523702
