96
charge=0
N       2.29705010     -6.89113393     -2.94117997
C       1.89965590     -6.39760447     -1.96697591
O       1.43155103     -6.11439664      0.46328683
O      -1.29204696      1.86065241     -0.24674008
C       0.94549347     -5.08741885      1.20693618
C       1.45484210     -5.67903641     -0.84227958
C       0.99487408     -4.38021177     -0.89691502
C       0.66673710     -3.98984892      0.40453402
C      -0.31923420     -2.45658995      2.10954636
C      -0.95598158     -1.28634409      2.43698611
C      -0.10509410     -1.69391104     -0.14885282
C       0.09356645     -2.69555168      0.80099114
C      -1.20819146     -0.31668745      1.46520415
C      -0.74059975     -0.50860050      0.16122320
N      -2.01293134      0.77409361      1.75800389
C      -2.54569068      3.16261284      1.39775546
C       0.32967752      0.80115433     -1.69067798
C      -2.09838432      0.18067140     -1.83322079
C      -2.31416097      1.80150697      0.75834439
C      -0.96203741      0.58151362     -0.88530376
H       0.81018600     -5.14008233      2.27913163
H       0.93542745     -3.77592098     -1.78373618
H      -0.15661627     -3.20834280      2.86144506
H      -1.30582363     -1.11701788      3.44027206
H       0.22500802     -1.86363635     -1.15626203
H      -2.11517454      1.08231223      2.73188052
H      -1.65486373      3.48488223      1.93339540
H      -3.36901902      3.13120018      2.11139419
H      -2.77281899      3.91698848      0.64522346
H       0.61024555     -0.08702677     -2.25249322
H       0.20155454      1.61480469     -2.39975951
H       1.15253625      1.06034137     -1.02735794
H      -2.30519457      0.98180348     -2.54056304
H      -3.01193415     -0.02903759     -1.28173905
H      -1.83830697     -0.71374638     -2.39633083
H      -3.23087611      1.49264691      0.23563688
O       4.27254319     -5.29982072      0.67304009
H       3.36384160     -5.65287703      0.60644214
H       4.37187439     -5.08300814      1.61829140
O      -3.04953609     -3.11635303     -0.64875982
H      -3.06741016     -4.06246921     -0.43916161
H      -2.52731002     -3.04975035     -1.46965609
O       4.05598335     -3.14822166     -1.26529982
H       4.18592231     -3.89882232     -0.65579552
H       3.90256849     -3.55095897     -2.13972906
O       1.29539036     -2.44411802     -3.62119072
H       1.64831220     -1.62862327     -4.00797736
H       2.01236457     -3.09575642     -3.73048600
O      -6.37007018      0.39280467      2.30097546
H      -5.68623359     -0.12080949      1.83304991
H      -7.20962772     -0.01966651      2.04982628
O       3.46394678     -4.37574805     -3.91452183
H       3.10332383     -5.23837667     -3.64193260
H       4.16101078     -4.58755588     -4.55149163
O       4.29247918     -4.50683403      3.47028450
H       4.62775399     -4.52579385      4.37926267
H       3.82075634     -3.65616332      3.38281785
O       0.98690867      3.10717690      0.95719066
H       0.78082758      3.16585747      1.90715220
H       0.20589535      2.66215009      0.57166973
O      -4.30016995     -1.06456801      0.95026052
H      -3.92437270     -1.78320016      0.41127007
H      -3.52478978     -0.51883579      1.20841153
O       1.70655383      4.76630404     -1.30601705
H       1.57941707      4.20093803     -0.52125132
H       0.95036470      5.38704197     -1.27606277
O       0.73946194      3.42432688     -3.73105929
H       1.24716153      3.86466256     -3.02384267
H      -0.18563373      3.55941522     -3.44967940
O       1.96019739      0.55329355      2.15789214
H       2.57493017      0.09299033      1.55642715
H       1.72475863      1.36711377      1.67500184
O      -5.04752671      2.29068397      4.01768927
H      -5.50017270      1.64676046      3.44236918
H      -5.74364792      2.89703556      4.31127884
O      -2.32606467      1.66410063      4.66855008
H      -2.32936074      1.41883260      5.60635736
H      -3.25126644      1.90253532      4.47042324
O       0.27869311      2.57940444      3.70769323
H      -0.57672097      2.27516597      4.06469586
H       0.78429263      1.77097398      3.50007045
O      -1.49155123     -2.96251952     -3.09113634
H      -0.55022600     -2.78961726     -3.27652888
H      -1.83534934     -3.36307244     -3.90382874
O      -1.79200754      3.89516164     -2.28996041
H      -1.49396576      4.74658426     -1.91159242
H      -1.65522456      3.23022475     -1.58488380
O       3.81521769     -0.90698411      0.46529945
H       4.62632725     -0.40896556      0.28295473
H       3.85738151     -1.66641119     -0.14169558
O       2.92106655     -1.99506896      3.07632509
H       2.36825619     -1.24495042      3.35084927
H       3.26392479     -1.72042841      2.20475355
O      -0.74379202      6.46930305     -1.20706668
H      -0.90625315      6.95385047     -0.38391918
H      -0.74810089      7.13885926     -1.90777651
