78
charge=0
Cl      1.90877587      0.12863952      1.59730721
Cl      2.25034494      2.11949437     -4.46712496
Cl      0.79680146      3.42690943     -2.01965214
Cl      2.90146360     -0.93970834     -4.43846292
Cl     -0.32486015      1.62054093      0.24652129
Cl      2.04091969     -2.66834758     -1.94587628
Cl      0.62579788     -1.31718483      3.84428215
Cl     -1.39941765     -2.34257666      2.09841610
Cl      1.20104102     -3.53689125      2.11854673
N       0.37673947     -1.27195565     -0.00469023
C       0.76644277     -1.11739959      1.20934037
C       1.72797240      1.13372083     -3.14018718
C       1.03026924      1.70690701     -2.08575179
C       1.99968895     -0.22779030     -3.13517409
C       0.56467140      0.91599900     -1.05089851
C       1.56428607     -1.01480893     -2.08263915
C       0.82163724     -0.45796855     -1.03704316
C       0.31945597     -2.02602283      2.26649566
O      -3.69288123     -1.65418682      0.07670700
H      -4.03300995     -2.20845234      0.80148975
H      -2.98823909     -2.19855532     -0.32466978
O      -2.41748132      2.13143229     -2.20505311
H      -2.37640638      3.10632348     -2.15631901
H      -2.01119884      1.91660155     -3.06537609
O      -2.41153188     -5.26786170      1.05274578
H      -1.72667064     -5.95403519      1.00595169
H      -2.14180645     -4.62632259      0.36617485
O       0.09164912     -5.80881385     -0.20306437
H       1.03502996     -5.68991494     -0.41708806
H      -0.33649914     -4.98732956     -0.51675073
O      -4.52431683      2.54193570      2.58513866
H      -5.47748175      2.36994200      2.61335581
H      -4.19508421      2.05033506      1.80873289
O      -1.71525270      2.63329346      2.40696091
H      -2.13661461      2.08162745      1.72136985
H      -2.46832489      2.92266486      2.94908773
O      -2.20735379      5.03585015     -2.06355463
H      -1.35141958      5.50291142     -2.08620651
H      -2.85849439      5.67657150     -2.38506297
O       0.60127951      1.98512979      4.04582184
H      -0.11819030      2.16440787      3.41472887
H       0.28631156      2.35536963      4.88576144
O       0.41181630      6.29983221     -1.61562598
H       1.25280158      6.75673579     -1.46762100
H       0.21828608      5.83168200     -0.78106170
O      -4.41337219     -3.50586366      2.16616188
H      -4.93116568     -3.96578439      2.84327321
H      -3.76069921     -4.16000784      1.85019881
O       3.99288102     -3.04664770      0.54037434
H       3.91795304     -2.78189272      1.47617548
H       4.16957043     -2.20587398      0.07977759
O      -0.71830797      4.73115355      0.59938127
H      -1.00588589      4.05253117      1.23591498
H      -1.36378980      4.67852084     -0.13293742
O       2.86534090     -5.29538261     -0.86130990
H       3.24389997     -4.53623945     -0.37934860
H       3.63009148     -5.79219823     -1.18914720
O       3.76754674     -2.06018964      3.27253641
H       4.08496560     -2.52509202      4.06207266
H       3.54983805     -1.16000649      3.57898088
O      -1.45488599     -3.34801360     -1.00851356
H      -1.48058279     -3.26558661     -1.97338695
H      -0.82540450     -2.65785527     -0.69864403
O      -3.26359403      1.16134836      0.38623746
H      -3.41984723      0.20619668      0.28261755
H      -3.01138651      1.46991803     -0.50328540
O       4.81502856      1.89502714     -2.33251313
H       5.53747125      2.42167693     -2.70391045
H       4.07540134      1.98063191     -2.95701093
O       4.34075461     -0.37773979     -0.58293300
H       3.66045248     -0.06411388      0.04041489
H       4.54257228      0.38277097     -1.15792643
O       3.15453639      0.60322068      4.25710633
H       2.28597183      1.03677200      4.16229752
H       3.77243839      1.32185011      4.46216124
O      -1.08386585      1.64197859     -4.77562239
H      -1.26379328      1.56533298     -5.72423087
H      -0.12181705      1.75483964     -4.69551085
