89
charge=0
O      -1.91048108     -0.09442995      3.34629395
O      -0.74596831     -2.57166238      2.08858819
O       2.10888994     -0.89234541      3.40905216
O       1.37240936      0.95242371      1.90250238
O       1.11988821     -1.03637070     -0.39779430
O       3.47320895     -0.32648680      1.39683178
C      -1.75174201      0.37133560      2.23834270
C      -0.41988771     -1.62926931      1.42702146
C       0.28463024      0.00565186     -0.71056466
C      -1.85792939      1.80214356      2.02323248
C      -1.88048846      2.34144304      0.77490589
C      -3.02899422      0.89634565     -0.87497782
C      -3.44176966     -0.38547775     -0.47355031
C      -1.79332547      1.42280091     -0.37225562
C      -0.85834664      0.31675719     -0.05265173
C      -2.72472226     -1.13315863      0.45125284
N      -3.15041366     -2.35459374      0.80508283
C      -1.43079172     -0.55295001      1.03967614
C       1.00818072     -1.50516798      0.95262110
S       2.01190271     -0.39123206      2.01233479
H       4.09945091     -0.00875614      2.07608436
H       0.59205511      0.60703459     -1.55223381
H      -1.96151988      2.42691591      2.89265908
H      -2.03174900      3.39996977      0.62799213
H      -3.71474423      1.52853573     -1.41912822
H      -4.36544910     -0.78527449     -0.85619894
H      -3.93730764     -2.82018834      0.37744315
H      -2.64494214     -2.98088642      1.43217476
H       1.46604124     -2.50067361      0.96571966
O       5.12372641      0.85159533      3.37499936
H       5.79544592      1.55283693      3.29703878
H       5.29157078      0.42521153      4.22643150
O       0.36568720      1.07276058      4.75170832
H      -0.45931335      0.70239382      4.38070008
H       1.03786684      0.44174180      4.43166272
O      -1.78267314      1.52127813     -3.81260029
H      -1.30576005      2.25988535     -3.38541234
H      -1.06705946      0.92166997     -4.09042303
O      -2.04342037     -3.06806481     -2.00898282
H      -2.54089174     -2.44392902     -2.56733916
H      -1.11856017     -2.96320776     -2.30445704
O      -5.78077752      0.11056586     -2.32264298
H      -6.73587955      0.07187914     -2.47412830
H      -5.47950681      0.93584719     -2.75023959
O       0.71691794      3.72723819      0.24194490
H       0.66647716      3.73889716      1.21324392
H       1.53310417      3.22047558      0.06810217
O       6.65403631      3.31279587      2.99098355
H       5.75428323      3.60985513      2.75835483
H       7.23819409      4.05729874      2.78767858
O       3.23281793      2.19206902     -0.17411117
H       3.52404823      2.73421716      0.58251091
H       3.28145407      1.28762134      0.18799069
O      -1.44684130     -5.37176489     -0.29447641
H      -1.74304758     -5.18800636      0.61613874
H      -1.74906094     -4.61294688     -0.83198626
O      -0.27846133      3.66559021     -2.45528545
H      -0.24077861      4.56997883     -2.79959495
H       0.00130394      3.73668068     -1.52287242
O       0.82051880     -2.71502161     -2.73835180
H       1.01492765     -3.62862757     -2.46175169
H       0.99935061     -2.17344237     -1.94126416
O       0.82512681      3.35592218      3.20810405
H       0.58221791      3.16862978      4.12871010
H       0.95372408      2.46274936      2.82936689
O       3.71575729      3.41384637      2.47560884
H       3.99262006      2.54752252      2.83676154
H       2.79332596      3.51854243      2.76838831
O       1.99969395      1.75301507     -2.79783542
H       2.51405707      1.88951491     -1.98064680
H       1.30689319      2.44316309     -2.77366120
O       0.43907471     -0.23427015     -4.28415983
H       0.59670745     -1.10557913     -3.87702729
H       1.09502306      0.36469425     -3.87699803
O       1.12730694     -5.37398803     -1.64569777
H       0.27836576     -5.44182225     -1.16901395
H       1.44630240     -6.28445505     -1.72931669
O      -2.20848322     -4.69109280      2.52278868
H      -1.24888920     -4.57619018      2.65011450
H      -2.58701245     -4.07795152      3.18066052
O      -3.37331136     -1.04237322     -3.56566972
H      -4.22928730     -0.72619391     -3.22071622
H      -2.84973995     -0.23480891     -3.72795477
O      -3.11365674     -2.58477519      4.27412597
H      -3.22519466     -2.45668511      5.22835648
H      -2.68734877     -1.76416231      3.95487177
O      -4.54369096      2.38657295     -3.57837637
H      -3.61071548      2.13449557     -3.71644532
H      -4.72133278      3.07478498     -4.23528753
