96
charge=-3
O       4.98125829     -1.52748869     -0.21370645
O       2.97842809      2.35306579     -0.10022440
O       2.68081158     -1.91824391      0.71277213
O       3.09506859     -2.20555173     -1.72075392
O       1.59306959      0.58223409      1.12906955
N      -0.32149237      1.32406018     -0.95857361
N      -0.07956972      1.48401323     -3.20324072
N      -5.02797935      0.45511657      3.53146789
O       3.32510261      0.11049555     -1.04989591
C      -0.96380566      1.51176400     -2.15287304
C       1.09224681      1.30319380     -2.61535699
C      -5.16843808      1.46879421      2.67747777
C      -4.22403699     -0.52668286      3.12012844
C      -4.23310202      2.36462964     -3.75355666
C      -5.14035008      1.95918400     -2.78594076
C      -2.87828537      2.21445467     -3.52961867
C      -4.50047558      1.58102029      1.47644798
C      -3.51350650     -0.51941223      1.93747321
C      -4.68529675      1.41661361     -1.58974381
C      -2.39379393      1.67016006     -2.32822681
C      -3.63846186      0.56371757      1.07026252
C      -3.32353744      1.27044381     -1.32697293
N      -2.88191858      0.65308691     -0.12909634
N       0.94708147      1.20667029     -1.27159242
P       3.47390519     -1.37563263     -0.47875370
P       2.30786692      0.96553020     -0.16924519
H       2.03112897      1.20463697     -3.13987458
H      -5.82919888      2.26688970      2.98079201
H      -4.11264938     -1.36702631      3.78785359
H      -4.58557064      2.79600415     -4.68034167
H      -6.20192111      2.06485911     -2.96165722
H      -2.16674293      2.52270287     -4.27902929
H      -4.60989916      2.46076178      0.86356592
H      -2.85780014     -1.33371508      1.67914054
H      -5.39555060      1.06426429     -0.85992365
H      -2.09113742      0.00475746     -0.22709044
O       5.27967665     -0.66702954     -2.82999896
H       4.48681540     -1.16313572     -2.54886888
H       5.79150029     -0.63319969     -2.00183554
O       5.23071471      2.87634540      1.60852881
H       5.15255867      1.95994447      1.93022359
H       4.49260987      2.89158266      0.97188581
O       4.17008310      2.05188513     -2.73001959
H       3.76121700      2.17545066     -1.85295556
H       4.49157332      1.12940219     -2.68611961
O       3.98464809     -4.22400768      0.40879077
H       3.02713559     -4.08247600      0.49229761
H       4.29639712     -3.30807524      0.24120799
O      -0.55706470      0.48697476      4.28200419
H      -0.70539176      1.03187328      3.48758893
H       0.06152515     -0.19883710      3.96983607
O      -6.92024572      0.08839663      5.83734746
H      -6.34772100      0.45672464      6.53469177
H      -6.36109516      0.16302365      5.03312780
O      -1.76543561      0.38058482      6.92364183
H      -1.31378799      0.38460681      6.05821139
H      -2.66516985      0.70720853      6.72333035
O       1.30416790     -1.47067142      3.05914879
H       1.39099603     -0.76584896      2.38851839
H       2.00357659     -2.08382294      2.77633313
O       0.06859836     -1.53079011     -0.38768638
H       0.93009996     -1.74998667      0.01831894
H       0.22984536     -0.60613419     -0.68191887
O      -3.79076838     -0.73504151     -4.95821889
H      -3.90952706      0.07610514     -4.43792441
H      -2.83471672     -0.90005018     -4.91212845
O      -0.89776217     -1.03294955     -4.71150902
H      -0.41208989     -1.69450011     -4.18564224
H      -0.65032745     -0.19259031     -4.28091689
O      -4.45284252      1.52893022      6.21745395
H      -4.56195979      1.17606365      5.31185242
H      -4.11502722      2.42931994      6.08431441
O      -1.01241502     -2.88474518      1.92510505
H      -0.31200175     -2.47949396      2.46990502
H      -0.81995789     -2.50084835      1.05042781
O       0.87103729      4.19991633      0.68510866
H       1.60457906      3.63281149      0.38027315
H       0.22271475      3.55354363      1.02161162
O       0.59124064     -2.78102827     -2.91802119
H       0.16232189     -2.45155756     -2.10726800
H       1.52579217     -2.65926072     -2.67377441
O      -0.81393453      1.98020657      1.70726912
H      -1.50215732      1.60428726      1.11304602
H       0.00461677      1.51639821      1.42699761
O       4.42334889      0.15182340      2.07978066
H       3.47929911      0.30617435      1.88183576
H       4.70402559     -0.44346185      1.35990687
O       0.61569163      2.50747198     -5.95340101
H       1.59060535      2.48338928     -5.88608238
H       0.33175104      2.18950354     -5.06919860
O       6.65573433     -3.88978631     -0.66625120
H       6.19760397     -3.03305792     -0.58398393
H       5.95877837     -4.52342977     -0.41788452
O       3.55114552      2.26398298     -5.51332803
H       3.80085439      1.36531987     -5.78641745
H       3.74172665      2.27726675     -4.55794511
