93
charge=0
O      -1.39398675      0.35186625      3.50651028
O       0.67356569      0.78529777      2.40905928
O       0.39002934      1.20625776      0.09858405
O       1.18855598     -0.16857516     -1.65333203
O      -3.15546956      0.91834991     -1.94045728
O      -1.87281144     -2.73805332     -2.49960276
N      -2.10948727     -0.57911218     -3.43666795
C      -0.57166473      1.28329086      2.84569164
C       0.58497414      0.23966588      1.11979967
C       1.32050698      1.03855776     -0.93749867
C      -3.07770521      0.52758015     -3.29952275
C      -2.66733781     -1.95058508     -3.36915188
C       0.20140649     -0.10674226     -2.66997598
C      -1.88422808      0.64642068     -1.36432758
C      -1.28963533     -1.85370817     -1.55404448
C      -1.21754547     -0.45627407     -2.21722479
H      -2.18523691      0.80553290      3.89341756
H      -1.11172430      1.66769627      1.97680249
H      -0.37237130      2.13045391      3.51386089
H      -0.23230871     -0.48702013      1.08827278
H       1.51860135     -0.30692081      0.93629743
H       2.32840056      1.07348105     -0.50768869
H       1.23195448      1.88607963     -1.62560022
H      -4.07195462      0.22878431     -3.64590256
H      -2.74172464      1.38814790     -3.88731581
H      -3.68908037     -1.93591359     -2.97801224
H      -2.66924554     -2.41046545     -4.36295018
H       0.21908575      0.87913558     -3.14051769
H       0.51326030     -0.81514882     -3.44204970
H      -2.00931325      0.34070062     -0.32176010
H      -1.30084764      1.57138302     -1.37342367
H      -0.29813809     -2.22523500     -1.27566461
H      -1.92898684     -1.86010867     -0.66465860
O       0.83036638     -5.02310169     -0.71915111
H       0.42801768     -4.60890139      0.07036275
H       1.43444757     -4.34456918     -1.07826342
O      -3.18946358      2.53524646      1.81452692
H      -3.68033467      1.82467145      1.35953923
H      -3.38162365      2.39902911      2.76155452
O       3.33952478      0.08280887     -4.43495596
H       2.65183185     -0.30974901     -5.00783429
H       2.95069698      0.91957641     -4.12101019
O       2.20075437     -2.32655296      1.19061238
H       2.39358303     -2.53987387      0.25772715
H       1.36000980     -2.78445390      1.38648685
O       1.89694200      2.55207895     -3.65926337
H       1.22564635      2.31280853     -4.32810947
H       2.02251616      3.50860217     -3.74422473
O       0.29468919      1.03964661      5.95468274
H      -0.17217566      0.63227482      5.19898234
H       1.04497584      1.50220354      5.54217513
O      -2.06217973      2.35973628      6.98960985
H      -1.88291311      2.71389997      7.87231966
H      -1.23335836      1.92273832      6.71799536
O      -0.01540447      1.52041481     -5.57604580
H       0.33627206      0.63053842     -5.77247733
H      -0.58199530      1.74390356     -6.32888720
O       0.59780607     -3.12041871     -4.07836953
H       1.25827273     -3.16986215     -3.36393677
H      -0.25808576     -3.07274163     -3.61232384
O       1.12407380     -1.12374293     -6.06329998
H       0.92409734     -1.84379379     -5.43703671
H       1.35696080     -1.57222949     -6.88892149
O      -3.64427442      1.87378030      4.63909399
H      -3.14685713      2.09153574      5.44894519
H      -4.56561940      1.80577442      4.92881854
O       1.08941005      4.79683100      2.88638928
H       0.48004859      4.50367410      2.18217589
H       1.14082489      5.76014682      2.79734491
O       2.43583781     -2.77997267     -1.74745357
H       2.04920231     -1.87838114     -1.71039987
H       3.31194532     -2.63655092     -2.14191707
O       4.82752505     -1.97879903     -3.06418043
H       5.77304767     -1.88346016     -3.24822294
H       4.39041119     -1.25418257     -3.55238686
O       2.21017990      2.46155613      4.22694758
H       1.94083345      3.32377228      3.85843163
H       1.86367500      1.82296817      3.57155144
O      -0.42257399     -3.61334815      1.54650070
H      -0.66809118     -4.20718961      2.27074177
H      -1.11013577     -2.92164868      1.54075574
O      -4.56635223      0.25528197      0.46919923
H      -5.50996860      0.11498170      0.30646265
H      -4.17868138      0.47176782     -0.40132292
O      -1.63739843     -5.63440450     -2.14447820
H      -1.82571607     -4.68761551     -2.30688151
H      -0.78607762     -5.60882523     -1.66928607
O      -2.38067069     -1.46096797      1.50715890
H      -2.04029659     -0.90304887      2.23221466
H      -3.16750965     -0.97955731      1.19040462
O      -0.74061793      3.80962927      0.82441751
H      -1.62468519      3.51704132      1.11573442
H      -0.30336786      2.98699971      0.52551732
