108
charge=0
O      -0.74093491      0.59456005      4.62750697
O       0.76367002     -3.13110587     -1.01847309
S       1.61139589     -4.69897140     -4.44924741
O       0.09513209     -1.89584197      0.74432187
C      -0.28566445      0.56233500      3.47141460
C       0.79956871     -2.06116818     -0.43055868
C       3.03495695     -3.85514578     -4.59543365
C      -0.35208935     -0.62385225      2.70046888
C       0.94218481      1.60907591      1.65968620
C       0.23063327     -0.71855872      1.45998457
C       0.94242863      0.39229291      0.93687402
C       1.61893249      0.23830073     -0.26946949
C       0.33529631      1.72136441      2.87307691
C       1.61632676     -0.95952421     -0.95881109
C       2.42965207     -1.14039492     -2.11481326
N       3.97773041     -4.16156726     -5.50697181
N       3.29332521     -2.79120546     -3.78404969
N       2.44703472     -2.30467326     -2.76309346
C       3.31668084     -0.05144727     -2.58657235
C      -2.65296533      7.74728327      3.61487870
C       0.20976802      3.03854593      3.56267483
C      -3.11959407      6.76647208      4.68007137
C      -1.24878164      3.48751450      3.64297674
C      -2.90021805      5.30443367      4.28394416
C      -1.42831431      4.90692890      4.17298165
H      -0.85699633     -1.48112904      3.10162318
H       1.41206985      2.47124081      1.22207207
H       2.18589552      1.07028653     -0.64370543
H       4.81970734     -3.59258051     -5.54597117
H       3.88387442     -4.84076228     -6.26115600
H       4.19018764     -2.31736689     -3.96538344
H       1.80480696     -3.01900325     -2.42315995
H       3.82529758     -0.32287409     -3.50964499
H       4.08075672      0.17881081     -1.84379700
H       2.74570948      0.85384881     -2.79376507
H      -1.57347786      7.69884846      3.46856310
H      -2.89919299      8.77973910      3.87075943
H      -3.11308451      7.52554650      2.65030179
H       0.63943177      2.96569078      4.56765090
H       0.80294356      3.79189364      3.03257094
H      -2.60665224      6.96733392      5.62910797
H      -4.18543114      6.93258354      4.88847251
H      -1.81161598      2.78216919      4.26520723
H      -1.70285340      3.40944917      2.64775263
H      -3.39746112      5.11585992      3.32542561
H      -3.39553420      4.63771115      5.00005151
H      -0.94009367      5.00708760      5.14921158
H      -0.90160445      5.60398477      3.51210155
O      -3.24940695      0.85326212      5.89006591
H      -2.37809501      0.77300207      5.45953984
H      -3.65830602     -0.01872153      5.78201622
O      -4.36647412      3.60348102      0.38171151
H      -4.92382115      3.69447864     -0.40642723
H      -4.99290688      3.47335914      1.11693621
O       1.65156793     -3.68116166      3.65210290
H       1.29055851     -4.51862294      3.98584978
H       1.34096615     -3.00489333      4.28328703
O       2.72457284     -4.18066071      0.93539299
H       2.38577841     -4.00663343      1.83306602
H       2.00802326     -3.89031515      0.33732836
O       0.65594851     -1.74413872      5.62750413
H       0.97035768     -1.50676589      6.51351936
H       0.17695434     -0.95526903      5.30804936
O       3.75797455     -6.07718613     -7.85183862
H       3.03112644     -6.68343353     -7.64295232
H       4.53818091     -6.63834279     -7.97639975
O      -2.44763334      5.73948096      1.12868182
H      -1.59876363      5.36279192      0.82897622
H      -3.11241524      5.07031113      0.87221832
O      -0.02330639      4.33299308      0.19627479
H      -0.59146075      3.54337754      0.10541525
H       0.45918725      4.39904205     -0.64226363
O      -1.84638663      2.14593223     -0.02615228
H      -2.01974504      1.20126832     -0.18742171
H      -2.72242833      2.55740310      0.10626404
O       5.27120355      0.92940107     -5.35759494
H       5.25991009      1.84477053     -5.67456474
H       4.77665120      0.41686937     -6.02458429
O       3.49674406     -3.32914626     -8.89504064
H       2.97317800     -3.40503164     -9.70707673
H       3.58292610     -4.23939770     -8.55307380
O      -6.23664674      4.46736005      5.10652915
H      -5.58498702      4.07103254      5.71413939
H      -6.78667621      5.04056530      5.66147015
O       4.69929641     -3.54985404     -1.08740486
H       4.11649968     -3.81171060     -0.35433050
H       4.07669703     -3.23281957     -1.78604559
O       1.67281444     -0.75690157     -5.39367854
H       2.37749061     -0.81813808     -6.06692995
H       1.99718386     -1.35156111     -4.67626545
O       4.04141315     -1.12530487     -7.11481870
H       3.84242854     -1.82433802     -7.76267732
H       4.68550072     -1.53938975     -6.50598965
O      -6.25716317      3.25639189      2.49349185
H      -6.94066544      2.57370085      2.57401781
H      -6.23583306      3.69339102      3.36414892
O       5.99803212     -1.94355814     -4.97772730
H       6.45409281     -2.21435797     -4.15990241
H       5.98382957     -0.96762635     -4.95383868
O       7.11159686     -2.76722266     -2.44866809
H       7.86145282     -3.05695044     -1.90831336
H       6.31921774     -3.04997477     -1.95485557
O      -4.28780654      3.31971518      6.87752290
H      -3.98446198      3.35679493      7.79707693
H      -3.93518138      2.47930193      6.53172113
O      -2.29929010     -0.70536781     -0.50106804
H      -2.62212536     -1.33958030     -1.15804077
H      -1.52571584     -1.13993820     -0.09529591
