94
charge=0
N      -1.05062188     -1.33740912      2.87896262
S       1.58913264     -1.44614033      3.29918190
C      -0.67572189     -0.49984008     -1.11272059
C       0.50691799     -0.48825698     -1.71492732
C       0.10607750     -1.43043735      2.31735266
N       0.22462682     -1.51594228      0.91855239
C      -1.18405341     -1.28008592      4.24853224
C      -0.95679520     -1.39301771      0.03700458
C      -0.26724763      0.16097271     -4.01183171
C       0.59440811      1.91835798     -2.43110057
C       2.16915401      0.28924228     -3.48495127
C       1.56256479     -1.45802841     -1.25591239
C       1.53041719     -1.77250609      0.25264991
C       0.75389887      0.45941264     -2.89820890
H       1.98833262     -2.60293338      2.74023580
H      -1.45203497      0.16028341     -1.45569037
H      -0.68876119     -0.38948292      4.63900292
H      -0.73511032     -2.16324337      4.70635791
H      -2.23964284     -1.24401351      4.52386183
H      -1.23547406     -2.38682173     -0.32592128
H      -1.79916172     -1.02042735      0.62666767
H      -0.19999139     -0.87978980     -4.32751714
H      -0.09009468      0.79116989     -4.88299226
H      -1.28555446      0.34437492     -3.67367831
H      -0.40968082      2.10726092     -2.05424394
H       1.29995444      2.14592867     -1.63274929
H       0.77743634      2.61268002     -3.25062616
H       2.34323438     -0.73921388     -3.80002277
H       2.30484048      0.92901781     -4.35664586
H       2.93335871      0.56409711     -2.75926777
H       2.55759007     -1.09155557     -1.52702922
H       1.43280483     -2.38665685     -1.82497389
H       2.28306484     -1.17138864      0.77233538
H       1.80126556     -2.81618218      0.43532021
O       3.05129880     -4.36370803     -2.04918568
H       2.60755949     -4.80141898     -1.29747984
H       3.05301709     -5.02177142     -2.76039276
O       3.63428193     -4.03080776      2.08150450
H       4.36046962     -4.29259308      2.66771789
H       4.06004715     -3.56960055      1.33274250
O      -0.62589992     -4.45747638      1.34844509
H      -1.55869342     -4.36150410      1.59948135
H      -0.31998257     -3.52731863      1.26404805
O      -4.73521106     -0.13149688      0.13518478
H      -4.59553273     -1.05235610     -0.15251495
H      -4.39853100      0.41409431     -0.60220611
O      -3.26172234     -3.27496342      1.91566468
H      -2.60188344     -2.60161100      2.18937025
H      -3.53743609     -3.05299966      1.00482033
O       3.60126347      1.69475178      0.62880770
H       2.62777652      1.62801109      0.62132158
H       3.83839035      1.46227525      1.54551258
O       4.89315371     -0.02073507     -1.28613937
H       4.46613306      0.57750092     -0.64447389
H       5.64213941      0.48086395     -1.64234243
O      -1.25313591      5.32036981      0.96261820
H      -0.34148845      5.03910865      1.16761121
H      -1.54139295      5.82384662      1.73783988
O      -3.07133464      0.89737415      2.24770101
H      -2.44135754      0.18069637      2.46398434
H      -3.72088744      0.50236032      1.63642606
O      -2.14711308      5.80648300     -1.78025952
H      -1.86350771      5.62373123     -0.86519518
H      -1.73481087      6.65434035     -2.00667011
O      -3.68280363      3.95717902     -3.40368366
H      -3.16457539      4.58484123     -2.86431688
H      -4.23481062      4.50856723     -3.97822946
O      -1.90804920      2.55852691      0.21919100
H      -1.79202707      3.48896600      0.48373499
H      -2.33995825      2.11228424      0.97114764
O       1.83435118     -5.52843574      0.30597109
H       0.95210665     -5.28239316      0.63645484
H       2.44530392     -5.12982567      0.95603447
O      -4.04753124     -2.79204161     -0.88066381
H      -4.44969666     -3.62224454     -1.17562711
H      -3.83187927     -2.30849278     -1.70070887
O      -3.53335351     -1.15443062     -3.18765231
H      -3.66241169     -1.03931209     -4.14073707
H      -3.48651248     -0.25049837     -2.82221775
O       0.72238575      1.49372170      0.83332146
H       0.58517170      0.52890407      0.92372046
H      -0.15832466      1.82788005      0.58153233
O       4.72935692     -2.74637612     -0.25435874
H       4.81713664     -1.84585376     -0.61704224
H       4.23361105     -3.24968596     -0.92894678
O       4.02009742      0.86460239      3.36904984
H       4.50586044      0.76936519      4.20114364
H       3.32015441      0.18614397      3.39345038
O      -3.39205164      1.47496737     -2.00909900
H      -3.55964850      2.26382524     -2.55330565
H      -2.87106722      1.83472079     -1.26512432
O       1.36772624      4.27066563      1.55551616
H       2.32268352      4.33885923      1.69587907
H       1.20858131      3.32987668      1.35115981
