97
charge=0
S      -1.69864817      0.20167575     -2.51502980
Br      0.30385745      2.87758736     -0.44620124
N       1.11957739      0.19504968     -1.87313017
S      -2.71358602     -2.36512864     -1.59837747
S       1.73054547     -0.08011087      0.67111331
C      -1.46528895     -1.10647830     -1.54629037
C       0.75807529     -0.38161624     -0.77394210
C       4.17495342      3.04473596     -1.85605946
C       4.34223506      1.84816426     -2.52109724
C       2.97563149      3.32229693     -1.22463835
C       3.32113464      0.92697386     -2.54647794
C       1.94353595      2.41372150     -1.25454421
C       2.10542113      1.18598954     -1.90803203
N      -0.37383230     -1.23680358     -0.70916833
C      -2.16874261     -3.17182626     -3.06982275
C       0.62772846     -3.79673768      2.05910387
C      -0.35349882     -1.54331154      2.52456927
C       1.83510749     -1.73652535      1.27975678
C      -0.31809329     -2.45263517      0.14863504
C       0.44514194     -2.37091844      1.50448958
H       4.97041402      3.77104573     -1.83600710
H       5.27270133      1.63537680     -3.02189827
H       2.83633768      4.26079868     -0.71358912
H       3.44618116     -0.01704848     -3.04726140
H      -2.83400779     -3.99617987     -3.31432239
H      -1.16651965     -3.55947643     -2.91736963
H      -2.15413383     -2.47140121     -3.90122442
H       1.19614302     -4.41580041      1.36608206
H      -0.33623236     -4.27573869      2.22451750
H       1.16135238     -3.77599160      3.00883746
H       0.14267563     -1.54713484      3.49445667
H      -1.35699121     -1.94582408      2.65693132
H      -0.44118309     -0.50678706      2.20650024
H       2.40167824     -2.32477938      0.55522719
H       2.41115707     -1.73495810      2.20589823
H       0.11290729     -3.25166052     -0.45961699
H      -1.34583732     -2.74822616      0.36320106
O       3.92514562      6.66707167      0.27105561
H       2.96464413      6.53094994      0.16346801
H       4.04542287      6.88624080      1.21509761
O      -5.71165416     -0.98293700     -1.36874007
H      -4.78912448     -1.29204192     -1.40411245
H      -5.83443507     -0.78895248     -0.42658313
O      -4.22058436     -1.14077776      0.95867910
H      -3.49806021     -0.48711962      1.00256689
H      -3.86005273     -1.95450236      1.36139468
O       0.66524328     -1.46735198     -4.32051351
H       0.33903674     -0.82452854     -4.96860479
H       0.78756743     -0.95432143     -3.49425842
O       0.50815163     -4.37684467     -4.24115621
H      -0.22848344     -4.52175096     -4.86547340
H       0.64813456     -3.41142809     -4.26480515
O       1.77670630      5.63376879      2.87572899
H       2.57007399      6.18161201      3.02614843
H       1.48062862      5.86070595      1.97225574
O       1.56849195      2.74985630      2.79146758
H       1.22906178      2.65829531      1.88386654
H       1.64048311      3.71183612      2.92742769
O      -1.80455137     -4.63028115     -6.00673718
H      -1.85245005     -4.83028930     -6.95428434
H      -2.72326521     -4.43875599     -5.73903855
O      -3.08736251     -3.64936329      2.11076832
H      -2.73130707     -4.24709455      1.42717866
H      -3.51337397     -4.22817652      2.76080477
O       1.02675637      6.17783660      0.06983981
H       0.37400409      6.74603218     -0.36292064
H       0.77597419      5.26896105     -0.16680788
O      -1.95668723      0.73343767      0.97187903
H      -1.52790852      1.57642212      0.76343279
H      -1.47831879      0.09924773      0.39472047
O       0.34659154     -5.82344738     -1.73521556
H       1.01607517     -6.52169018     -1.78886253
H       0.41812537     -5.34243781     -2.58061487
O      -1.96201067     -5.25423309     -0.08754411
H      -2.27033302     -4.48478870     -0.60256254
H      -1.17870140     -5.55426185     -0.58263462
O       4.20375414      7.27991180      3.16070438
H       4.92581676      6.84212395      3.63558638
H       4.16298559      8.17795572      3.52123617
O       6.03257503      5.53987599     -1.35711956
H       5.32518788      5.92238944     -0.80266381
H       6.51313021      6.30067097     -1.72076223
O      -6.10028375     -1.91797460     -4.09040339
H      -5.98542026     -1.61529892     -3.17188038
H      -6.72374880     -1.28785227     -4.48208985
O       4.99025493      1.03365494      0.81612765
H       4.59968630      1.41135676      0.01324751
H       5.94980696      1.07549604      0.68531309
O       2.20469231     -1.67637949      4.67894707
H       2.53915481     -1.58402207      5.58514451
H       2.59257031     -0.92787770      4.18743883
O       3.34051167      0.50375527      3.18562391
H       3.92956814      0.62588566      2.41774315
H       2.72230060      1.25571946      3.12288856
O      -4.54569393     -4.08542501     -5.21126726
H      -5.18434099     -4.81547944     -5.19735253
H      -5.03392558     -3.32583944     -4.84478318
