98
charge=0
O       0.22297264      0.70914921     -2.13141341
Cl      4.31207624      0.60042259      2.80017602
N       1.28470852     -0.33821833      2.27985694
N       4.28615329      0.07104131      0.19953197
N       2.45292713     -0.90988777     -1.00774637
O      -4.85549231      1.20912235     -0.15840863
C       0.18128401     -0.68976097      1.68172414
C       3.68825497     -0.43537782     -0.90948933
C       3.60449614      0.04597392      1.32371715
C       1.73519519     -0.80696768      0.11023454
C       2.26686494     -0.36820967      1.32554153
C      -3.54158345      1.06330214     -0.67298596
C      -2.98074593      2.08939039     -1.45859482
C      -2.78822367     -0.09863712     -0.39867208
C      -1.71757221      1.93079974     -1.94924801
C      -1.51616356     -0.21847270     -0.91685022
N       4.39779887     -0.34337535     -2.11825391
N       0.39247281     -1.03247044      0.35484706
N      -0.97275815      0.80387574     -1.68312092
C      -5.84074687      0.61818306     -0.98153662
C      -3.73689844      3.33641443     -1.72212427
C      -3.39219756     -1.17256994      0.42885909
C      -0.62424561     -1.36773938     -0.64282742
H      -0.78616290     -0.66952971      2.16191445
H      -1.25669147      2.69181122     -2.54669948
H       3.88025048      0.11550123     -2.86370209
H       5.33332402      0.04538083     -2.09752811
H      -6.81916377      0.76618689     -0.52352850
H      -5.64587599     -0.44951484     -1.08458671
H      -5.82434254      1.08710340     -1.96580319
H      -4.75798159      3.26368442     -1.34787145
H      -3.77571142      3.54693997     -2.79181612
H      -3.25846010      4.18608033     -1.23419072
H      -4.30973736     -0.82990248      0.90712281
H      -2.71502596     -1.49435588      1.21917527
H      -3.63751294     -2.04179778     -0.18188558
H      -1.17912023     -2.24258157     -0.29849854
H      -0.11394052     -1.64587011     -1.56891476
O       2.50477728      1.42719640     -3.67741554
H       1.76877423      1.09760594     -3.12487486
H       2.36171405      1.03385757     -4.55203595
O       1.73492294     -2.89665124     -3.07581988
H       1.92300757     -2.21645321     -2.39115168
H       2.62436526     -3.10979841     -3.40409102
O      -2.13772247      4.59637721     -4.00683750
H      -2.13746222      5.17267697     -4.78702537
H      -1.20072856      4.36814193     -3.85904181
O      -1.02436105     -3.09406439      3.51742084
H      -0.62305961     -2.42548912      4.09310068
H      -1.98739066     -2.96034870      3.60340525
O       0.59411754      3.83833478     -3.49252243
H       1.18732117      3.08260459     -3.65620514
H       1.00717351      4.29427222     -2.73654728
O      -3.92099090     -2.50994400      3.58213133
H      -4.29586631     -3.13158498      2.93167002
H      -4.66220428     -1.91468505      3.80346720
O      -2.37107360     -0.03024672      3.67810099
H      -3.02133023      0.62365188      3.36212453
H      -2.86851317     -0.86969095      3.70102741
O       2.00932272      4.93734944     -1.21668164
H       2.29027797      5.74376032     -0.76117578
H       2.83423942      4.49171573     -1.49017807
O       6.22511880      2.26177015     -0.07453950
H       6.43303498      2.64305859      0.78967703
H       5.58373629      1.54040271      0.10810695
O       7.15551090      0.79311983     -2.35791883
H       6.95497966      1.34878316     -1.58085357
H       8.00825955      1.11012965     -2.69113158
O       4.24536892      3.40372915     -2.10489303
H       4.89556883      2.98068668     -1.51377919
H       3.79377375      2.69035190     -2.59707440
O      -5.89560628     -0.44066633      4.04610499
H      -5.47812235      0.31852014      3.59408923
H      -6.52057678     -0.05762193      4.67908144
O      -0.47915518     -4.34629618     -1.93849037
H       0.26807143     -3.90393250     -2.37956656
H      -0.24951021     -4.35787466     -0.98754852
O      -2.79403744     -4.25638959     -0.35845738
H      -2.50439313     -4.43379101     -1.26297730
H      -1.97559896     -4.31613687      0.16065010
O      -0.18978188     -4.29643033      1.03895306
H      -0.45294240     -3.88712783      1.88429042
H       0.61158493     -4.79686086      1.25300698
O       0.93270274      2.52812362      0.19277314
H       0.60494328      1.92252474     -0.50694961
H       1.26945273      3.31992924     -0.27143599
O      -4.49907992      1.73847285      2.64859458
H      -4.36633273      2.69303918      2.74068529
H      -4.60375685      1.58406159      1.69006389
O       4.59465448     -2.98983016     -3.54209682
H       4.56131687     -2.13216207     -3.06102356
H       5.52807225     -3.24723454     -3.55295932
O       0.11871563     -0.65901203      5.01610848
H       0.63795793     -0.52306164      4.19580192
H      -0.76580697     -0.33280108      4.76090311
O      -4.96361867     -4.24005982      1.51940426
H      -5.49850861     -5.03258155      1.36434975
H      -4.24756252     -4.27761568      0.85733942
