73
charge=0
N      -1.64344133     -0.39580278     -0.77587555
N       5.01030547      0.74412699     -1.05651347
F       0.66988565     -1.38226875     -2.89267413
F       0.16959410      0.71431209     -3.33012640
F       2.95287711     -0.48256176     -3.35315897
F       2.62975268      1.67926431     -3.15480154
F       1.95260451     -0.65944091     -0.64961049
F       1.34272196      1.43424977     -0.92402575
C      -0.73807286     -0.28880744     -1.49147978
C       4.05824123      0.66062142     -1.71139894
C       0.40019321     -0.17994921     -2.35275408
C       2.85634666      0.53876567     -2.48152934
C       1.64040041      0.28700652     -1.54386386
O       5.48550152     -1.78795971     -3.24270895
H       4.86684148     -2.16479727     -2.58785510
H       5.56917258     -2.46357945     -3.93414920
O      -3.50992039     -0.81253008      3.92534784
H      -3.44194786     -0.23505934      3.14139664
H      -4.16234444     -0.38609513      4.49992558
O      -3.26151038      0.81986850      1.55403491
H      -2.75959667      0.41546965      0.81910568
H      -4.06262068      1.17735641      1.13205116
O       0.72527236      3.89173709     -2.68620045
H       1.37218463      3.19951484     -2.90095366
H       0.73608428      4.50255339     -3.43635803
O      -4.11663806      1.31329073     -2.31444056
H      -3.91227680      0.46063481     -2.74238145
H      -3.24983808      1.72032753     -2.12067118
O      -3.48395122     -1.27604713     -3.52514188
H      -4.01764720     -1.68289879     -4.22429035
H      -2.88821498     -1.98335305     -3.21483353
O      -1.60390128     -3.31453510     -2.57695314
H      -1.59684996     -3.44219598     -1.61101712
H      -0.77843897     -2.83654043     -2.76709090
O      -5.55170111      1.79617770      0.11187423
H      -6.40400491      2.20906692     -0.08998409
H      -5.12613813      1.64999540     -0.75426604
O       2.61572650     -0.90516327      2.35088213
H       2.61934312      0.07048180      2.29095312
H       3.45658086     -1.17933700      1.94101163
O       0.69947915      4.47145955      0.20618684
H       0.23459342      3.69171069      0.56850811
H       0.71283412      4.33167151     -0.75948732
O       3.68315221     -2.84000645     -1.24541291
H       4.08982929     -2.50077448     -0.42482150
H       2.86560701     -3.29014251     -0.96680923
O       2.39085675      1.94332379      1.97864065
H       2.71058379      2.86205610      1.98149820
H       1.44103860      2.01099589      1.75667248
O      -0.17763801     -0.80815883      1.71362835
H       0.76775888     -0.91138836      1.92206454
H      -0.62706815     -1.47233173      2.26779931
O      -0.60962689      2.01820479      1.25649972
H      -1.41524653      2.20530226      1.76019469
H      -0.47341374      1.06016363      1.38926345
O      -1.67188942     -2.89267877      3.22115340
H      -2.32975642     -2.23130177      3.50631847
H      -1.51925619     -3.44939081      3.99770950
O       5.13783350     -1.53888716      0.99816490
H       6.02230011     -1.73844872      1.33628871
H       5.24752131     -0.77522988      0.39852403
O       1.24649539     -4.18266960     -0.43394271
H       0.38164540     -3.85323513     -0.12713356
H       1.16846435     -5.14873883     -0.42141266
O      -1.39233407     -3.21632521      0.36512764
H      -1.52410007     -3.23164799      1.32849253
H      -1.48069064     -2.26931090      0.13810093
O       3.06266481      4.78567300      1.81083885
H       3.24896704      5.71646336      2.00434436
H       2.26526753      4.78955305      1.24564339
O      -1.56525825      2.48885971     -1.53361081
H      -0.84057265      2.98360538     -1.95856701
H      -1.27183985      2.34840497     -0.61202784
