101
charge=0
N      -1.26962134     -2.51492360     -4.02654536
N      -1.65271645     -0.08838163     -1.84969657
O      -0.75761569     -0.30989219     -6.45661464
O      -1.37614289      2.18268580     -4.36232157
O       0.95152997     -3.57467934      1.52382389
S       3.40799706     -0.59059521      2.28748276
C      -1.34151912     -1.23843582     -4.09637671
C       2.95333276     -2.17381884      1.74466704
C       0.95280130     -1.23026907      2.44609728
C       1.61897985     -2.37138473      1.88695506
C      -1.12766691     -0.22333966     -5.12540397
C      -1.39444267      0.80224135     -4.22263052
C       1.77737054     -0.20566515      2.75045062
C       0.13387704     -1.59922024     -1.31342016
C       0.72341271     -2.61218338     -0.70104609
C      -1.63705198     -0.16268305     -3.14371841
N       1.06944959      0.83999093      4.85429099
C      -1.25667490     -1.14665662     -1.03947028
C       0.10031846     -3.40374453      0.39045411
C       2.28835457      0.47636807      5.61506326
C       0.33726698      1.97817180      5.42265405
C       1.34406236      1.04562491      3.41092613
H      -1.00888382     -3.04623241     -4.82203846
H      -0.40959422      0.55218426     -6.78341138
H      -1.46144475      2.61655752     -3.48199752
H       3.63273014     -2.90195102      1.34881437
H      -0.10718625     -1.20172812      2.63288073
H       0.67941791     -1.05081150     -2.06407242
H       1.73204563     -2.87746478     -0.96852414
H      -1.34523141     -0.82696535      0.00577220
H      -1.96294533     -1.97253845     -1.17994627
H      -0.82200562     -2.93131776      0.74313794
H      -0.17512948     -4.40283713      0.03177154
H       3.02060720      1.27877958      5.55859191
H       2.72775979     -0.43143962      5.20768136
H       2.03810174      0.30403255      6.66015153
H       0.06775217      1.76666599      6.45601264
H       0.95657904      2.87241532      5.40109859
H      -0.57445880      2.16222065      4.85764917
H       2.10379283      1.82325527      3.29614581
H       0.43497877      1.41203601      2.92836532
O      -1.80264125      1.58378229      2.29684421
H      -2.02391129      0.69081346      2.62213800
H      -2.30187309      1.67778241      1.46331588
O      -0.48639580     -1.56730478      5.88215146
H       0.00805191     -0.81829642      5.47634011
H      -0.58880923     -2.23618038      5.17969597
O      -1.90106511     -4.35285452     -1.78218281
H      -1.68194447     -3.74581008     -2.52479255
H      -2.78800198     -4.69245276     -1.98168081
O       0.97285937      1.88743871     -7.82841607
H       1.39127039      1.11290216     -8.24855998
H       1.27911526      2.64144409     -8.35528693
O       0.87586481     -2.43711122     -7.42443086
H       0.31221521     -1.71278191     -7.08737519
H       0.46866405     -3.23087978     -7.03358134
O       2.34915095      1.29805513     -0.40447802
H       2.59236573      0.66838367      0.29481269
H       2.41421083      0.81486472     -1.24831938
O      -0.17684116      3.98623607      2.34951360
H      -0.77926610      3.21951264      2.34936486
H       0.22143566      3.98426892      1.45914417
O      -2.45013418     -1.11406460      3.24232416
H      -1.98277803     -1.95780378      3.38908650
H      -3.12751889     -1.08034673      3.93512199
O      -0.54332467     -4.62724147     -6.14409849
H      -0.10929133     -5.38409739     -5.72191469
H      -1.30495153     -4.99197452     -6.62006814
O       1.04416256      3.83483346     -0.29297421
H       1.68182302      4.47170894     -0.64846174
H       1.49596002      2.97119178     -0.33562479
O      -0.89927954     -3.55910071      3.74619642
H      -1.05985962     -4.48300661      3.98558969
H      -0.24924493     -3.59525770      3.01954687
O       2.22313742     -0.43093602     -9.00905656
H       1.81010350     -1.15589114     -8.50441567
H       2.78041650     -0.86738323     -9.67009584
O       1.48104894      1.83214929     -4.94067623
H       1.43153006      1.86174970     -5.91353116
H       0.56403832      2.02193743     -4.66628272
O      -1.29669260     -1.03941271     10.62767072
H      -1.64792755     -1.91397648     10.85485108
H      -1.42151958     -0.48940393     11.41630516
O      -1.43386548      3.54770030     -1.81848828
H      -0.61865013      3.68448772     -1.30095620
H      -2.04264310      3.08079977     -1.21688499
O       1.14359023      4.94850354      4.69973212
H       1.05587316      5.91467203      4.69121497
H       0.69252399      4.64299581      3.88953664
O       2.47926661     -0.03226394     -2.97549059
H       2.14882371      0.60460661     -3.62925592
H       3.02716165     -0.64761869     -3.48572113
O       0.10745859      0.03242020      8.27999118
H      -0.14185713     -0.55974294      7.54463111
H      -0.35568520     -0.32125615      9.06317940
O      -3.21677253      1.83026590     -0.24477241
H      -2.73216232      1.16655765     -0.78787078
H      -4.12991244      1.81509323     -0.56596582
O      -1.61090921      3.14471705     -7.08667748
H      -1.63718306      2.87336454     -6.14852071
H      -0.77411939      2.76132138     -7.41703718
