84
charge=0
O       4.64634351     -1.02580134      0.56225594
O       4.39545405      1.15224142     -0.86181101
F      -0.13658324      2.66256211      0.67182346
F       1.12350476      2.51422221      2.47401540
Cl      5.54158696      1.41530547      1.80827142
C      -0.96574829      0.33331083     -0.47104476
C       0.14766385      0.73040562     -1.22210416
C       1.67619779      0.07324854      3.42642372
C      -1.05056246      0.12507874      0.90939183
C       1.43761099      1.00327663     -0.75865283
C       2.80400950      0.40095452      2.65943488
C       0.35297777     -0.02100488      2.97749129
C      -0.12584170      0.63359536      1.83484660
C       1.74209451      1.25139358      0.59268274
C       2.84709926      0.75754817      1.30898523
C       0.63728694      1.84236984      1.40952993
S       4.39541876      0.44527693      0.45423261
H      -1.82869773      0.02330226     -1.04012548
H       0.03498030      0.67861733     -2.29502686
H       1.87334370     -0.32596018      4.41103458
H      -1.83320561     -0.51788954      1.28705036
H       2.26520584      0.91168076     -1.44671839
H       3.76163854      0.19072116      3.11285956
H      -0.30678591     -0.72115065      3.46615340
O      -2.11721867      0.38599276      5.08252418
H      -1.56967799      1.19207156      5.08704357
H      -1.52034518     -0.32932668      5.37434261
O      -1.86352317      3.90999943     -1.16451839
H      -1.27153661      3.50292709     -0.51228011
H      -2.13454574      4.75162864     -0.77111379
O       2.54637361      3.78942787     -4.02187768
H       1.57752904      3.78528429     -3.90545698
H       2.76476740      4.68568133     -4.31907671
O      -3.90201419     -0.90441249     -1.64862533
H      -4.84301353     -0.96656234     -1.42897228
H      -3.77607016      0.00994530     -1.96332637
O       2.16940086     -1.15391996     -3.69532104
H       2.75801570     -0.38269778     -3.77907877
H       2.53988240     -1.66986315     -2.95443676
O      -3.33163826      1.76152437     -2.50507444
H      -2.91635928      1.76009527     -3.38768956
H      -2.91027111      2.50696285     -2.03852564
O      -2.01820817     -3.38758913      3.50109278
H      -2.66792883     -4.09189137      3.63753577
H      -2.53509583     -2.59832947      3.24941201
O      -0.57490146     -0.70612357     -4.18211563
H      -0.97150236     -1.39676223     -3.61880928
H       0.38213178     -0.86772622     -4.11653744
O      -0.31440971      3.73917775     -3.66169674
H      -0.82518384      3.08333712     -4.17292797
H      -0.81634634      3.85360913     -2.83273476
O       3.79028733      1.19688693     -3.66063562
H       4.11193403      1.22506249     -2.73880738
H       3.42265419      2.08483644     -3.82629590
O       4.92538615     -2.23415460      3.16681767
H       4.86144118     -1.86168165      2.26637306
H       5.80860149     -2.62782944      3.21949795
O       2.39229257     -2.60202988      4.54226179
H       1.86226116     -2.94806369      3.79697674
H       3.28713199     -2.51249846      4.16672566
O      -1.86390393      1.66949709     -5.03272210
H      -2.01501024      1.62728429     -5.98756850
H      -1.40875471      0.83578984     -4.80800061
O      -1.72236305     -2.67114871     -2.33092840
H      -2.09378847     -3.52376443     -2.60081284
H      -2.49047813     -2.12045975     -2.08469446
O      -0.37787483      2.69763442      4.90875084
H       0.11852608      2.67116657      4.07472725
H      -0.17782631      3.56021937      5.30063263
O      -0.31608085     -1.89860780      5.47022147
H       0.60457748     -2.17568054      5.31507355
H      -0.85583084     -2.49321987      4.91207989
O       3.19785104     -2.59306723     -1.37076534
H       3.71063315     -2.06726353     -0.72800124
H       3.74218737     -3.37506552     -1.54294434
O      -3.38175028     -0.90614493      2.86594792
H      -4.26743648     -0.53741676      2.73591816
H      -3.01246803     -0.41542013      3.62432367
O       0.67460307     -3.34767736      2.38578709
H      -0.24354623     -3.42631653      2.70913776
H       0.59988775     -3.08416118      1.45075577
O       0.44419505     -2.48671794     -0.34210235
H      -0.21657393     -2.57543287     -1.05418041
H       1.32257426     -2.53929371     -0.76360153
