76
charge=0
I       2.78091139      0.24220205     -3.44517535
C       0.24886377      0.14121574      0.77072176
C       1.82760130      0.35459092      0.62460534
C       0.31370321     -1.06330429     -0.28279919
C      -0.00002134      1.17357817     -0.42785320
C       1.89056520     -0.84692683     -0.42931751
C       1.57625165      1.38113573     -0.57493918
C       0.06975720     -0.03101354     -1.47710711
C       1.65026076      0.18147316     -1.63290310
H      -0.30257818      0.12516718      1.73454984
H       2.52733369      0.51590255      1.47344391
H      -0.19672051     -2.04377355     -0.16864053
H      -0.74913377      1.99356236     -0.42055454
H       2.64909542     -1.65878805     -0.44046161
H       2.07927815      2.36374523     -0.70323995
H      -0.62954288     -0.19087796     -2.32378010
O       5.12248325      0.67332378     -0.63049589
H       5.98423942      0.73627488     -1.06836970
H       4.48236758      0.55277415     -1.35077394
O      -2.42323197      0.01414507     -4.01247490
H      -2.38747988     -0.92225369     -3.74531721
H      -3.06125791      0.40526414     -3.38978597
O      -0.34434317      1.77259489      3.60155917
H      -1.22492048      1.85368293      3.18625456
H       0.22869482      2.37711027      3.09436947
O      -0.91157033     -2.67625768      3.00198853
H       0.01295163     -2.81279885      2.72071821
H      -1.44070038     -3.30422549      2.47821197
O      -0.89614995     -4.48560197     -1.28254625
H      -0.07683343     -4.39379746     -0.76262056
H      -0.88852635     -5.40604273     -1.58676702
O       0.14861260      4.81234612     -0.34105700
H      -0.41773323      4.51663913     -1.07804441
H       0.02000009      5.77248528     -0.29078829
O       2.10850175     -2.45707263      2.43086699
H       1.80971261     -1.86392321      3.14442761
H       2.95868180     -2.07073481      2.14816468
O       4.60580341     -1.22808949      1.57355322
H       4.77159506     -0.60143851      0.84375497
H       5.35648144     -1.12539607      2.17840691
O       1.31051532      3.46865420      1.96774239
H       0.92478996      3.93043529      1.19893354
H       2.22826279      3.26145428      1.70695465
O       1.46464378     -4.31943180      0.33074117
H       1.67442820     -3.68088627      1.03586844
H       2.20914996     -4.93980165      0.33314287
O      -2.96679318      1.93109575      2.25392999
H      -3.03568562      2.22177415      1.32499631
H      -3.62534805      2.45602258      2.73221786
O      -3.18136759      2.57172832     -0.54730640
H      -2.67164792      3.06126697     -1.21956924
H      -3.24988419      1.65613453     -0.88213817
O      -3.28068999     -0.28538701     -1.29834645
H      -3.05787690     -1.10983913     -1.77111662
H      -3.15858525     -0.51181965     -0.35656563
O       0.82139544     -0.72373415      4.41619922
H       0.47106704      0.16438004      4.22128737
H       0.08862859     -1.32739047      4.18694336
O      -2.70133330     -3.91561556      1.00177041
H      -2.91158610     -2.96195928      0.98709592
H      -2.15651590     -4.09005509      0.20970365
O       4.05406295      2.79763030      1.13651330
H       4.82137678      3.16844867      1.59925872
H       4.40826373      2.09628458      0.55650440
O      -2.50390651     -2.67706639     -2.85348110
H      -3.06771627     -3.27699776     -3.36487639
H      -1.92350917     -3.26153157     -2.33248835
O      -0.36852471      2.02084909     -4.24781227
H      -1.04382459      1.31680805     -4.25371268
H       0.47869637      1.56035619     -4.13386168
O      -2.79835267     -0.90970041      1.50550469
H      -2.18237651     -1.34915974      2.12109061
H      -2.87383782      0.00496844      1.83495104
O      -1.56235885      3.99834807     -2.56418396
H      -1.99565113      4.61769831     -3.17030186
H      -1.12691841      3.34683916     -3.14357084
