95
charge=0
N      -1.63879245      0.11621661     -3.89451359
S       0.50802984      1.65062474      0.45201982
C      -1.03536574      0.25407715     -2.90751126
N       1.29744867     -4.66647315      0.56108635
O       0.49081792     -4.43822718     -1.50369876
C      -0.17704378      1.63583955     -1.06743082
C       1.00997215     -5.28082738     -0.55449072
C      -0.37142968      0.38743240     -1.69059491
C       0.10202297     -0.78292255     -1.05963823
C       0.01601961     -2.03484730     -1.57890396
C       0.48097916     -3.21017297     -0.93528395
N       0.96809239     -3.38693586      0.35551658
N      -0.45629565      2.85390480     -1.66916163
C       1.20841599     -6.73015961     -0.76858468
C       1.06277899     -2.42348548      1.45995002
C      -1.04890491      3.05804208     -3.01824887
C      -0.50979883      4.13290243     -0.90736348
C      -1.21456151      4.57162026     -3.21255803
C      -1.22305951      5.16678860     -1.79276764
H       0.58991643     -0.65728055     -0.11354059
H      -0.41971927     -2.15826268     -2.55373853
H       2.15558505     -7.05616750     -0.34004150
H       0.40452139     -7.29999097     -0.30390917
H       1.21672957     -6.95674643     -1.83420987
H       1.86776516     -1.71203554      1.29592537
H       0.12840170     -1.88480563      1.59020723
H       1.27077032     -2.95810667      2.38303984
H      -2.01516713      2.54841695     -3.04523243
H      -0.40762051      2.59951660     -3.77784351
H       0.51207640      4.44136695     -0.66649416
H      -1.03242256      3.96462105      0.03963164
H      -2.13004602      4.81424294     -3.76640803
H      -0.37732699      4.97608191     -3.79304059
H      -0.73529153      6.14846300     -1.74809637
H      -2.25461831      5.31266622     -1.45051797
O      -2.64773251     -2.62766688     -4.18508664
H      -3.10576235     -2.65121456     -5.03846939
H      -2.31406418     -1.71518514     -4.10022364
O       3.50509598      0.73526687      0.52301192
H       3.59628119     -0.16435562      0.15622821
H       3.29848005      1.29938492     -0.24736392
O      -4.16728405      0.71430623     -0.41767146
H      -4.25776579      1.63939957     -0.11344482
H      -3.58911467      0.28325589      0.23772946
O      -4.59379912      4.11110582     -2.57244828
H      -4.49057358      3.18387594     -2.85779034
H      -5.18259430      4.51096978     -3.22947243
O       5.43958795     -5.39960276      2.41994062
H       4.49014708     -5.48877775      2.62578058
H       5.90149583     -5.80977981      3.16639651
O      -2.36163134     -0.43760258      1.57129968
H      -2.38547812     -1.37668981      1.30875934
H      -1.63310744     -0.39577347      2.22163632
O      -2.16561286     -3.24888936      0.76571217
H      -2.48729512     -3.64059255     -0.06383774
H      -1.19634438     -3.37863599      0.70652785
O       3.09471358     -0.32873048     -3.02585587
H       3.28219207     -0.90503386     -2.25876581
H       2.97657030      0.57020454     -2.65794988
O       2.71866264      2.40216518     -1.86986369
H       1.75007238      2.53703124     -1.80557630
H       3.07557893      3.21745435     -2.25106524
O       5.69840947     -3.77390388      0.04071171
H       6.56178709     -3.99969400     -0.33639749
H       5.61901865     -4.31978734      0.84487257
O       0.84299491      5.96074760      1.10879342
H       0.63865440      5.22327781      1.71438209
H       1.09264848      6.69920991      1.68611700
O      -4.23305395      1.33249725     -3.24056575
H      -3.43026584      0.89037150     -3.56870366
H      -4.29853101      1.02900913     -2.31495105
O       3.59116684     -1.97197351     -0.62687433
H       4.33616106     -2.56236743     -0.44151377
H       2.79822693     -2.50418001     -0.41508050
O      -0.13930729     -0.25636194      3.44002221
H       0.61648893      0.33604047      3.26928067
H      -0.32658365     -0.16223283      4.38627434
O      -2.26827933      2.54486306      2.02515788
H      -2.97254487      2.92107850      1.46408204
H      -2.32256998      1.57984612      1.89148989
O       2.61318542     -5.65051187      3.01381336
H       2.16867439     -5.30798478      2.20527560
H       1.89716998     -5.93219364      3.60203008
O       0.21938918      3.77022872      2.88913921
H      -0.63684767      3.36795673      2.64878870
H       0.84418888      3.02094442      2.93811874
O      -4.35755432      3.60369354      0.28494245
H      -4.42468898      3.82738408     -0.66265422
H      -5.05548919      4.11848110      0.71650702
O      -2.45487721     -4.38808305     -1.88507129
H      -2.59092063     -3.83457227     -2.67618604
H      -1.48265138     -4.49188683     -1.82402641
O       2.14923138      1.49365561      2.99337174
H       2.86763881      1.73875464      3.59604538
H       2.59740008      1.25315008      2.16068414
