101
charge=0
O      -2.86226260     -2.98183866      5.07957422
N      -4.61955338     -1.63720304      4.50260970
N      -4.97547810     -0.75129009      3.67104691
N       2.40945741      1.14476516     -5.33501510
N       3.44495549      0.53991490     -4.82002384
O      -0.49490597     -0.88251172     -2.85008964
C      -3.53271174     -2.45126239      4.21204201
C       1.28625685      0.71753648     -4.76876113
C       3.01956667     -0.32246430     -3.87862791
C      -2.56056553     -3.73852978      2.37375461
C       3.72135043     -1.17420369     -2.99447488
C      -3.16945664     -2.62909778      2.80453050
C       1.61717011     -0.23871753     -3.80928536
C      -3.45953419     -1.49277268      1.96296074
C       3.00035480     -1.89091911     -2.10204622
C       0.87588997     -0.99443416     -2.85917533
C      -4.32332462     -0.56577071      2.47840935
C      -0.60396704     -0.90843471     -0.39744638
C      -1.34604904     -1.05000545      0.74263988
C      -2.56999177     -1.29498983     -1.70449701
C      -1.19828187     -1.04156990     -1.64829446
C      -2.72004080     -1.30132885      0.69166895
C      -3.33915020     -1.42473180     -0.56913463
N       1.62162117     -1.79416550     -2.04609076
C      -4.57990647      0.70711292      1.77121398
C      -4.79268520     -1.71303611     -0.70123602
H       0.30046248      1.09984077     -4.98050757
H      -2.30295120     -3.86681746      1.34273384
H      -2.34636904     -4.54164214      3.04774824
H       4.79451513     -1.23593860     -3.03547595
H       3.49828181     -2.55607895     -1.41511802
H       0.44324334     -0.67410841     -0.33696208
H      -0.86633571     -0.98335248      1.70402478
H      -3.03409902     -1.37520435     -2.67047228
H       1.15505039     -2.42218989     -1.38513410
H      -4.92031678      0.53406553      0.75250269
H      -3.67618054      1.31426609      1.73147857
H      -5.34809015      1.27793855      2.29367053
H      -5.31936580     -0.85678449     -1.12365811
H      -4.96151240     -2.56675155     -1.35797134
H      -5.24475985     -1.94615597      0.26272928
O      -1.22042425      4.93839229      1.65487370
H      -1.01196082      3.98945203      1.53543269
H      -0.50946568      5.29565621      2.20678004
O      -6.18131272      3.34980839      1.56821649
H      -6.88898621      3.78242560      2.06762205
H      -5.35872702      3.61998635      2.01591040
O       3.36179643      2.91212793     -2.83513142
H       3.14218866      2.14170718     -3.39562906
H       4.15489528      3.30257311     -3.23075150
O       1.00089257     -4.51685018      2.82869957
H       1.68286729     -5.19701439      2.93233865
H       0.39949656     -4.65187368      3.58424892
O      -5.55541129      1.99202084     -0.88720343
H      -6.25929194      2.20563687     -1.51802192
H      -5.79151597      2.47329189     -0.07186962
O      -2.67769755      2.20793223     -1.27165425
H      -2.52089038      1.87672721     -2.17537054
H      -3.64261955      2.14520741     -1.14777538
O      -0.73020069     -4.86434191      5.08208249
H      -0.74984478     -5.28761584      5.95258292
H      -1.46037682     -4.21566204      5.10672836
O       1.36939190      2.93328171     -0.73386263
H       0.70134392      3.57617768     -1.04365307
H       2.06439430      2.94069988     -1.41516184
O      -2.04092565     -4.50962622     -0.79724804
H      -2.37758010     -5.06392716     -1.51626231
H      -2.30896664     -3.60032405     -1.00875061
O      -3.73381202      4.01099988      2.86011900
H      -3.00118001      4.49609024      2.44036171
H      -3.28200143      3.23841811      3.24480496
O      -1.04728508     -0.60975277      4.83281384
H      -1.62534790     -1.37559378      5.01109687
H      -0.35715948     -0.94510751      4.22697601
O       8.14882915      0.12019861     -4.41874766
H       7.44688391      0.52528441     -4.96212766
H       8.96913221      0.55457090     -4.69692494
O       6.05333225      1.30654017     -6.01303859
H       5.18242904      1.05798210     -5.63260813
H       5.85414360      1.66343917     -6.89104601
O       0.90528963     -1.58752588      2.89827595
H       0.96449597     -2.56104896      2.86776765
H       1.78792698     -1.26523288      2.66272208
O       0.63504774     -3.71194317      0.03244050
H      -0.24534924     -4.04685341     -0.22366041
H       0.76097523     -3.99669597      0.95251930
O       6.74309854     -1.69904605     -2.65841093
H       7.43221054     -2.20966886     -2.20535879
H       7.22457302     -1.08795252     -3.24765393
O      -2.16200809      1.17365909     -3.95004215
H      -1.57524954      0.46710451     -3.61526562
H      -2.22303706      1.03699485     -4.90740397
O      -0.99404165      4.64034511     -1.30232410
H      -1.59863983      3.87776236     -1.39286952
H      -1.11097631      4.92814947     -0.37722755
O      -2.09707164      1.76926310      3.55994703
H      -1.75831252      0.99816967      4.04673582
H      -1.57528839      1.80393717      2.73246136
O      -0.77241728      2.07293026      0.96425848
H       0.05803376      2.24463013      0.48670158
H      -1.44045339      2.03912151      0.25073875
