102
charge=0
O      -5.39031868      1.04861394     -0.60990683
O      -5.96063733      0.03435816      1.24590222
O       0.91910661     -0.34842617      1.94576609
S      -2.35226204      0.68791211     -0.15383279
C      -1.94776937      0.12420786      2.32281340
C      -3.33118779      0.27474734      2.18278998
C      -1.26880650      0.23251599      1.13014927
C      -3.73362472      0.50074549      0.89415639
C       0.10357628      0.01392948      0.90422695
C       0.17504745      3.87078381     -5.60844885
C       4.48539815     -0.14930205      2.74911690
C      -0.87505349      3.43580725     -4.81751664
C       1.46682323      3.45804148     -5.33297098
C       5.04396705      0.06685490      1.50519567
C       3.12667760     -0.30673654      2.87604066
C      -0.64321099      2.59984818     -3.75662054
C       1.71312892      2.62359833     -4.27515812
C       4.24065959      0.10543739      0.38341786
C       2.29747328     -0.24234747      1.75726328
C       0.66352441      2.17251028     -3.45108202
C       2.87288831     -0.05352294      0.49141782
C       0.92557224      1.36090662     -2.32697136
N       0.00736771      0.97373846     -1.41537777
N      -5.10564313      0.53503861      0.48669808
N       0.58548422      0.18117489     -0.36335799
C       2.26856566      0.83186143     -1.88655776
C       1.98273424     -0.14090976     -0.71099953
H      -1.45868296     -0.09335917      3.25866918
H      -4.03069218      0.16261050      2.99775626
H      -0.01432360      4.52744608     -6.44137612
H       5.11574306     -0.19670020      3.62184434
H      -1.88101499      3.75124195     -5.04129536
H       2.28561402      3.79326224     -5.94867023
H       6.10968831      0.19160968      1.40723040
H       2.67392075     -0.49274124      3.83542323
H      -1.47142369      2.24788076     -3.16771112
H       2.72248494      2.33125168     -4.04670310
H       4.67686003      0.25528959     -0.59022822
H      -1.00343985      1.12976775     -1.49078632
H       2.78527079      0.33071211     -2.71153999
H       2.90412519      1.65626895     -1.55146151
H       1.98562548     -1.17949011     -1.07149852
O      -1.81364456      3.79335171      1.21950210
H      -2.19490444      2.92342924      1.01270001
H      -0.86098659      3.68596444      1.03276261
O       5.25622233      0.77272167     -2.55725501
H       6.00556498      0.32776089     -2.98322859
H       5.13458129      1.60033968     -3.05975649
O       4.84909258      3.18273455     -4.07398251
H       4.62128865      3.98325344     -3.56514628
H       4.71831343      3.44314259     -5.00516477
O       0.56585135     -3.88799679      4.94635793
H      -0.33044674     -3.66102336      4.63110804
H       0.92979282     -4.46785692      4.25421624
O       1.59480099     -1.30365208      5.67985583
H       2.19895572     -1.42775379      6.42778439
H       1.31014127     -2.20494881      5.43389799
O       1.36563295      4.87637518     -1.69157738
H       1.22824950      4.37709295     -0.87134413
H       0.99807747      4.30670296     -2.38607517
O       1.49797431     -5.38184660      2.58131584
H       1.01552898     -4.63660008      2.17211670
H       1.48485156     -6.09209917      1.92235358
O      -4.57154698     -2.44160988      2.40920889
H      -4.47266849     -3.04087907      1.64499841
H      -5.11045582     -1.70120451      2.07091057
O      -6.28311135      2.23068965     -3.07894586
H      -6.10418013      1.81776520     -2.21322175
H      -7.23789092      2.39520698     -3.08917303
O       4.34293296      4.03527026     -6.84280133
H       4.54242587      4.94024242     -7.12702715
H       4.51080723      3.47451545     -7.61532662
O      -0.44325695     -1.81161174     -2.55783171
H      -1.10317484     -1.48444692     -3.19593760
H      -0.20708334     -1.00605407     -2.03894144
O      -3.52204872      1.64336168     -2.73040707
H      -4.15626910      2.15493002     -3.26139929
H      -4.04269730      1.40365568     -1.94303337
O      -2.02507804     -2.88579841      3.80642016
H      -2.90572077     -2.77495913      3.40434830
H      -1.87444232     -2.07562886      4.33266496
O       4.01484572      5.55068209     -2.62680437
H       3.11716659      5.36549128     -2.29233781
H       4.25875905      6.40457167     -2.24017318
O      -1.19798648     -0.46425390      5.27732207
H      -0.25537480     -0.67796480      5.41234726
H      -1.45079745      0.07676439      6.04004156
O      -4.13139144     -4.13584543      0.09630760
H      -4.52378398     -4.83438541     -0.44881544
H      -3.20685884     -4.06330664     -0.20657982
O       0.99422813      3.10167099      0.58019095
H       1.46991224      2.77750871      1.35771469
H       0.75500055      2.29131025      0.06978850
O      -2.43546796     -0.59073814     -4.23641619
H      -3.15217417     -0.89293474     -4.81397369
H      -2.81068674      0.14967022     -3.72306581
O      -1.37972512     -3.87826530     -0.75076368
H      -1.06343517     -3.22762044     -1.40413558
H      -0.89477226     -3.65622405      0.06752874
O      -0.02152679     -3.09128600      1.70610028
H       0.36007024     -2.19482138      1.73233440
H      -0.72912848     -3.06294140      2.37796873
