100
charge=0
C       2.45169681     -0.40094735      3.73952242
C      -0.80991658     -1.19262275      0.48353399
C       1.72772601      0.07292640      2.73467524
C      -0.15514555     -0.24099856      1.20629068
C       0.39274942     -4.75302695      0.77828706
C       1.41257971     -4.50152046      1.70698086
C      -0.40132261     -3.74001222      0.31262895
C       1.65665283     -3.23397777      2.16764336
C      -0.17506354     -2.43658929      0.78189668
C       0.86121725     -2.17733541      1.70596442
N       0.88558058     -0.78810630      1.94600135
N      -1.25275448      1.55819644     -0.05268562
C      -1.94401075     -0.85546656     -0.43005282
C      -2.38646745      0.61207300     -0.26747161
C      -1.59764351      3.01638968     -0.05669927
C      -0.34469428      3.89520395      0.03836386
C       1.71014273      1.55775068      2.46427213
C       0.51127016      3.52016866      1.26181795
C       0.84491071      2.01279698      1.25547509
C      -0.46747023      1.20740092      1.17051114
H       3.05453999      0.25075404      4.33939831
H       2.41952569     -1.43185011      4.01914191
H       0.23348137     -5.75917053      0.42627336
H       2.01295152     -5.32289478      2.06453404
H      -1.18095679     -3.92132220     -0.40608644
H       2.45777751     -3.04963159      2.85901308
H      -1.63889391     -1.04470881     -1.46498745
H      -2.78048307     -1.53623689     -0.23139725
H      -3.06205604      0.70999243      0.58669984
H      -2.95100963      0.94925278     -1.14282106
H      -2.17751164      3.23878423     -0.95877351
H      -2.25967241      3.20458806      0.79228226
H       0.25241575      3.77722798     -0.87379512
H      -0.62376151      4.95731957      0.07167385
H       1.34326272      2.06707136      3.36150353
H       2.74051396      1.90753694      2.33219764
H      -0.03436741      3.75976902      2.18119551
H       1.43476826      4.11228891      1.30110890
H       1.40251038      1.79349491      0.33272376
H      -1.08961969      1.45465334      2.04015043
O       3.53397648     -5.44587971     -2.21150589
H       4.01818687     -5.93910083     -2.88994249
H       2.59563656     -5.66748466     -2.35726255
O      -0.05425445      1.60921446     -2.77314875
H      -0.45310633      1.59595938     -1.87241492
H       0.88255113      1.81629904     -2.61046051
O      -4.68079403      2.65251155     -2.40117425
H      -3.92066463      2.52873395     -2.99922845
H      -5.42788421      2.85630799     -2.98516373
O       4.38582493      1.62485644      0.27147542
H       5.10453946      1.28180048      0.83207165
H       3.84306854      0.83445688      0.07922647
O       0.76059577     -6.06266257     -2.64524538
H       0.10282277     -6.77423436     -2.64994778
H       0.25427800     -5.24733093     -2.81784622
O      -0.73979609     -3.66799576     -3.15603952
H      -1.49512503     -3.38783541     -3.69509832
H      -0.24342041     -2.84905922     -2.97432155
O       2.66500074      1.89154714     -1.96899760
H       2.68466965      1.00947139     -1.54850446
H       3.38090555      2.37338984     -1.52518627
O      -2.60900339      1.58785015      4.04122913
H      -3.42006829      1.29739153      3.58103766
H      -2.09515206      0.77090566      4.16667290
O      -5.01592216      2.60668116      0.48755402
H      -4.92157672      2.61525894     -0.48237314
H      -4.64581554      3.46017124      0.78244804
O      -2.45250866      2.28927150     -4.21647473
H      -1.63500910      2.05772508     -3.73868208
H      -2.17991851      2.40448838     -5.13909640
O       2.67766990     -0.68271251     -0.50739017
H       3.13183664     -1.54394721     -0.49702579
H       2.08551142     -0.71310317      0.27498074
O      -1.21348794     -0.97991180      4.14928842
H      -1.98570850     -1.37894451      3.70279867
H      -0.51953148     -0.94998692      3.45678550
O       0.66304037     -1.23026666     -2.63749351
H       1.35143770     -1.13120040     -1.95426632
H       0.36576169     -0.32169722     -2.79673400
O      -2.08775477      4.37429226      3.65919343
H      -1.63415810      4.67188380      4.46213469
H      -2.25480565      3.42389429      3.80160090
O       6.38541421      0.32271691      1.89568821
H       7.12669662      0.34779622      2.51930442
H       6.34029190     -0.60101992      1.58201580
O      -3.79978109      5.08497415      1.43658312
H      -3.83253598      6.05317888      1.40779624
H      -3.22122550      4.86916146      2.19250443
O      -5.03431331      0.67506016      2.56538693
H      -5.90014787      0.78740549      2.98620256
H      -5.03377528      1.31399669      1.82995246
O      -3.57586411     -1.84036107      2.70291102
H      -4.08472817     -1.00912725      2.63504297
H      -4.16903664     -2.53631904      2.38224101
O       3.77100362     -3.35066760     -0.31187760
H       3.05322442     -3.58602732      0.29808116
H       3.74238375     -4.04407266     -0.99274023
O       6.21556390     -2.39695814      0.92330385
H       6.87813043     -3.06777972      0.69825627
H       5.39015886     -2.70549273      0.50542900
