90
charge=0
N       3.12097839     -1.69900483      5.21888365
N       0.87397579      3.39487532     -2.34882814
S      -0.50035028     -2.61298252      4.53127207
C       2.45221697     -1.82961232      4.27744264
C       0.63709763      2.57222098     -1.56156186
O       1.71534395     -2.40255713      0.74417248
C       0.24257163     -1.96472006      3.19716561
C       1.67925463     -1.94632565      3.11499972
C       2.32722268     -2.00235081      1.87587908
C       1.08053272      1.48770304      0.55555667
C      -0.68943098      0.68383974     -0.83792166
C       0.79807614      0.51522008      1.48163721
C      -0.96687017     -0.29041742      0.08653251
C       0.34455720      1.58364222     -0.61784484
C      -0.22142450     -0.40323946      1.25488911
N      -0.53544018     -1.42109834      2.19257461
C       4.60631068     -2.32074051      0.66339348
C       4.19489848     -0.88757044      0.46426535
C       3.77337746     -1.62315015      1.73090401
H       0.86811779     -2.87657493      0.95422487
H       1.88023435      2.18671689      0.72748769
H      -1.26995178      0.76328287     -1.74164615
H       1.36645131      0.45666659      2.39267364
H      -1.75357797     -0.99812599     -0.09226824
H      -1.51167724     -1.72833668      2.14189024
H       5.65653983     -2.54124338      0.86636757
H       4.11916001     -3.08395021      0.05289771
H       4.95382478     -0.10502184      0.53357274
H       3.41673512     -0.66606962     -0.26802629
H       4.26493331     -1.34513312      2.66957990
O       3.15210202     -1.31107110     -2.95071376
H       2.23845910     -1.53810732     -2.69305172
H       3.21662906     -0.34097523     -2.87228793
O      -0.78052647     -5.82205200      3.43706154
H      -0.52612879     -5.01071006      3.91064455
H      -0.20149225     -6.51924255      3.77390608
O      -1.33372094      4.85344779     -0.79195826
H      -0.63616771      4.47643363     -1.35750394
H      -2.08087893      4.22808009     -0.85875644
O       3.40522766      2.00044984      2.61686140
H       2.63570796      2.52650781      2.90373043
H       3.78745894      1.65046068      3.44191108
O       4.46045151      0.89118472      5.07638109
H       4.94537356      1.00604204      5.90696804
H       4.01911735      0.02500086      5.15548526
O       1.05649104      3.47197237      3.38855537
H       0.58228435      3.51110820      4.23313831
H       0.63568826      4.15263426      2.83190345
O      -2.66889951      1.63450602     -3.46187877
H      -2.05737443      2.20681865     -3.95558307
H      -2.95357786      2.16626513     -2.69342725
O       3.37576500      1.56699012     -2.53774759
H       2.63557331      2.18934478     -2.60353906
H       3.82656842      1.80726517     -1.70499660
O      -3.56565331      2.92360105     -0.94258485
H      -3.76449156      2.01531269     -0.64490075
H      -4.35578097      3.43689047     -0.71570820
O       5.08740232     -3.26642381     -2.11265591
H       5.48055200     -3.61846455     -2.92665989
H       4.43677711     -2.60350577     -2.41240165
O       4.58945377      2.25888973      0.03093147
H       5.26437697      2.95000115      0.10938764
H       4.19816839      2.18255389      0.92112948
O      -3.84340740     -0.91397613     -3.09485476
H      -3.40701035     -0.06516863     -3.29312198
H      -4.49757864     -1.02451464     -3.80003530
O      -0.22893313      5.49000643      1.79080259
H      -0.61104114      5.26735147      0.92255662
H      -0.21826708      6.45873491      1.81550376
O      -0.75748694      3.37041550     -4.75414700
H      -0.16343267      3.40895968     -3.98034180
H      -0.26873686      3.79637904     -5.47333297
O      -0.62841502     -4.08373346      1.03200079
H      -0.71347077     -4.73050965      1.75645973
H      -1.48353485     -3.62108993      0.98484589
O       0.49294569     -2.11303049     -1.94963819
H      -0.43014644     -2.42256877     -1.87484606
H       0.87458930     -2.22550176     -1.05683067
O      -3.26108161     -2.31972315      1.02194837
H      -3.10717439     -2.69216587      0.12948842
H      -3.42576097     -3.06401703      1.62821609
O      -2.43789824     -3.00692294     -1.69618211
H      -2.90567274     -2.31774005     -2.20633673
H      -2.47564424     -3.80417150     -2.24529797
O      -4.17070684      0.14860707     -0.30831186
H      -4.14044916     -0.21389711     -1.21599455
H      -3.94170649     -0.60935604      0.25815168
O      -3.16254042     -4.39588786      2.98488854
H      -2.88545921     -5.32024038      3.09391130
H      -2.54112351     -3.88693401      3.53491692
