83
charge=0
N      -1.77491347     -2.76633453      1.34848740
N       0.67452086     -1.72237656     -1.08736981
N       3.18467524      0.74548251     -0.31406206
C      -2.82681806     -3.48301135      1.04787868
C       0.13746280     -1.88030491      0.10299845
C       0.64042847     -1.24254146      1.25064042
C      -2.83739094     -3.83951539     -0.30636140
C       1.66876839     -0.36461982      1.16240074
C      -1.69815466     -3.30427184     -0.85162492
C       2.22992490     -0.14163103     -0.10061397
N       3.64569791      1.00699289     -1.51187995
N      -1.32964356     -3.34853529     -2.18402320
N      -1.06789535     -2.64640039      0.20963688
N       1.70036666     -0.88956767     -1.14224315
H      -3.59797487     -3.71543739      1.76923878
H       0.17270217     -1.44037865      2.19871532
H      -3.59289941     -4.39971110     -0.83147828
H       2.03977108      0.17116666      2.01855499
H       4.62557459      1.29499981     -1.56153472
H       3.52885089      0.26490357     -2.20260267
H      -1.98238726     -3.65754093     -2.89928461
H      -0.53552039     -2.84248772     -2.58425326
H       2.23057620     -0.93785196     -2.02217891
O       5.42615863      1.94679819      1.14931208
H       4.92151121      2.47788496      1.79064685
H       4.71884234      1.50560818      0.61766072
O      -0.47218863      2.75377260      0.58045443
H      -1.04029333      1.96020610      0.60959404
H       0.01441696      2.73197883     -0.26444872
O      -3.61600791     -3.29167389     -4.21147212
H      -3.54454103     -2.39145395     -3.84212392
H      -3.98633773     -3.18128893     -5.10010415
O       5.59151396      0.85541996     -4.06334035
H       5.96633095      1.38451622     -4.78290842
H       5.97609569      1.22377639     -3.24584004
O      -5.46423703     -4.18428795      2.65923563
H      -6.01612607     -4.94176708      2.41167657
H      -5.80027410     -3.44243020      2.12254032
O       0.94694746      2.32415541      3.04446083
H       0.51107993      2.57151447      2.20751871
H       0.28020653      1.75986679      3.47617709
O      -2.87711651     -0.79295993     -2.67026544
H      -2.16482773     -0.13169909     -2.69956814
H      -2.39295477     -1.60633588     -2.40715561
O      -6.40565311     -2.04203966      0.99995820
H      -7.26032717     -1.61667228      0.83480750
H      -5.75386794     -1.46683512      0.55962206
O      -3.83034142     -3.74049155      5.02545661
H      -4.25926377     -4.22527059      5.74631558
H      -4.39087368     -3.89239830      4.24062419
O       0.55408906     -1.71637688     -4.01545435
H       1.51182859     -1.52868741     -4.00481660
H       0.14548656     -0.89135614     -3.69089095
O       6.62519278      1.97002249     -1.55852022
H       6.34715032      1.99476905     -0.62376509
H       7.48558689      2.41546472     -1.56798738
O      -0.46577720      0.71340702     -2.52818336
H       0.15399346      0.16176583     -1.99118687
H      -0.06230780      1.59203515     -2.46564268
O      -2.05905908      0.31060862      1.18193464
H      -1.83629242      0.43881977      2.12389998
H      -1.80051332     -0.61674307      0.97828881
O      -1.22101848      0.64271965      4.04267717
H      -1.67137943      1.04316986      4.80093604
H      -1.29311876     -0.31829456      4.18628324
O       3.43145653     -1.00982793     -3.76339379
H       3.80951153     -1.88541103     -3.94222735
H       4.15373135     -0.38688235     -3.97114781
O       1.23821028      2.83929445     -1.85935110
H       1.61024048      3.70757490     -1.63651161
H       1.99944582      2.21763165     -1.75456447
O      -1.56424086     -2.16093743      4.23591265
H      -1.60688438     -2.38994179      3.27891950
H      -2.28675324     -2.68769199      4.61966305
O       3.55794467      3.47731063      2.76805868
H       2.67920318      3.07957924      2.91419825
H       3.69215491      4.07415427      3.51804903
O       3.23235119      3.83142268     -0.17006877
H       3.33109922      3.79919296      0.79925737
H       3.35906760      2.89892967     -0.46880491
O      -4.49690036     -0.33823916     -0.29388170
H      -4.07068372     -0.47618653     -1.15895120
H      -3.76420983     -0.02201895      0.26588485
