98
charge=0
N      -2.87237875     -0.85344171     -2.41386117
N       0.60469141      1.45240280     -4.78514975
N       5.15417382      1.71019721      1.47450647
N      -0.47712716     -1.08857719      1.25030049
N       2.43127273     -0.09199205      3.21933954
S      -1.85282154     -1.70280198     -3.38175878
C      -2.31098313     -0.53880772     -1.29301822
C       0.77211905      0.19303204     -5.08850119
C       5.06950769      1.95990826      0.19342590
C      -0.54417607     -1.64475870     -2.25899671
C      -0.95165472     -0.97620443     -1.15107147
C       3.57662657      0.50398177      3.05298591
C      -0.09709820     -0.67736910      0.02056191
C       1.74243380      2.90205366     -3.07312133
C       2.60105149      2.85110707     -2.01059273
C       3.18321466      0.54774806     -2.46793669
C       1.55270146      1.74682665     -3.84480132
C       4.02780077      1.01540899      1.81187927
C       2.29886069      0.58019565     -3.55072963
C       3.30006482      1.66883218     -1.67167082
C       0.36159684     -0.86275925      2.23326688
C       1.08139823     -0.01613480     -0.20481452
C       3.21176066      0.87856291      0.69415691
C       1.61166850     -0.23262151      2.11742580
C       1.96381346      0.22258723      0.83741537
N       1.79288059     -0.39824507     -4.37814340
N       3.85817137      1.53039413     -0.34560221
H      -2.82755106      0.03442789     -0.53379156
H       0.09958669     -0.34624087     -5.74052445
H       5.81977672      2.50128540     -0.36324128
H       0.42966519     -2.06423323     -2.41321394
H       4.21109241      0.62450652      3.91433414
H       1.16791047      3.78537916     -3.29114240
H       2.69634161      3.70544251     -1.36392592
H       3.62133765     -0.38357395     -2.15894611
H       0.05295912     -1.18899453      3.21324705
H       1.32225963      0.29223345     -1.20169504
H       1.97138917     -1.40852664     -4.30516617
O       1.20652716      5.86990835      0.30920627
H       1.88231876      5.27470776      0.68387724
H       0.73227242      6.22952587      1.07384896
O       9.73602061      2.18381079      2.36553109
H      10.44674599      2.82836253      2.50461328
H      10.15913451      1.40048049      1.98191721
O       7.09144777      2.55182767      3.59290848
H       7.97632499      2.43138719      3.19693077
H       6.45585202      2.26760413      2.89550873
O      -3.92420464      0.61770863     -4.85690594
H      -4.85263202      0.82329371     -4.68099833
H      -3.60793464      0.16060261     -4.05288931
O       3.18780137      4.08858060      1.38895786
H       3.81514196      4.10528259      2.12572638
H       3.39628117      3.26311160      0.90042480
O      -1.96068111      2.63668971     -5.84699936
H      -1.11244945      2.27605287     -5.50072849
H      -2.64875252      2.02882204     -5.51011403
O      -1.14434879     -1.73214453      5.96643132
H      -0.18172502     -1.61868286      5.86431332
H      -1.36858721     -1.12012667      6.68704225
O      -3.32167089     -1.98352956      1.67152711
H      -2.39550379     -1.69312072      1.51081530
H      -3.29975086     -2.33463049      2.57981710
O       2.93912315     -2.39912324     -1.71358827
H       2.65745758     -2.78651986     -2.56499485
H       2.40318706     -2.85343182     -1.03550553
O      -0.04720496      0.23700571      7.74304149
H       0.38283665      1.00308282      8.15241858
H       0.62376249     -0.16257286      7.15554390
O       1.98599097     -3.40426788     -4.27389570
H       1.13038919     -3.35818657     -4.74197865
H       2.48137865     -4.10818461     -4.71867603
O      -5.61764224     -2.86520375      0.09653145
H      -6.08245902     -3.53536480      0.61953031
H      -4.83990493     -2.61116499      0.63022615
O       1.17662387     -3.65385680      0.27744769
H       0.75418952     -4.41612536      0.70021715
H       0.78782481     -2.86852031      0.70197609
O       1.74974578     -1.15307817      5.87457746
H       1.98065956     -0.78978224      4.99115468
H       2.48749113     -1.73398637      6.11088530
O      -3.11331651     -3.00433996      4.33074000
H      -3.63191477     -3.54198903      4.94812320
H      -2.43601662     -2.56982704      4.88120416
O      -1.88403701     -0.72731675     -6.59302609
H      -1.84920104     -0.20001366     -7.40435868
H      -2.57589145     -0.30323471     -6.05139189
O       0.94226539      5.65768469     -2.55463384
H       0.44232482      6.43665900     -2.84297891
H       1.02592837      5.74778414     -1.58650291
O      -0.49902567     -3.14379389     -5.67259967
H      -0.95117625     -2.34124522     -5.99308787
H      -1.06589376     -3.87695526     -5.95607682
O      -5.78429174     -0.69644337     -1.81352216
H      -5.89669082     -1.47261780     -1.23236834
H      -4.82988621     -0.73616928     -2.05461216
O      -4.71791054      0.51299656      0.78694226
H      -5.17303512      0.21833069     -0.02487888
H      -4.29263737     -0.28952637      1.15017614
