76
charge=0
Cl     -0.61015548     -1.07027646      4.04243066
N      -2.11576358     -0.99128267     -0.81726089
N       1.96876399     -1.24746713      3.42762850
N      -0.69462773     -1.17115255      1.02934646
S       3.18218817     -1.48303863      2.33176345
S       1.95412803     -1.63832688      0.61779626
S       0.24935909     -1.84790488     -1.49506075
C      -0.96804402     -1.27955246     -0.30220596
C       0.74958057     -1.22289008      2.95590084
C       0.49464209     -1.32137089      1.54738447
C      -2.18816880     -1.16214449     -2.21248140
C      -0.98742829     -1.92634729     -2.76662627
H      -2.24225668     -0.15480674     -2.65194516
H      -3.13626797     -1.66437884     -2.45571532
H      -1.22303271     -2.97691990     -2.95191231
H      -0.59928028     -1.49401362     -3.69239072
O       2.38519104     -0.03945125      6.10725976
H       2.24818047     -0.48035338      5.23736798
H       2.21513995     -0.71868822      6.77753423
O      -1.10028383     -4.95355836      0.10438857
H      -1.41311226     -4.43495912      0.86653481
H      -1.79509160     -5.61439931     -0.03932344
O      -2.51066495      1.14386570     -4.30795545
H      -2.66962944      1.82728793     -3.63082259
H      -3.29944485      1.16298767     -4.86922519
O      -1.39621839      2.30601576      3.61141166
H      -0.52728312      2.29899423      4.04605347
H      -1.17854094      2.54830322      2.68996077
O       1.33305772      2.71151997     -2.37830572
H       1.04315920      2.14113836     -3.11625105
H       1.97044770      2.17509922     -1.87559291
O      -2.15685652     -3.47895427      2.34062030
H      -1.60504591     -2.87164209      2.86152672
H      -2.90146758     -2.91675732      2.06145707
O      -4.09203890     -1.49180614      1.46475045
H      -4.05962015     -0.68828647      2.01817596
H      -3.46561279     -1.32522389      0.72456818
O       4.47941537     -1.88558453     -0.78608736
H       3.89971266     -2.26243256     -1.47706744
H       5.37045444     -2.21010686     -0.98579438
O       1.35190929      2.24845294      4.47284114
H       1.65048927      2.06312366      3.56000106
H       1.74602589      1.55612371      5.03467128
O       2.66949405     -3.01841733     -2.98371552
H       2.20311510     -3.65185843     -2.40727461
H       2.90419040     -3.53123238     -3.77272454
O       3.24213483      0.81395744     -0.98812213
H       3.14550147      0.55765440     -1.92681181
H       3.73075084      0.04745552     -0.63970080
O      -0.75350858      2.84160698      0.78867305
H      -1.60624341      2.41095719      0.58374400
H      -0.65414107      3.51425779      0.09179863
O      -0.53746851      4.65421469     -1.48333020
H       0.15083230      4.05547547     -1.83288668
H      -0.17423373      5.54637439     -1.57421084
O       1.39994951     -4.95343416     -1.29749876
H       0.54321027     -4.91241028     -0.83600983
H       1.85803838     -5.70672627     -0.89433629
O       1.89728612      1.74362979      1.57112252
H       2.34748915      1.46853245      0.74915300
H       1.03408331      2.10450259      1.28520050
O      -2.91010453      3.07265386     -2.23974857
H      -2.17362699      3.66775513     -2.00501710
H      -3.14751945      2.62683026     -1.40498670
O       2.83263598     -0.17610121     -3.64681256
H       2.72518561     -1.13119931     -3.47213165
H       1.98600843      0.13538709     -4.02004358
O      -3.86414017      0.97524024      3.02816640
H      -4.48454676      1.16509151      3.74606496
H      -3.02789149      1.39376056      3.30373260
O       0.34639016      0.95710428     -4.63354010
H      -0.62063429      1.00017714     -4.51791024
H       0.50217821      1.27853572     -5.53489641
O      -3.35190516      1.56257837      0.22001522
H      -2.96737965      0.71445326     -0.09025533
H      -3.61968831      1.39925768      1.14173716
