104
charge=0
O       1.87813248     -1.24043758      4.04641992
O      -0.28418894     -0.71866349     -0.80749516
O       6.70102616      0.32107904     -1.24817255
O      -7.95015059      0.02034685      0.37315853
O      -7.24876973     -1.38304541     -1.67225273
N      -1.21186620     -0.56281935      2.53536173
N       1.76960756      0.94965920      1.30188890
N       1.83656756     -0.26462302      1.18611538
O      -0.10158651     -1.01421407      5.09805353
O       6.30230883      2.33772874     -2.85004662
O       4.67929682      0.21816381     -2.86709298
O      -7.08852307      1.16967335     -1.68311269
C       0.67600292     -1.04941226      3.98708182
C      -0.35771387     -0.75136408      0.39479852
C       0.03385554     -0.87197407      2.69681242
C       4.04753282      3.77045950      0.68285657
C       3.02116186      3.02823032      1.22514566
C      -3.79867991      0.15212546      1.51592753
C      -3.10512296     -0.76194137     -0.58450653
C       4.87061379      3.21858245     -0.28183923
C       3.67987140      1.16163998     -0.12105606
C      -5.09426007      0.21550696      1.05536858
C      -4.40340504     -0.70708334     -1.03085532
C       2.82738315      1.71106794      0.83018668
C      -2.79126584     -0.33773862      0.69827549
C       4.65871010      1.92535349     -0.69284890
C      -5.39768969     -0.22231712     -0.21370220
N      -1.47495212     -0.49384196      1.20751673
C       0.72263824     -1.07859278      1.37639885
P       5.65098861      1.15674889     -1.97244337
S      -7.08967058     -0.16731327     -0.82485629
H       0.49401818     -1.11073267      5.86829063
H       6.97198223      2.79671180     -2.30683439
H       3.72114270      0.31851797     -2.68009456
H      -7.58272151      1.87673532     -1.22472352
H       4.20715581      4.78612239      1.00751058
H       2.35840274      3.45196545      1.96009839
H      -3.55191440      0.46640603      2.51636343
H      -2.32349413     -1.15970575     -1.21292180
H       5.69567064      3.78249127     -0.68794827
H       3.54650473      0.12564697     -0.39930111
H      -5.87305742      0.61039938      1.68879110
H      -4.64971160     -1.06131263     -2.01733207
H       1.03400861     -2.12967412      1.26954267
O      -2.01927807     -3.20186825      4.56918690
H      -1.40894264     -2.46550493      4.76905875
H      -2.18536901     -3.64146544      5.41585487
O       1.61581338      3.44603478     -2.10131902
H       2.35136117      3.40974415     -2.74410077
H       1.02582798      4.14435214     -2.42275383
O      -5.44731592     -1.95404703     -3.81419557
H      -5.57297498     -1.07370900     -4.21231408
H      -6.16002419     -1.98880683     -3.15017600
O      -9.27761636      1.69108649      2.16891678
H      -8.90436865      1.00673090      1.57816303
H     -10.11504011      1.32474719      2.48696279
O      -1.35674880     -4.52575816     -0.88916892
H      -1.91918542     -4.05800697     -1.53768835
H      -1.68937511     -4.25338604     -0.01230193
O       7.98386475      3.71991993     -1.04588225
H       8.65807900      4.41324597     -1.03702673
H       8.35900197      2.99711850     -0.51294198
O      -6.53407289      1.77631490      3.23991974
H      -6.55258851      2.16919989      4.12559911
H      -7.45898814      1.79204050      2.92992404
O       1.91977375      0.53122335     -2.22339985
H       1.17339157      0.08881138     -1.77868303
H       1.71234408      1.48281608     -2.17063718
O      -6.04777930      0.82054552     -4.41772568
H      -6.41795107      0.97831699     -3.52595774
H      -6.49303131      1.45178658     -5.00205837
O       5.91778566     -2.34852132     -2.14215326
H       5.57902288     -1.49626334     -2.48242368
H       6.82057027     -2.15221127     -1.85091981
O      -8.46225502      3.21704551     -0.24306609
H      -8.81151051      4.11908030     -0.21951206
H      -8.76360324      2.79964725      0.58450914
O       2.26702714     -1.40786000      6.87329461
H       3.16103895     -1.57147014      7.20683611
H       2.35184116     -1.38000433      5.89875855
O      -2.88857266     -2.96298226     -2.89831459
H      -3.76471110     -2.68998443     -3.22747346
H      -2.38811569     -3.19495996     -3.69582789
O       3.64765655     -1.91052574     -0.36027182
H       2.87718421     -2.40323767     -0.68101451
H       4.38622604     -2.18361213     -0.93170407
O       8.88608161      1.41898220      0.37937942
H       8.26459227      0.94507307     -0.20840594
H       8.63462233      1.12511931      1.27016079
O       3.77262529      3.10346168     -3.95563046
H       3.74079246      2.79004480     -4.87076808
H       4.66588085      2.87142826     -3.64137729
O       1.18547021     -3.18383534     -1.20506089
H       0.45056441     -3.81753010     -1.14741850
H       0.72334490     -2.32021702     -1.17169576
O      -2.21245139     -3.44539584      1.70788665
H      -2.05849512     -2.49042268      1.52268165
H      -2.18972601     -3.49153856      2.67964919
O       6.61823653      0.42078452      1.71381420
H       5.83099418     -0.05944713      2.02439029
H       6.59361148      0.31634458      0.74026721
O       4.22043765     -0.97555521      2.34579725
H       3.97017064     -1.34062050      1.47013998
H       3.42018106     -1.06273881      2.90273727
