69
charge=0
N      -0.92901504      2.04178303      2.26953371
N      -1.36396432      1.00655664      2.79303640
N       0.01160839      0.40589376      1.11124054
S       0.78934918      2.83871646      0.20557321
C      -0.06264087      1.68322016      1.23206898
C      -0.76573471     -0.09819649      2.15776127
H      -0.43628174      3.36303896     -0.00092034
H      -0.13225416     -0.63576337      2.87811781
H      -1.52927235     -0.78937247      1.77338939
O      -3.78334214      1.93059645      0.91684901
H      -3.05633587      1.82461870      1.56491091
H      -4.29139299      1.09845099      0.95999407
O      -3.62991990     -2.61013784     -0.38702710
H      -3.84531104     -3.42607035     -0.86209210
H      -2.99286021     -2.14681982     -0.96136276
O       0.47584078     -2.66691945      3.18998207
H       0.95980336     -3.40712982      2.77652705
H      -0.44863020     -2.77797551      2.89924800
O       2.60174076     -2.74030911     -0.01696513
H       2.40379233     -3.46062690      0.60975499
H       2.98196420     -2.02690168      0.53211537
O      -5.24471186     -0.61869245      0.99529832
H      -6.12535600     -0.62774454      0.59303623
H      -4.72872216     -1.28671663      0.50392011
O       3.69720960      2.17747597      0.20428811
H       3.85272849      1.54934778     -0.53063064
H       3.38051873      2.98722132     -0.23972083
O      -1.76426358     -1.23728391     -2.02403427
H      -0.80981168     -1.15209320     -1.84453180
H      -1.98661033     -0.44103848     -2.53976716
O       1.97638806     -4.88461508      1.92674553
H       1.52428754     -5.66917759      1.58199449
H       2.72267202     -5.22048975      2.44568150
O       3.53128072     -0.47972664      1.49955402
H       3.57397169      0.44804522      1.20776963
H       3.18272424     -0.45748193      2.40923580
O      -0.02528131      4.17631347     -2.53094554
H       0.20129164      3.30684791     -2.91782091
H      -0.89827619      4.02540949     -2.12821456
O       0.67769375      1.39155307     -3.44121383
H       1.56453313      1.74001322     -3.63903472
H       0.83868072      0.66974044     -2.80143422
O      -2.46912617      3.21475245     -1.32999030
H      -2.96704760      2.83572228     -0.58345893
H      -2.50019239      2.53257917     -2.03069846
O       2.34020532     -0.66210162      4.14324571
H       2.08409998     -0.40931635      5.04288393
H       1.71487422     -1.36475083      3.87866487
O       2.65934956      4.50883909     -1.45358906
H       2.84752355      5.44628306     -1.30165106
H       1.74058740      4.48146353     -1.78308970
O       3.36068741      2.51711404     -3.56359525
H       3.68983928      1.74686911     -3.06035764
H       3.22926081      3.22065156     -2.89849738
O       3.93126838      0.17740951     -1.93962425
H       4.54027791     -0.56153076     -1.80453314
H       3.04048417     -0.18707041     -1.77410443
O      -2.19702540      1.23615679     -3.53922254
H      -2.52832223      1.44396010     -4.42469803
H      -1.22514080      1.32449693     -3.59761000
O      -2.26117559     -2.79642152      2.22863569
H      -2.91389080     -2.36515365      2.81030313
H      -2.69043142     -2.80519949      1.35197912
O      -4.27085184     -1.28215915      3.66459066
H      -4.65088594     -0.69823058      4.33693755
H      -4.66831630     -1.00488893      2.81578320
O       1.12224379     -0.75858250     -1.38999408
H       0.77736955     -0.32601579     -0.57450193
H       1.57065348     -1.54797630     -1.03962985
