104
charge=-1
O       0.80704331     -0.56079570     -3.99808213
O       3.12471316     -3.58604810      1.36883506
O       0.67877808      1.00011336      5.35633675
N       0.19112369      2.77154442      0.23959858
C       0.77331219      0.24250360     -3.05267668
C       2.59454001     -2.50319456      1.20542530
C       0.47523209      1.95398843     -0.79511491
C       0.32611011      1.59533499     -3.19244825
C       0.19171021      2.40175404     -2.11176511
C       1.13503932     -0.17240960     -1.73358939
C       3.41104865     -1.28997036      1.03890783
C       1.12839014     -2.40006402      1.16207010
C       0.97914449      0.63157961     -0.64989982
C       2.84265704     -0.10212964      0.79836112
C       0.53050499     -1.23095535      0.90836209
C       0.14661052      2.75468687      3.87792806
C       0.06129242      3.17261589      2.58942231
C       0.98140964      0.61272097      3.09170286
C       0.59711937      1.43295087      4.19685138
C       0.40131060      2.33020504      1.49844054
C       0.89255730      1.03141102      1.80383378
C       4.88252100     -1.44423200      1.14717032
C       0.34909670     -3.64129574      1.39418010
C       3.67793404      1.11385657      0.60492027
C      -0.95037216     -1.13497354      0.86248773
C       1.32108950      0.07033373      0.71380996
H       0.07328907      1.95427773     -4.17238513
H      -0.16589701      3.40811972     -2.23788264
H       1.50474022     -1.17082638     -1.59389478
H      -0.13285152      3.40249620      4.68930719
H      -0.29693615      4.16282662      2.36629778
H       1.35420967     -0.37384420      3.29167501
H       5.28036424     -0.84215510      1.96568653
H       5.37921548     -1.14642750      0.22247217
H       5.14296067     -2.48537902      1.34528737
H      -0.38980078     -3.50021396      2.18471152
H       1.00885699     -4.45529990      1.69905183
H      -0.16908813     -3.95409675      0.48627579
H       4.29345855      1.31144351      1.48342163
H       3.05559543      1.99415252      0.43740163
H       4.33405036      1.00461881     -0.25967758
H      -1.26644546     -0.16392789      0.48098778
H      -1.37659165     -1.89923320      0.21144257
H      -1.37495521     -1.25104556      1.85959816
O      -2.77089404      2.11828877      0.00682948
H      -3.14552825      2.41066189      0.85174118
H      -1.80590010      2.18585203      0.11748807
O       0.24145590     -3.25583166     -2.85792462
H       0.48601360     -2.40786397     -3.28317152
H       1.05432471     -3.55640415     -2.40907237
O      -2.44490284     -2.14330596      3.94750710
H      -2.97564927     -2.19469294      3.13047760
H      -3.07115879     -1.86863483      4.63636237
O      -1.94861057     -1.44410556     -3.03138560
H      -1.09753085     -1.06358666     -3.31827259
H      -1.74180120     -2.38681587     -2.91690724
O      -3.29619457     -0.16483419     -5.33604070
H      -2.96948258     -0.59452632     -4.52000028
H      -3.21028334      0.79275782     -5.16602125
O      -0.11019721      2.55820793      7.63687819
H       0.57677105      2.35012402      8.29185897
H       0.13045083      2.03162774      6.84837639
O       3.10471832     -2.66265425      4.29378470
H       2.15765792     -2.52580464      4.49855060
H       3.12866873     -3.02517450      3.38760678
O      -2.82882176      2.65111039     -4.76247351
H      -2.01736291      2.94590050     -5.22001986
H      -2.84793056      3.15081470     -3.92459322
O      -0.75576466      5.45920558     -0.58244835
H      -0.03943055      6.08257605     -0.38974170
H      -0.42123158      4.57975571     -0.29009694
O      -0.72910080     -1.09259297     -6.48087649
H      -1.63169542     -0.82018930     -6.23314792
H      -0.21717328     -0.99823095     -5.65050368
O      -0.31740963      3.40368519     -6.10510417
H       0.17575992      4.11248013     -6.54639411
H       0.19850979      2.59225990     -6.27152096
O      -3.61316047     -0.59284237     -0.77990115
H      -3.36626815      0.33251988     -0.59203232
H      -3.09030414     -0.84607901     -1.56320924
O       3.70315153      2.56693910      3.45687752
H       2.75307085      2.70421258      3.30602985
H       3.74467794      1.78499201      4.03897517
O       1.19957335      0.97143145     -6.49449948
H       0.78906491      0.35194065     -7.12223572
H       1.17116925      0.48896138     -5.64520788
O       2.76110557     -4.03205361     -1.52482125
H       2.88612621     -3.88800257     -0.56886310
H       3.22572152     -4.86269126     -1.71060275
O       3.50946862      0.16288435      5.14832250
H       3.47136716     -0.78027736      4.90272060
H       2.57648201      0.41388310      5.31131865
O      -4.06001551     -2.23844358      1.53641745
H      -3.91232948     -1.66267816      0.76402431
H      -4.70615606     -2.89471066      1.23328469
O       0.32539721     -1.91938302      4.92227286
H      -0.58543595     -2.02545268      4.60132462
H       0.40649031     -0.96731720      5.13640837
O      -2.80095275      4.07556347     -2.19322835
H      -2.16294314      4.67386911     -1.76207207
H      -2.91716761      3.36750047     -1.53082806
O       3.41036761     -1.97490149     -3.63966619
H       3.21435175     -2.63602730     -2.94477529
H       2.57243217     -1.49211002     -3.79264144
