108
charge=0
O      -0.85373067     -0.05183519      5.20631044
O       1.01052035     -3.25040555     -0.66273757
S       2.12269242     -4.79746550     -3.75232865
O       0.23867368     -2.21603411      1.19342312
C      -0.42226981      0.03969419      4.04418306
C       0.93337956     -2.22624997     -0.00130732
C       3.16423143     -3.60057248     -4.24680582
C      -0.38112342     -1.09624266      3.19833165
C       0.65374369      1.31775645      2.28755864
C       0.21344896     -1.06137143      1.96018291
C       0.78957014      0.15003424      1.49969636
C       1.47184693      0.14272933      0.28742512
C       0.06997986      1.29003044      3.51609180
C       1.60476501     -1.00527675     -0.46937963
C       2.40703771     -1.01267199     -1.64822163
N       3.98534840     -3.74108525     -5.30389086
N       3.21885399     -2.41453457     -3.57771934
N       2.43679445     -2.07809451     -2.44820847
C       3.24446978      0.16144550     -1.98545595
C      -2.72024957      7.37932212      3.67816071
C      -0.17503971      2.54763799      4.27731274
C      -3.45009053      6.45828794      4.64423510
C      -1.60275153      3.05559786      4.07050452
C      -3.24593171      4.97523022      4.32535892
C      -1.81636449      4.48635883      4.55595264
H      -0.79978034     -2.01999533      3.54850150
H       0.99823494      2.25395772      1.88717953
H       1.90965282      1.06220553     -0.05388759
H       4.58505686     -2.96517652     -5.57159595
H       4.02580960     -4.54893674     -5.92392462
H       3.85460924     -1.71584819     -3.98681973
H       1.87388244     -2.86737081     -2.13752976
H       3.96463067     -0.07300158     -2.76656098
H       3.81499248      0.49577012     -1.11858862
H       2.62978187      0.99024387     -2.33700693
H      -1.63962665      7.24276317      3.72919299
H      -2.92389384      8.43232510      3.88267603
H      -3.01646695      7.18040067      2.64697049
H       0.01771835      2.37434133      5.34186047
H       0.54444423      3.31116498      3.96123737
H      -3.12508680      6.65599370      5.67350675
H      -4.52348912      6.69212216      4.63196230
H      -2.31260201      2.37811871      4.55940216
H      -1.84844345      2.99911646      3.00311439
H      -3.52520172      4.79288024      3.28118173
H      -3.93237126      4.35950848      4.91878730
H      -1.55806215      4.56617774      5.61814144
H      -1.11235843      5.14425277      4.03436844
O      -3.35086650      0.43059722      6.41549775
H      -2.48189804      0.28842106      5.99716676
H      -3.67816772     -0.46170199      6.60542055
O      -3.65931280      3.58375620      0.33625933
H      -4.05502341      3.66478707     -0.54601760
H      -4.37344650      3.83943487      0.94858256
O       1.98601265     -3.52672457      3.25311259
H       1.38740344     -3.12742083      2.58785951
H       1.65892319     -3.19561034      4.11109648
O       3.38497783     -4.24166537      0.75775602
H       3.07344821     -4.11082949      1.67021291
H       2.59963015     -4.00318926      0.22503038
O       0.86729973     -2.37837681      5.77227012
H       1.04732117     -2.40601717      6.72441185
H       0.29066607     -1.60038896      5.63837997
O       4.15370726     -6.10051494     -7.21354448
H       3.57847061     -6.79315819     -6.85479092
H       5.03792720     -6.49427440     -7.25954647
O      -1.30546783      5.04076417      1.46133777
H      -0.55162316      4.62288950      1.00417609
H      -2.09309176      4.59615994      1.08952569
O       0.79096427      3.54874457     -0.03233646
H       0.07535612      2.90148260     -0.18891866
H       1.19714284      3.69932905     -0.89966485
O      -1.42073435      1.77322795     -0.33488698
H      -1.68727669      0.83667506     -0.31621587
H      -2.21670582      2.28674618     -0.09729304
O       3.69096638      1.50231263     -4.85173922
H       3.50510928      2.28586542     -5.38999332
H       2.86208073      0.98608212     -4.85029316
O       3.21365447     -3.73117047     -8.67315371
H       2.96829576     -4.03542845     -9.56018612
H       3.52378874     -4.52583646     -8.19837849
O      -6.65952988      3.53791980      4.62144303
H      -6.00897278      3.31992234      5.31355804
H      -7.49358517      3.15474085      4.93212425
O       5.11277804     -3.04737952     -1.24495864
H       4.66861854     -3.49812761     -0.50685221
H       4.36350203     -2.81305762     -1.84660419
O       1.37875763     -0.33779529     -4.83553339
H       1.69048918     -0.67577134     -5.69612319
H       1.76778423     -0.96831161     -4.18323662
O       2.81381125     -1.29191146     -7.14913472
H       2.91971539     -2.09841329     -7.68544294
H       3.66363370     -1.19075720     -6.67589629
O      -5.78684476      4.45211311      2.05274415
H      -6.48580148      5.07376656      1.79749141
H      -6.06358437      4.11175809      2.92243813
O       5.24357155     -0.94353198     -5.39855612
H       5.86529067     -1.10715275     -4.66384881
H       4.86524259     -0.05944229     -5.22149147
O       6.84286716     -1.55123030     -3.04641042
H       7.74820449     -1.60964240     -2.70691228
H       6.30344448     -2.06806124     -2.41947181
O      -4.74601094      2.89596521      6.66278413
H      -4.58143736      3.16444095      7.57934692
H      -4.26946010      2.05230095      6.56019086
O      -2.10654229     -1.06890985     -0.25467252
H      -2.42464265     -1.74960941     -0.86571476
H      -1.36594538     -1.48831019      0.22231557
