103
charge=0
O       4.64271140     -0.39422049     -1.78206854
O      -5.25679536     -0.76074979      3.45049230
O      -5.59619425     -3.30279773      3.22738696
Br      7.53080844     -1.85989401     -6.65951758
Br      4.45889771     -3.50493892     -7.38707579
N      -0.56200880      3.18883561      1.53903273
N      -1.15757970      1.12666543      2.45646405
O       3.17398809     -0.75237646      0.61926125
O      -5.28432203     -2.20591274      5.55848561
C       4.00524812     -1.05747804     -2.58411600
C      -0.40893473      1.91881652      1.62303066
C      -0.80137703     -0.10644660      2.23225670
C       5.88625052     -1.26570887     -4.30158055
C       6.00963959     -1.87583239     -5.54704149
C       4.81585797     -2.50441375     -5.82696336
C       4.61309050     -1.53461701     -3.83107673
C       0.26134047     -0.17094594      1.23706043
C       0.85014469     -1.32177101      0.84505030
N       3.95456370     -2.27508916     -4.79226985
N       0.51746804      1.15699484      0.87670880
N       2.67584313     -1.37649368     -2.41081596
N      -1.29812113     -1.22997210      2.88395177
C       2.06564690     -1.38804444     -0.00641889
C       1.82105108     -0.79480069     -1.39433669
C      -2.54228258     -1.09188345      3.62193905
C      -3.26619088     -2.40518703      3.84317981
S      -5.07697015     -2.13717113      3.99358056
H       0.03782652      3.71897766      0.95221728
H       3.83401169     -0.60172695     -0.09686303
H      -6.03145576     -1.65324092      5.85988392
H       6.64771957     -0.68984139     -3.80190544
H       0.46098063     -2.24885044      1.22814055
H       3.05743330     -2.76822734     -4.66787335
H       1.48058827      1.50490146      0.78526288
H       2.22087910     -2.04902525     -3.04305355
H      -1.33289262     -2.08015677      2.30564916
H       2.35605175     -2.44678962     -0.13357489
H       1.99043507      0.28297712     -1.36194302
H       0.77348857     -0.94364348     -1.67467278
H      -2.33903413     -0.57598570      4.56881652
H      -3.18961998     -0.41952109      3.04155505
H      -2.89431693     -2.93005620      4.72389802
H      -3.11676262     -3.06746931      2.99172362
O      -7.41687792     -0.57519600      6.42860929
H      -8.28236329     -0.69853048      6.84453718
H      -7.35074733      0.38231036      6.26354324
O       7.26199687      0.76910869     -2.22173530
H       7.20328249      1.72587241     -2.07900049
H       6.36504706      0.42155022     -2.03579301
O       2.02767415      0.00360642     -5.53075102
H       1.99365059      0.01099323     -6.49813763
H       2.67858833     -0.69296849     -5.30275460
O      -2.65028876      2.25412537      4.86458725
H      -2.15091791      1.87600721      4.10323907
H      -3.58787023      2.20069854      4.60280503
O      -3.66882971      3.51140792      1.80904817
H      -2.71524636      3.33780801      1.68010745
H      -3.72018899      4.45641929      2.01818653
O      -1.51016741     -3.44774449      0.90548367
H      -1.49380254     -3.25714980     -0.05252514
H      -2.33071960     -3.95989650      1.03492841
O       4.16868283      2.37431068     -2.12055139
H       4.33692360      1.41308054     -2.05432841
H       3.38376816      2.44116698     -2.69670197
O      -0.34667418     -0.89288038     -3.89275250
H      -0.50181920     -0.14185110     -3.29118473
H       0.35933439     -0.56864121     -4.48702617
O      -7.20779291      2.25368362      5.90926196
H      -6.59012716      2.23260222      5.15436359
H      -7.29146699      3.19027128      6.14210656
O       3.19081184      2.47351854      0.57197739
H       3.86935000      2.15884811      1.18569183
H       3.60054754      2.44367432     -0.31211086
O       6.89259833     -2.10392298     -0.93406979
H       6.11390839     -1.57213194     -1.19587749
H       7.65138304     -1.50578247     -1.02488879
O       1.21564987     -3.37222260     -4.30176475
H       0.56566878     -2.64988347     -4.20538539
H       0.73306087     -4.18600276     -4.09783173
O      -1.83195508      4.85881426      3.70174899
H      -1.35483410      4.36842246      2.99529684
H      -2.14089477      4.14424070      4.28768063
O      -5.36183354      2.08689527      3.71703627
H      -5.36786031      1.12851235      3.52847801
H      -4.89758040      2.51502537      2.97323291
O      -4.05408719     -4.80522073      1.33057458
H      -4.64394307     -4.32430558      1.94152323
H      -4.52853993     -5.62187128      1.11675084
O       1.34705147      4.63088207     -0.06411889
H       2.02705903      3.95814963      0.13518449
H       1.82612658      5.46501356     -0.17413488
O      -1.56424901     -2.81204149     -1.98772050
H      -1.18323172     -2.16673449     -2.61245873
H      -2.47141125     -2.95732030     -2.29811473
O       1.98334315     -1.19915211      3.54006641
H       1.01445974     -1.18887898      3.38131678
H       2.40504645     -1.03734277      2.67159915
O       1.75240255      2.33712132     -3.76409640
H       1.52805893      3.09980416     -4.31672878
H       1.85475299      1.58467511     -4.37951386
O      -0.39773827      1.30532147     -2.01870974
H       0.30776382      1.78690561     -2.49315147
H      -0.13458269      1.29352229     -1.07306676
