75
charge=0
O      -0.05081833      2.59704756      3.03870143
O      -1.66933080      2.14865221     -1.16482155
I       2.03796827     -2.92579355      2.25526100
I       1.32270172     -3.07261155     -1.16619815
I       1.82402183      0.09562101      3.88550264
I      -0.33321379     -0.38765038     -2.65109712
O      -1.01863752      2.75396549      0.95257533
C      -0.29480890      2.14295879      1.94365305
C      -1.05606663      1.93610616     -0.14543335
C       1.24092463     -1.28792298      1.27442125
C       0.83631432     -1.38584483     -0.05537657
C       0.97699404     -0.15157411      2.01631668
C       0.11030426     -0.36683404     -0.64124311
C       0.19379485      0.84268184      1.44536940
C      -0.25004819      0.72856733      0.13182784
O      -1.43245299      0.85845018      4.97637695
H      -1.34487132     -0.04187166      4.60175804
H      -0.99295182      1.46164874      4.34354154
O      -0.75252938     -3.15137813     -5.99899081
H      -1.08528340     -3.53580537     -6.82368736
H       0.19661591     -3.34663250     -5.98956511
O      -2.43510443     -2.49190098     -0.66046872
H      -2.87671334     -1.63231536     -0.78850237
H      -2.33823439     -2.85266017     -1.56297226
O      -1.21619126     -2.03663126      4.02463829
H      -2.03935113     -2.21806295      4.50607315
H      -0.51724939     -2.49458577      4.53230405
O       4.25123770     -1.21981536      0.25183993
H       3.83690789     -0.34764240      0.11183579
H       5.20145353     -1.06701970      0.12718082
O       0.40424279     -6.10161917      2.10882406
H      -0.15207650     -5.32108839      1.92691128
H      -0.10653085     -6.85496107      1.77697199
O      -1.26823137      5.22229417      2.47336691
H      -0.91802613      4.34683046      2.73214547
H      -1.75359458      5.05579012      1.64436761
O       2.33121540      3.61628190      1.53665047
H       1.63537527      3.28884212      2.13872573
H       1.95631887      4.44677504      1.19016416
O      -1.20846176     -3.77479858      1.59999340
H      -1.65308583     -3.33514093      0.85346691
H      -1.26839574     -3.14927637      2.34712124
O      -3.66913520      0.08798263     -1.17745036
H      -3.00498005      0.80417987     -1.19067104
H      -4.50960437      0.53140081     -0.98979692
O      -1.77759261      5.05050272     -0.56129616
H      -1.74828027      4.07628595     -0.67341258
H      -0.86923320      5.31292552     -0.31412793
O      -1.02244158     -0.21230187     -5.76064883
H      -0.94401117     -1.18299850     -5.83754589
H      -1.94164627     -0.00369556     -5.99050557
O      -2.13322335     -3.51240315     -3.40460253
H      -1.67318222     -3.37353478     -4.25448512
H      -2.89406540     -4.07687991     -3.61320228
O      -1.46485947      3.69460492     -3.55788726
H      -1.74949559      4.58280799     -3.29757676
H      -1.54973389      3.16010268     -2.74357114
O       0.87277463     -3.46785520      5.47762622
H       1.40144354     -4.16656812      5.04799118
H       1.12469649     -3.49696257      6.41245331
O       0.88089144      6.03633269      0.69688373
H       0.21300869      5.87369539      1.39129175
H       1.03771550      6.99225649      0.70878954
O       0.57350159      2.11118689     -4.87289990
H       0.07784562      1.34431714     -5.21876751
H      -0.11076960      2.69077057     -4.48739337
O       2.68542225      2.28142572     -2.90227266
H       3.21810931      3.03299152     -3.20569445
H       1.97379242      2.19985616     -3.56301446
O       3.09573519      1.36187908     -0.17290261
H       2.87179974      2.12293399      0.39380508
H       2.95162371      1.67451172     -1.08585008
O       2.44092958     -5.55061460      4.10561862
H       1.77635070     -5.78240045      3.42719122
H       3.10170182     -6.25816174      4.07101399
