86
charge=0
O       0.25362303      5.15106503      0.61871880
N      -2.91771462     -3.27060440     -2.28754111
N      -0.89810068     -3.71320865     -1.47922516
O      -1.44671438     -4.85942596     -1.88247425
C      -2.69482181     -4.55588105     -2.33149001
C      -1.81104794     -2.75149670     -1.71601722
C      -1.56720447     -1.35840270     -1.50951383
C      -0.31836915     -0.89763332     -1.31758139
C       1.41784960      0.81643228     -1.12621148
C      -0.86849439      1.49092556     -0.88245887
C       1.82313712      2.10684754     -0.89649377
C      -0.45664985      2.77900110     -0.64239172
C       0.06317983      0.47713142     -1.11691738
C       0.89010136      3.09417400     -0.62803571
S       1.41862469      4.78612677     -0.23613423
C       2.52220283      4.33662856      1.13820081
H      -3.40542036     -5.27697901     -2.72180828
H      -2.40294928     -0.68461943     -1.55563545
H       0.48015032     -1.61709565     -1.35349086
H       2.14423981      0.04476677     -1.30910547
H      -1.91424526      1.24919875     -0.83575771
H       2.86979532      2.35270290     -0.92773391
H      -1.17695845      3.55426879     -0.44479879
H       2.70122617      5.20709343      1.76140309
H       3.47167742      3.96438299      0.76610279
H       2.05503506      3.56861849      1.74522820
O      -2.28051970      6.12237571     -0.23491095
H      -2.34446530      7.03782439      0.07588210
H      -1.40425713      5.81431410      0.06332035
O       4.98212746      1.86106387     -1.32625099
H       5.81819266      2.21380165     -1.66638937
H       5.01358845      1.99611204     -0.35836870
O       4.36182580     -0.98569128     -0.87796983
H       4.56802843     -0.07568500     -1.16113893
H       3.84282475     -1.40238483     -1.58540414
O      -0.63490688      3.55695508      2.84262129
H       0.18709077      3.45428820      3.36023908
H      -0.38642819      4.15174433      2.11033442
O      -3.12854097      2.06482720      2.71289975
H      -3.72742420      2.41194900      3.38927828
H      -2.32244692      2.61105905      2.78137735
O      -3.85197207      1.42080582     -0.08708952
H      -3.96802290      2.28016283     -0.53409772
H      -3.67556847      1.65676913      0.84574061
O       1.80511492     -4.36502530     -0.35770597
H       1.69702467     -5.15963510      0.18750352
H       0.91169538     -4.23293045     -0.74001005
O       0.10536214      0.84420704      1.99359859
H      -0.70270453      0.31225815      1.90204176
H      -0.20040153      1.73487441      2.24462081
O       1.97064750      2.93865386      4.09420371
H       2.30492727      2.12286526      3.67665961
H       2.29866831      2.91453887      5.00510884
O      -3.99515751     -1.78603048     -4.65303506
H      -3.71578832     -2.23950476     -3.83047110
H      -3.26342967     -1.98183722     -5.27181063
O       2.68905685     -2.06511858      1.19964539
H       2.42235082     -2.89603949      0.76249890
H       3.32409048     -1.68667687      0.56170495
O      -0.27391681     -2.75824843      1.85617270
H       0.61100390     -2.36213002      1.74596245
H      -0.92091057     -2.02728660      1.85580174
O      -0.40076516     -5.49832671      0.83282571
H      -0.82684134     -5.34577148     -0.03994900
H      -0.40988977     -4.62179479      1.26456655
O      -1.63749842     -2.54427170     -6.32889482
H      -1.85020781     -3.22297790     -6.98757774
H      -1.27224855     -1.79920753     -6.83017162
O       2.81421860      0.47805714      2.58436070
H       2.94124539     -0.42378349      2.25858927
H       1.87241356      0.62170172      2.37150189
O      -3.98205384      4.04277330     -1.27420701
H      -4.53486745      4.46075222     -1.95126745
H      -3.41944905      4.75777459     -0.92228368
O       4.91505604      2.18172633      1.55172691
H       4.21611587      1.59836492      1.90249400
H       5.61216036      2.17071657      2.22423001
O       0.19109889     -3.39649992     -4.11644673
H      -0.35004727     -3.88953413     -3.46237237
H      -0.42779484     -3.12880088     -4.82246310
O      -2.37016936     -0.61889258      1.76670701
H      -2.71930066      0.21428658      2.13850641
H      -3.07908857     -0.94588489      1.19511566
O       2.46428189     -2.44829774     -2.52818553
H       2.37949984     -3.11964454     -1.82320736
H       1.77777008     -2.71128852     -3.16800591
