101
charge=0
N      -1.52325496     -2.57667860     -3.90231314
N      -1.68647130     -0.04134533     -1.82418057
O      -0.83831686     -0.52227526     -6.42017523
O      -1.23084457      2.09568774     -4.42673956
O       0.62965628     -3.59997068      1.68146788
S       3.33559095     -0.80845196      2.31985701
C      -1.48660914     -1.30252282     -4.02335965
C       2.74472785     -2.36744472      1.84195060
C       0.83570931     -1.22937040      2.50890528
C       1.39917960     -2.44455133      1.99469979
C      -1.19250690     -0.35130672     -5.09281952
C      -1.36604110      0.72854038     -4.23154040
C       1.74622359     -0.26758757      2.77023638
C      -0.03217573     -1.67650449     -1.23115803
C       0.47226916     -2.71084196     -0.57975214
C      -1.68425711     -0.16828362     -3.11419988
N       1.14087893      0.91763143      4.83168593
C      -1.37763113     -1.09639326     -0.97285473
C      -0.21006959     -3.40221684      0.54390177
C       2.32817049      0.48174758      5.60437575
C       0.51139428      2.13595220      5.35517780
C       1.42468260      1.04144207      3.38077437
H      -1.31293023     -3.15966035     -4.67624966
H      -0.41980636      0.29317171     -6.78209620
H      -1.27415324      2.57008074     -3.56443696
H       3.35745289     -3.16610600      1.47430290
H      -0.21696025     -1.10302983      2.69651605
H       0.55399630     -1.20701413     -2.00434976
H       1.45318762     -3.07164637     -0.83835708
H      -1.43298932     -0.72888254      0.05886587
H      -2.15242135     -1.86394885     -1.07863105
H      -1.08681280     -2.83907692      0.87923059
H      -0.57164611     -4.38761751      0.22616046
H       3.12587555      1.21582414      5.51466988
H       2.68652656     -0.47571109      5.23288377
H       2.06940828      0.37302561      6.65592540
H       0.23011432      1.98958030      6.39664893
H       1.20462516      2.97243006      5.29671499
H      -0.38418039      2.37459329      4.78478857
H       2.24742899      1.74608325      3.23366041
H       0.54774882      1.46474222      2.88543416
O      -1.67048706      1.80197937      2.25208192
H      -1.96527205      0.94489393      2.61357647
H      -2.16444917      1.90483768      1.41646377
O      -0.60900507     -1.30520198      5.95829486
H      -0.05461282     -0.61795007      5.52182463
H      -0.77169085     -1.99039738      5.28348482
O      -2.29685575     -4.26309338     -1.58467791
H      -2.03083713     -3.70703292     -2.35150126
H      -3.21071588     -4.53307699     -1.76839597
O       1.06586149      1.46263724     -7.88266932
H       1.41459091      0.63903195     -8.27197067
H       1.43235537      2.16604945     -8.44016483
O       0.60281357     -2.81811954     -7.30460558
H       0.10468953     -2.03545264     -6.99595382
H       0.13163723     -3.55799675     -6.88126264
O       2.42674924      1.05465182     -0.44382170
H       2.61928345      0.43495394      0.27974859
H       2.44592889      0.53439064     -1.26767401
O       0.15505706      4.05652745      2.20464938
H      -0.51074089      3.34485751      2.23660114
H       0.54661385      3.98505497      1.31416522
O      -2.54029518     -0.79070926      3.30710471
H      -2.14607376     -1.66497898      3.48627536
H      -3.20740139     -0.67110183      4.00037193
O      -0.99062996     -4.82634355     -5.93421346
H      -0.62027341     -5.59980174     -5.48248976
H      -1.78302676     -5.14375808     -6.39356965
O       1.34356276      3.69611633     -0.43239714
H       2.03123347      4.26137832     -0.81473248
H       1.71979786      2.79601010     -0.44100771
O      -1.20147369     -3.33787258      3.90475690
H      -1.43943751     -4.23440809      4.18097172
H      -0.56068541     -3.45835227      3.17898465
O       2.10796887     -0.99931849     -8.97108960
H       1.63723359     -1.66557943     -8.43693391
H       2.62273126     -1.50786497     -9.61484224
O       1.58293013      1.47961207     -4.99601948
H       1.53089858      1.47444020     -5.96917955
H       0.68692131      1.75782308     -4.72771982
O      -1.34849634     -0.52076672     10.67990774
H      -1.42479148      0.06985420     11.44500926
H      -1.76781127     -1.35397433     10.94406486
O      -1.15837680      3.56115254     -1.93981320
H      -0.33159697      3.64832242     -1.42994703
H      -1.80138942      3.17230952     -1.31862943
O       1.56665481      4.99445474      4.51131929
H       1.56257427      5.96347023      4.46397576
H       1.08640088      4.69687277      3.71506845
O       2.42933117     -0.38337848     -2.95952922
H       2.15081994      0.25281164     -3.63769101
H       2.91986542     -1.06319840     -3.44574819
O       0.12768054      0.33505426      8.28815641
H      -0.17373770     -0.26343643      7.57785454
H      -0.35921670      0.05297687      9.08586374
O      -3.07238672      2.06639058     -0.29448687
H      -2.64911735      1.34257028     -0.81143697
H      -3.98528872      2.11635190     -0.61281570
O      -1.39720112      2.96475527     -7.18710470
H      -1.44153034      2.73430505     -6.23874429
H      -0.59796189      2.49833989     -7.50336661
