69
charge=0
N      -0.10125482      1.36963227      2.17971083
N      -0.44159830      0.23459653      2.54783469
N       0.34014927      0.07276361      0.44124640
S       0.89118380      2.68377987     -0.09299830
C       0.36028348      1.29118517      0.85895675
C      -0.17527252     -0.66663638      1.50380469
H      -0.38890352      2.85374042     -0.49401310
H       0.54409553     -1.43451389      1.82770513
H      -1.10600139     -1.16442501      1.19502818
O      -4.69091894      2.35172185     -0.00743107
H      -5.56368545      2.71370260      0.20828226
H      -4.62236849      1.52496439      0.50558720
O      -3.48907402     -2.28591562     -0.24291255
H      -4.27595491     -2.69376441     -0.63495113
H      -2.86412695     -2.18492084     -0.98462523
O       0.50619008     -3.76259581      2.58205789
H       0.60201276     -4.51923936      1.97056830
H      -0.43865851     -3.52932589      2.54679972
O       2.48174269     -3.55605094     -0.27275614
H       2.00748624     -4.37354464     -0.02507298
H       2.81248435     -3.20174750      0.57294178
O      -4.46460806     -0.10172424      1.48809108
H      -4.01938883     -0.24987722      2.34348786
H      -4.15809948     -0.82598957      0.90813030
O       3.28377105      5.32921468      0.60068938
H       3.58189642      4.41223600      0.74869304
H       2.81346164      5.28033147     -0.25561940
O      -1.62724084     -2.08572819     -2.47567335
H      -0.67845096     -1.98382909     -2.27023327
H      -1.65569995     -2.58543180     -3.30525029
O       0.96110102     -5.95887567      0.63418177
H       0.23589083     -6.32149613      0.10402130
H       1.47972121     -6.72537169      0.92079809
O       2.90229031      0.27166520      2.24466173
H       1.99210323      0.44889847      2.55680359
H       3.01745331     -0.69501344      2.30874686
O      -0.88814620      5.55412388     -1.87918125
H      -1.53016840      6.26500171     -1.73431569
H      -1.38173543      4.72839599     -1.72058921
O       1.36964980      0.57862134     -3.75755488
H       1.88261146      0.30201214     -4.53168482
H       1.38309032     -0.18363293     -3.14574085
O      -2.25613272      3.10272675     -1.36617543
H      -3.08741069      2.86827564     -0.91570784
H      -2.06907294      2.35269515     -1.96246769
O       3.11765363     -2.62957149      2.48357585
H       3.67773132     -2.95355428      3.20392228
H       2.23427806     -3.01636337      2.63960900
O       1.91847224      4.99142790     -2.02710901
H       2.27406414      5.69841655     -2.58796806
H       0.96331008      5.17622728     -1.96741546
O       3.19228096      2.32946702     -2.16670363
H       2.58873211      1.78061675     -2.70402849
H       2.78816880      3.21995734     -2.15515392
O       3.95965084      2.50365373      0.70420923
H       3.63514114      1.73029278      1.20269129
H       3.75413542      2.33462798     -0.23673469
O      -1.49457793      0.86290998     -3.02189552
H      -1.65989460     -0.08008930     -2.83204755
H      -0.56579108      0.88848022     -3.32027709
O      -2.24675935     -2.95997648      2.31064122
H      -2.55179352     -2.26134009      2.91900373
H      -2.70559026     -2.78852876      1.46644556
O      -2.92372394     -0.59536547      3.98447517
H      -2.97684430     -0.23155140      4.87873526
H      -2.09282586     -0.24063752      3.60157719
O       1.17487319     -1.58495718     -1.85820085
H       0.93129769     -0.99728686     -1.10596612
H       1.69840482     -2.28226108     -1.43006161
