101
charge=0
O       6.12529738      1.89849377     -1.87445801
N       8.76304118      5.38531176     -0.69877120
N       8.99632084      4.97141185     -1.87131955
N      -1.75802023     -2.43676187      0.26181126
N       7.78298782      5.17495310      0.12016027
N       3.91935104      3.70221785      1.02429335
S      -1.91913457     -0.82117094      2.25546815
C       5.43066852      2.51508650     -1.07459871
C      -1.14325957     -1.40611435      0.78573587
C       7.11928225      4.34849390     -0.70951386
C       3.47477542      2.62814344      0.34742499
C       5.07346300      4.19226968      0.62652439
C      -3.02282977     -2.13338654      2.16277783
C       2.28347677      2.03137384      0.75423104
C       2.42458170      0.44831031     -1.03781568
C       5.86702094      3.69891571     -0.39466078
C       1.75790410      0.92463209      0.11568050
C       3.57464720      1.02906167     -1.44315370
C      -2.80046772     -2.86153893      1.03840352
C       0.00867071     -0.82413241      0.19396100
C       0.58191910      0.30592070      0.65351085
N       7.86701464      4.24942295     -1.93177228
N       4.14232926      2.06581260     -0.73563237
C      -2.81292593     -5.22462995      0.22305597
C      -4.57147999     -3.58641429     -0.55530572
C      -3.66841491     -4.01689548      0.59896987
H       5.43302863      5.05862504      1.15794324
H      -3.79310366     -2.33485573      2.88116790
H       1.76937034      2.43681805      1.60301934
H       2.01919542     -0.37708103     -1.59350854
H       4.06389177      0.71124718     -2.34693766
H       0.42603264     -1.32294174     -0.66057672
H       0.12353540      0.78890018      1.49779722
H       7.51128569      3.89072322     -2.83711135
H      -2.16652627     -4.98676111     -0.62116770
H      -2.17040585     -5.52670235      1.05053979
H      -3.42773069     -6.07932442     -0.06052698
H      -5.23520835     -4.39252320     -0.86888323
H      -3.97453715     -3.29182709     -1.41817711
H      -5.18687841     -2.73052714     -0.27695608
H      -4.30356004     -4.29513871      1.45638145
O      -6.44937303     -5.15517612      2.25189693
H      -6.89410648     -4.89542746      1.42466004
H      -6.74864054     -6.06177932      2.41962277
O      -5.32623910     -3.28240427      4.12087986
H      -5.73181223     -3.89799353      3.48266599
H      -4.93630027     -3.84845439      4.80468462
O      -7.81636505     -1.83960471     -1.31118409
H      -7.08463240     -1.24074388     -1.07609888
H      -8.44290522     -1.28455783     -1.79889526
O       1.78825305      4.44027681      3.02724554
H       2.50363237      4.23288435      2.38496113
H       2.13706696      5.18096873      3.55452936
O       2.90479371      6.64646913      4.55117651
H       3.67924840      6.61333345      5.13274885
H       2.63145741      7.57589672      4.52925087
O      -6.15124821     -0.52392962      4.36714782
H      -5.88834851     -1.46217186      4.30420440
H      -6.80516104     -0.48388109      5.08059552
O      -7.76201420     -4.48084378     -0.20874739
H      -7.77928146     -3.57317682     -0.56251480
H      -8.40571085     -4.96693702     -0.74590057
O       1.82209861     -2.11823695     -2.80338747
H       2.47319597     -2.54116293     -2.21027231
H       0.98150165     -2.59453309     -2.68206373
O      -2.86501756      0.17648845     -1.36617301
H      -2.53331282     -0.47536812     -0.72071413
H      -2.52019014      1.01998464     -1.02328103
O       6.59347639      3.02657112     -4.40732399
H       6.73747968      2.32489704     -5.06127205
H       6.33905715      2.56490272     -3.58361249
O      -2.76716481     -1.57557320     -3.69294613
H      -3.11719359     -1.10914351     -4.46609635
H      -2.83201050     -0.94087094     -2.95319307
O       4.04221025     -2.96952963     -1.10680661
H       4.55235503     -3.58971826     -0.56516568
H       4.69849527     -2.33182538     -1.44655219
O       9.04324924      1.69083706     -1.43329476
H       9.32520634      2.62842372     -1.46824807
H       8.07315660      1.71889636     -1.56762108
O       3.80579244     -0.61498600     -4.26714172
H       3.09488065     -1.12536291     -3.83451866
H       3.55057124     -0.55774638     -5.19972032
O      -4.98798549      0.71600818      2.06201602
H      -4.08822389      0.34767621      2.12707489
H      -5.44395469      0.37541756      2.85243741
O      -1.77576268      2.50899315     -0.07433809
H      -1.87543066      3.43347756     -0.34642741
H      -1.34012644      2.54760824      0.79771245
O      -0.81476243     -3.30197886     -2.41005878
H      -1.10090413     -3.04912385     -1.50156484
H      -1.43729521     -2.81248960     -2.97868470
O      -0.43433697      2.63969972      2.54915889
H      -0.85458203      2.47634750      3.40691763
H       0.27590507      3.28158896      2.73553367
O      -5.66444143     -0.11026554     -0.61644512
H      -4.77281423      0.00137514     -0.99256044
H      -5.55944459      0.21223263      0.29669167
O       5.88554505     -0.99683124     -2.26805380
H       6.06954402     -0.05942603     -2.06589896
H       5.28817101     -0.94202963     -3.04029465
