95
charge=0
S       5.57328656     -0.53085210      0.23746615
Br     -4.37296500     -3.96327611      0.50712976
N      -4.04142610     -1.18247772      1.09339821
N      -2.00261185      1.84585385      1.26736936
N      -0.71882061     -0.08324944      0.61367006
O       0.77245885     -2.27785568     -2.97801854
O      -1.94413363     -3.16415238     -2.47359529
O       0.10458497     -3.01436494      0.60468472
O       2.96912132      0.82254459      0.78429084
O       3.86529912      1.18717734     -1.66995337
O       2.90755810     -1.17795292     -0.94597691
C      -3.47854634     -2.30813443      0.73107444
C       0.29382344     -2.60710983     -1.72692349
C      -0.98544117     -2.95564230     -1.50088823
C      -0.87299428      1.20859593      0.86582983
C      -3.08661166      1.13484861      1.35896456
C      -1.83777898     -0.79627128      0.73023998
C      -3.06159247     -0.23317325      1.09154168
N       0.26259964      1.99275163      0.71752297
N      -2.11523731     -2.13542600      0.52504889
C       1.80630775     -1.38506842     -0.10531313
C       1.04980206     -2.68191054     -0.42584429
C      -1.17707439     -3.12200954     -0.02509089
P       3.72718561      0.13359614     -0.46271406
H       1.74311873     -2.41600289     -3.00673229
H      -1.58015447     -2.91982649     -3.35714574
H       3.25178005      1.75504918      0.88939239
H       2.94255132      1.37395654     -1.93678143
H      -4.00324536      1.61809002      1.65750619
H       1.17707852      1.56584951      0.83308923
H       0.28158570      2.98823685      0.90842295
H       1.13555410     -0.52370070     -0.22362221
H       2.16297486     -1.39406407      0.93778771
H       1.75968990     -3.52285752     -0.46855730
H      -1.57382604     -4.12216511      0.18841258
O      -0.92981610     -2.52385189     -5.13422261
H       0.03540269     -2.61152116     -5.24473383
H      -1.30283730     -2.75712226     -5.99797923
O       2.51571531     -5.33870020     -1.95241099
H       2.93692371     -6.20757930     -1.87576371
H       1.55773441     -5.52222609     -1.93821629
O      -6.35557658      2.29223259      2.46616572
H      -7.24584732      2.58843074      2.71143982
H      -5.79685288      3.08529049      2.56267402
O      -1.84763432      4.56778618      2.32845385
H      -1.93432274      3.64421642      1.99941560
H      -1.07604577      4.88837007      1.82729364
O       0.63578398      5.01432796      0.98213166
H       1.07387777      5.28345824      0.16252878
H       1.29592184      5.16445121      1.68397223
O       3.52540866      3.55067930      1.19431354
H       3.30792827      4.17065904      1.91349008
H       4.49576637      3.52054942      1.12252157
O      -0.36228409     -5.83877726     -1.81738752
H      -0.93417656     -5.10893538     -2.12063106
H      -0.63953555     -6.01532904     -0.89778409
O       1.99073621     -2.81557328     -5.63464290
H       2.59025712     -2.77904286     -6.39527450
H       2.57397515     -2.86976164     -4.85431325
O       6.27075295      2.89310086      0.67104905
H       6.22505540      1.92103845      0.70103758
H       6.30345247      3.09110188     -0.28217302
O       1.13077442      1.61741541     -2.13132501
H       0.75655465      1.73708940     -1.23289231
H       0.44686791      1.15718904     -2.64590182
O      -5.89217497     -0.46413029      3.44143216
H      -6.09432260      0.46233626      3.20503028
H      -5.28887170     -0.76731590      2.72977713
O      -1.09920611     -3.95269748      2.92624515
H      -0.35222440     -3.53196639      3.37609559
H      -1.36436960     -3.31629555      2.22413856
O       2.51473418      5.37096451      3.24918400
H       3.07440157      5.94907094      3.78727387
H       1.71919058      5.20962125      3.79254446
O      -1.14426471     -6.19031795      0.98552923
H      -1.39336503     -7.00437463      1.44758885
H      -1.09235824     -5.50782157      1.68078599
O       3.61745054     -2.93570658     -3.12821748
H       3.36985282     -3.79588364     -2.73542574
H       3.62141424     -2.30848195     -2.37987339
O      -6.69064225      0.18931181      0.40080475
H      -5.85306551     -0.29818336      0.55743605
H      -6.65914029      0.92888623      1.03907709
O       0.00340535      4.90760705      4.63980864
H      -0.65997803      4.78382591      3.93524126
H      -0.46839963      4.74177239      5.46877527
O       6.01086171      3.06739077     -2.19450602
H       5.27856805      2.42743952     -2.08922455
H       6.06746965      3.24554461     -3.14443040
O      -0.76729603      0.08459792     -3.63507319
H      -1.41996983     -0.16147570     -4.30512804
H      -0.27107662     -0.73948300     -3.46518537
O      -4.73190482      4.66681649      2.76015267
H      -3.76710120      4.64668742      2.62411241
H      -4.95233961      5.60507381      2.86008036
