110
charge=0
O      -0.00587271      4.26650654      1.44396602
O       3.75448759      3.47903299      2.13914353
O      -0.52811268      2.18771031      1.06809521
O       2.01293941      3.82695887      3.39309217
N       2.85284788     -2.03832561     -1.02814826
C       2.87267453     -0.81524568     -0.55792009
C       3.69181570     -0.27923952      0.47569599
C       3.36087206      0.90728448      1.02907044
C       1.44215555      1.16372420     -0.47415400
C       2.18373685      1.63264506      0.63443404
C       1.77042621     -0.03132898     -1.06758684
C       1.70387570      2.69721940      1.39693792
C      -0.40025044     -1.03595210     -1.89794607
C      -0.94624561     -2.21216519     -1.51761807
N       1.03035079     -0.88575203     -1.89727813
N       0.31308200      3.07206807      1.30676732
N       2.53551846      3.36637138      2.36351996
C      -1.23750337      0.16361788     -2.22025914
C      -2.43114263     -2.45785354     -1.48014635
C      -0.02306643     -3.34656274     -1.17095071
C      -2.68303149     -0.19517245     -2.59130640
C      -3.28072643     -1.17940853     -1.57975292
C       3.72497112     -3.16321524     -3.52857881
C       2.99758972     -4.52597754     -3.43108307
C       2.76075417     -1.96227920     -3.43065076
C       2.04550519     -4.60490584     -2.21573807
C       1.93590051     -2.07008560     -2.11904698
C       1.10615380     -3.38556108     -2.20570793
H       4.55663921     -0.82759357      0.80581968
H       3.95734415      1.30873995      1.82719684
H       0.58989653      1.72292643     -0.80995010
H      -1.24911383      0.83124178     -1.35213551
H      -0.75441260      0.72998787     -3.02620066
H      -2.67503449     -3.00167010     -0.55953229
H      -2.69116651     -3.13631838     -2.30043673
H      -0.56141607     -4.29968155     -1.13422086
H       0.39793170     -3.18980970     -0.17276885
H      -3.30016863      0.70956674     -2.65029049
H      -2.70909623     -0.63655211     -3.59507305
H      -3.33632317     -0.69782657     -0.59599966
H      -4.32026713     -1.41790646     -1.84502448
H       4.31069635     -3.10716071     -4.45549558
H       4.45958558     -3.09632244     -2.71688280
H       3.73586434     -5.33814966     -3.37964795
H       2.43020361     -4.70308183     -4.35185593
H       3.30511593     -1.01214600     -3.42894511
H       2.08466655     -1.93158939     -4.29015440
H       1.46249890     -5.53379262     -2.22097576
H       2.62207886     -4.62395853     -1.28782886
H       0.61704625     -3.35594883     -3.19334080
O      -1.26901514     -4.86117288      1.31027652
H      -1.69627723     -4.00186561      1.48266190
H      -1.97829465     -5.51722244      1.44218723
O      -0.22922648     -0.68637908      1.20298098
H       0.18787250     -0.79616752      0.32638371
H      -0.32627006      0.27932960      1.29365417
O       0.69028266      4.88175657     -1.31760971
H       1.44676222      5.45938368     -1.12695811
H       0.33317139      4.67681968     -0.43457533
O      -3.31403900      2.61614226      1.15511640
H      -3.27886770      3.42970554      1.68451439
H      -2.36660091      2.40062878      1.07263622
O      -4.65541261      0.44440789     -4.94416532
H      -5.20655722      0.36832723     -4.14089437
H      -4.14196348      1.25801163     -4.77960811
O       5.69790255     -4.84435720     -1.55968168
H       6.59795455     -4.69703961     -1.23277094
H       5.12731394     -4.66485231     -0.78881013
O       5.53656070      1.81091830      3.63847906
H       4.96594775      2.46661490      3.19851508
H       5.53659498      2.06635222      4.57242822
O      -0.40300021      3.11683352     -3.27673037
H       0.13682469      3.29385390     -4.06278789
H      -0.05720142      3.72539003     -2.59920109
O      -2.54636875     -2.28308310      1.69904523
H      -3.24160248     -1.59998725      1.71219712
H      -1.72456719     -1.76450296      1.60265279
O      -4.70732035      2.98091287     -1.32675514
H      -4.22478778      2.85307454     -0.48963090
H      -5.08959213      3.86882390     -1.25989202
O      -5.99121060      0.52991242     -2.31915539
H      -5.59239493      1.34955947     -1.96634910
H      -6.91889030      0.55070619     -2.03983852
O       2.44281471      5.81481714      0.78716263
H       3.12233530      5.26866687      1.21928718
H       1.60638289      5.44951147      1.13593862
O       3.97063793     -4.12380418      0.71440462
H       3.59158108     -3.39026242      0.17544501
H       3.19338725     -4.54553892      1.12019076
O      -3.21979088      2.75815611     -3.90160613
H      -2.27788088      2.91775825     -3.70359710
H      -3.69370951      2.90937742     -3.05939438
O      -2.57942055      4.98545845      2.57535979
H      -1.68433449      4.78614033      2.23729114
H      -2.44255336      5.62597313      3.28840909
O      -3.43733483     -6.76964143      1.71935213
H      -3.48589433     -7.72387183      1.55715117
H      -4.23578359     -6.54623016      2.22145218
O       6.44800321     -0.35634164      1.94479613
H       6.12560315      0.33719251      2.54928763
H       7.35387340     -0.08295766      1.72840354
O       6.70881673     -3.15269082      1.02730397
H       5.79169951     -3.48796877      0.99753910
H       6.63413197     -2.23954796      1.36604082
O       1.54850167     -5.27077201      1.74021299
H       0.59764466     -5.12512952      1.58295768
H       1.59037684     -5.75579396      2.57852998
O      -4.41946749     -0.04476081      1.57345812
H      -5.20974902      0.08214812      2.11983557
H      -4.05230091      0.85000067      1.44502481
