95
charge=0
O       2.51993827      1.76072549     -2.10636079
O      -2.07110947     -0.21869661      2.78048726
O       1.62627390     -0.18819771     -2.41800859
O      -1.63516293     -1.77280687      1.33604152
O       3.05115752      3.23085305      2.51577596
O       1.25215509      3.15606272      3.73580757
S       1.31026593     -1.84637499      0.24656244
C      -1.52877139     -4.53191135     -2.60177897
C      -0.46020865     -4.85269027     -1.79861494
C      -2.10497180     -3.28644331     -2.83662659
C       0.31274745     -4.01095281     -1.01073264
C       1.84556074      1.74786371      0.52695219
C       0.28281893      1.03517736      2.24248445
C      -1.76523350     -2.06524317     -2.31520475
C       0.18403949     -2.66031394     -0.82628218
C       1.43252330      0.77433774     -0.31875052
C      -0.18931107      0.03573189      1.46058652
C       1.33252345      1.85897432      1.82463427
C      -0.75753290     -1.76048507     -1.39151584
N      -0.59104878     -0.48891768     -0.89694040
N       1.88809098      0.77883181     -1.68853739
N      -1.35935466     -0.69859610      1.88618355
N       1.90709407      2.80776773      2.74179449
C      -1.26152044      0.71115787     -1.37208000
C       0.45086290     -0.27750809      0.13054651
H      -1.98314389     -5.35952766     -3.12691532
H      -0.17646649     -5.89536689     -1.77123013
H      -2.94801262     -3.28297315     -3.51292582
H       1.12441109     -4.46237167     -0.46196960
H       2.56031252      2.47831122      0.18518572
H      -0.16376568      1.20854153      3.20651807
H      -2.35907632     -1.22564119     -2.63374349
H      -2.33478444      0.62375832     -1.23518730
H      -0.90748399      1.56678136     -0.79876001
H      -1.02519767      0.86691302     -2.42206021
O       4.39180867      0.64594188      1.76501395
H       4.72788482      0.85389770      0.87381299
H       4.05664255      1.49866418      2.09989755
O      -5.19485649     -2.11135031     -2.22556566
H      -4.89763478     -2.22638782     -1.30316894
H      -6.11915128     -2.40154387     -2.23337237
O      -3.05889023      2.21457699      1.37406797
H      -2.64621122      2.86089450      1.97438263
H      -2.84214541      1.35556728      1.78533567
O       2.30254828     -6.67425904      2.14503463
H       3.00144393     -7.28280004      2.42772302
H       1.61419367     -6.73587070      2.82400821
O      -1.40717985      5.67281811      1.40847744
H      -1.40962588      6.57295749      1.76596841
H      -1.50437160      5.08523394      2.18180108
O      -2.00714849      4.14074134     -2.91598900
H      -2.16233391      4.94136601     -3.43681492
H      -1.24075756      3.70440017     -3.33560284
O      -3.84038260      0.10371757     -3.49331674
H      -3.92888384      0.84060753     -2.86045568
H      -4.38525380     -0.61392250     -3.12107922
O      -0.74989394      3.47835369     -0.37865101
H      -0.93136018      4.21673187      0.22919469
H      -1.14323731      3.76729349     -1.22315486
O      -1.33989840      0.45757706     -4.88424710
H      -2.21901784      0.34682026     -4.47488165
H      -1.44249090      0.15950653     -5.80029528
O       5.15093123      1.38320585     -0.93429378
H       4.30851195      1.51715398     -1.40810869
H       5.84141258      1.66352764     -1.55218439
O       3.54842824     -5.28850871     -1.90596790
H       3.43307048     -4.82445464     -1.05374238
H       4.20105822     -4.76997173     -2.39875542
O       3.75600901     -2.05564049      2.45678461
H       3.96906256     -1.14391624      2.18811452
H       4.08902182     -2.12417581      3.36474430
O      -2.62173226      1.51946425      5.02667553
H      -2.47854059      0.86438395      4.31615257
H      -3.11038170      1.05195961      5.71929043
O      -1.59279756      3.76103172      3.53870618
H      -1.99460940      3.10590910      4.13744162
H      -0.63185521      3.62793682      3.65418561
O      -3.75856790      2.19338189     -1.48403595
H      -3.25137290      2.91023114     -1.91234560
H      -3.59775594      2.28978662     -0.52659069
O       3.41550723      5.00346685      4.84353214
H       2.57637160      4.88376813      5.31697152
H       3.33417775      4.43378580      4.05494946
O       1.41850064     -6.92484555     -0.72356444
H       1.68992364     -6.90136782      0.21523366
H       2.15258997     -6.49818545     -1.20385187
O       0.26704865      2.69394082     -3.92279723
H      -0.16401203      1.90446576     -4.30338891
H       1.03755253      2.36700820     -3.42327889
O      -4.29578314     -2.42394011      0.49189084
H      -3.38614366     -2.19695558      0.75567324
H      -4.78919437     -2.46437880      1.32459127
O       2.94056783     -4.20280033      0.67712144
H       2.75769702     -4.97681311      1.24462754
H       3.22968867     -3.49322086      1.27884721
