84
charge=0
O      -4.78392644      0.67622095     -1.36496439
O       0.11710877      1.32694423     -1.08465426
O       2.61466031     -3.10661255     -0.92345385
O      -4.04188105     -1.36340443     -1.93757435
O       2.74386722      1.61011897     -0.49071035
C      -3.85556698     -0.09260215     -1.50806301
C      -0.09394761      0.12815721     -0.99720370
C       3.07573656     -1.99063844     -0.81663614
C       2.30283987     -0.76719310     -0.76473573
C       3.13253748      0.32256724     -0.63454694
C      -2.50348350      0.39616054     -1.27043354
C      -1.44324406     -0.39535430     -1.14800584
N       0.89116606     -0.81972109     -0.77222849
C       4.53200551     -1.64504648     -0.69545935
C       4.56351222     -0.11042795     -0.66161926
H      -4.98984180     -1.43346597     -2.18057087
H       1.77846218      1.63684894     -0.66851647
H      -2.37272783      1.46119558     -1.22630986
H      -1.58224926     -1.46007491     -1.19197645
H       0.54022539     -1.76409366     -0.61726475
H       4.94486422     -2.08375902      0.22040661
H       5.09887020     -2.05290860     -1.54147350
H       5.09940518      0.28065747      0.20930473
H       5.05686202      0.30079774     -1.55087014
O       8.07946672     -0.13078275      0.50411883
H       7.35551543     -0.11473060      1.15779288
H       8.88062924      0.07066385      1.00906817
O      -4.38592204      3.48737595     -0.80583554
H      -3.54090430      3.48005531     -0.32088319
H      -4.56781460      2.53440009     -0.96352898
O       7.01058274     -0.95172287     -2.05023848
H       7.74591059     -1.03826433     -2.67476081
H       7.41915083     -0.68012162     -1.20618989
O      -5.63453430      1.20769596     -4.10332306
H      -5.11310315      2.01743567     -4.24158406
H      -5.41051678      0.97971441     -3.17732378
O      -7.62180385      0.94552807     -0.95534746
H      -7.71649657      1.90269095     -0.80269583
H      -6.64808660      0.83594000     -1.02366894
O      -2.45743874      0.74450253      2.19166090
H      -3.20032894      0.47785967      2.75294613
H      -1.90132300     -0.05221606      2.10622455
O      -3.80463841      3.47907587     -3.75322349
H      -2.85013991      3.27774624     -3.70733933
H      -4.05782855      3.62229885     -2.82061170
O       3.65150546     -4.75297755      1.21452709
H       3.37585846     -5.66801819      1.05913603
H       3.27553420     -4.23946429      0.47171091
O       5.84401153     -0.10307118      2.30792287
H       5.07095572      0.48113567      2.42426052
H       5.52522372     -0.98699140      2.56666724
O       2.89800473     -2.42339386      5.18696919
H       3.23156430     -2.05612146      6.01883359
H       2.31453907     -3.15363182      5.44164565
O      -0.79998456     -1.59348908      1.88650532
H      -0.63898462     -2.34197226      1.28275151
H       0.08092062     -1.37551829      2.24600743
O       3.41041071      1.54252886      2.38397867
H       3.16295375      1.63869279      1.44343918
H       3.24169138      2.40724893      2.78386216
O      -0.15388470     -3.62588254     -0.11765750
H       0.76372467     -3.64635940     -0.45876333
H      -0.75465101     -3.72675815     -0.87997796
O      -1.78111010      2.96747782      0.49297217
H      -1.07111035      2.52500634     -0.01589772
H      -2.02813704      2.30145788      1.16253548
O      -2.10678201     -3.55330531     -2.26407673
H      -2.80494047     -2.87390700     -2.18830527
H      -2.44165516     -4.19323145     -2.90867118
O      -7.31419609      3.84656350     -0.56007632
H      -7.54081197      4.77780014     -0.70298817
H      -6.34029251      3.80243657     -0.62411954
O       4.74080919     -2.66831490      2.90317650
H       4.15054987     -2.63465699      3.67996760
H       4.40545993     -3.40849057      2.36543581
O       1.82819912     -0.92233915      2.86642136
H       2.36420147     -0.11402435      2.75868685
H       2.19553246     -1.38795592      3.64145634
O      -6.73325617     -1.19457211     -2.85917632
H      -6.71101687     -0.68808897     -3.68881315
H      -7.21685006     -0.61823226     -2.24259811
O      -0.97959532      2.79960811     -3.34706937
H      -0.23308266      3.22053152     -3.79928915
H      -0.58838258      2.31079362     -2.59540064
