96
charge=0
F       1.17467389     -0.99333241      3.79627168
F       0.16763664      0.58119613      4.94921185
F      -0.32781126     -1.53460829      5.30919734
F       2.47642513      1.18144559     -5.67959632
F       0.92920155     -0.08689344     -6.58453040
F       2.90957598     -0.92089110     -6.12524652
F      -5.32535064      0.86610105      2.50715200
F      -5.51583792     -1.27943639      2.94473316
F      -4.89865663      0.11746386      4.52363717
N      -1.19026719     -0.29095350     -0.12319060
N      -0.67485509     -0.48598729      2.09848629
O      -1.63532897     -0.38250520     -2.42390385
C      -2.06692216     -0.34196334     -1.10790611
C      -1.06661532     -0.54267788      3.34187975
C       1.96687192     -1.22166018     -2.14064104
C       0.65324905     -1.05872026     -1.78624711
C       2.38611285     -0.91155592     -3.41371011
C       0.16361370     -0.27519783     -3.99033212
C      -3.45285074     -0.33088241     -0.87148511
C      -2.39570928     -0.45808102      3.74782414
C      -0.28179609     -0.57429696     -2.70116961
C       1.48328004     -0.44145079     -4.34594152
C      -3.91967903     -0.30897904      0.39791895
C      -3.38036617     -0.35516943      2.81492222
C      -1.62921399     -0.38963407      1.14350583
C      -3.00328921     -0.35515855      1.45878135
C       0.02305834     -0.62860345      4.38544941
C       1.96541055     -0.05692557     -5.73150727
C      -4.82922298     -0.16070863      3.21358624
H       2.68303890     -1.55640733     -1.40493121
H       0.35830082     -1.27627810     -0.77269793
H       3.42718667     -1.00483268     -3.67893318
H      -0.54197570      0.12184262     -4.70446443
H      -4.12886617     -0.33628663     -1.71397774
H      -2.63402967     -0.46029366      4.80294055
H      -4.97744928     -0.27035153      0.60277422
O       4.48050557     -3.15728521     -5.22179025
H       3.93772555     -2.45791881     -5.62363381
H       4.58713487     -3.83473751     -5.90453482
O       1.56887743     -1.76275696      0.87626869
H       2.52891823     -1.73348378      0.71126271
H       1.45558846     -1.50943590      1.80985952
O      -5.18803464     -2.61395358      5.54225602
H      -5.35772097     -2.19587673      4.68117219
H      -5.83662893     -3.32861419      5.62195811
O      -6.14168257     -0.52657063     -1.76598525
H      -6.61195055     -0.51436680     -0.91128459
H      -6.83188168     -0.63522535     -2.43597836
O       3.90573423      1.27620441     -0.39539035
H       3.97380577      1.50258546     -1.34311687
H       2.98645632      1.48287344     -0.14144517
O       0.38102695      2.91299230     -6.73726446
H       1.11134766      2.34768796     -6.43477126
H       0.80091009      3.68330208     -7.14728817
O       0.85416151     -1.34920214      7.94538244
H       1.03961538     -2.24950406      8.25458946
H       0.44003253     -1.44550250      7.06872294
O      -1.67870421     -0.18999239      9.01237621
H      -0.80388802     -0.51697028      8.72692863
H      -2.26155202     -0.32982905      8.23952195
O      -0.17855933      2.56077236      2.71421200
H       0.02002593      1.99731196      3.48048091
H      -1.14336012      2.70833774      2.75276457
O       4.09589968      1.66250575     -3.29403846
H       4.97578238      1.33873779     -3.56469260
H       3.55357021      1.60805909     -4.09869092
O       4.31957727     -1.54192922     -0.12998638
H       4.30549039     -0.56776490     -0.07674460
H       4.80922953     -1.71943298     -0.95487514
O      -3.11587588      2.83284492      2.84530456
H      -3.87955888      2.23813439      2.76446182
H      -3.47914144      3.67918398      3.14457705
O       5.38403148     -1.77770720     -2.83264943
H       5.87451618     -1.03644720     -3.23508824
H       5.17371811     -2.36409828     -3.58319002
O       1.12563036      1.66358637      0.29485093
H       0.81653639      2.08066309      1.11799864
H       0.41312131      1.01839199      0.10346425
O       5.38304912      0.38111445     -6.88988457
H       4.51063943      0.00473019     -6.68897807
H       5.31623140      0.71643635     -7.79542326
O       6.59862421      0.47066081     -4.27511695
H       7.51402444      0.77917171     -4.32608155
H       6.27788045      0.44380605     -5.19729248
O      -7.34291806     -0.46429051      0.86183305
H      -8.06856494      0.05635724      1.23463642
H      -6.81305679     -0.73869664      1.62690147
O       3.01732905     -0.32909291      6.11486148
H       2.40704588     -0.56691954      6.83825793
H       2.49466719     -0.47505144      5.30742431
O      -1.75491736      1.21664953     -5.74862704
H      -1.08030232      1.81696641     -6.11850713
H      -2.55919171      1.39274705     -6.25847109
O      -3.41714040     -0.60020296      6.65252989
H      -4.01313261      0.15534411      6.77389100
H      -4.00152030     -1.32743827      6.36863975
