86
charge=0
O      -2.45709052     -0.54234014     -1.27457665
O      -1.08457440      1.65307300      2.02911542
O      -1.19789362     -0.60094293      2.12875234
O      -1.18857379      2.47998200     -2.54295716
C      -1.80151058      0.47972254     -1.53590950
C      -0.81389611      0.56488612      1.57460097
C      -0.40548757      2.27411473     -1.45526457
C      -0.68758666      1.04534193     -0.85701911
N      -2.03367771      1.34470440     -2.57330881
N       0.60307213     -0.88093296      0.13458355
C       0.60496542      3.23914249     -0.98551236
C      -0.38428383     -1.91918839     -0.16595557
C       1.49392738     -1.24919245      1.26130883
C       0.02958175      0.48425493      0.32937337
H      -1.69156506     -0.41211418      2.95371229
H      -2.86073214      1.27259818     -3.18706128
H       0.63679046      4.10766222     -1.64309197
H       1.59461405      2.78695128     -0.97709918
H       0.37567614      3.58464096      0.02302638
H      -1.16943839     -1.91879612      0.58680440
H       0.09890250     -2.89371227     -0.17570489
H      -0.83314059     -1.74403088     -1.13995695
H       2.27104140     -0.49997258      1.39332776
H       1.96239588     -2.20832668      1.05647030
H       0.91572437     -1.33066544      2.17948468
H       0.90434152      1.12431467      0.50949419
O      -4.43693196      1.03877389     -4.66441365
H      -4.48243739      0.18153971     -4.20154927
H      -5.32498420      1.17795837     -5.02556894
O      -2.18972686      2.77268186     -5.29551022
H      -2.99991719      2.23672296     -5.21457934
H      -1.84279636      2.78887945     -4.37588168
O      -3.85092757      1.60859589      2.77309194
H      -4.17453091      0.96791893      2.11034152
H      -2.91001106      1.72563956      2.53265671
O       4.41800196     -1.86963899     -1.02905939
H       3.64682727     -1.74328054     -1.61545436
H       4.92341064     -2.59759070     -1.41933947
O       3.32968017      2.10393271     -2.68150084
H       4.02299813      2.16916870     -3.35446525
H       2.54509148      1.77153261     -3.15715075
O       0.94864953      1.04379366     -4.00538609
H       0.15092233      1.38008091     -3.54124267
H       0.77987562      1.25238796     -4.93920832
O       3.47955347      4.56256152     -0.97836478
H       3.29272205      4.18300370     -0.09827867
H       3.49944150      3.79173925     -1.58129827
O      -4.55168236     -0.44268831      0.71705206
H      -3.81670516     -0.47777507      0.07461550
H      -5.33253098     -0.21712174      0.18870583
O      -4.48553655     -1.82519578      3.30195739
H      -5.18226299     -2.49819998      3.28960295
H      -4.52043571     -1.39456798      2.42556969
O       0.71655902     -4.77412885      0.32228403
H       0.70208068     -5.74285921      0.35278691
H       1.42745354     -4.50579850      0.93605603
O       2.04269046     -2.52243381      4.54480562
H       2.22920474     -2.83015269      5.44453208
H       1.46329564     -1.74929600      4.66677664
O      -2.58504199     -0.11131131      4.63144187
H      -3.05201388      0.74066412      4.60535021
H      -3.25089492     -0.74863547      4.31241257
O       3.52573900      0.74483682     -0.06853034
H       3.91905779     -0.11930938     -0.28219258
H       3.50056903      1.20740361     -0.92948071
O       1.00253070      2.42931809      3.77090308
H       0.24754422      2.22425688      3.18163980
H       0.73822683      3.21863903      4.26690577
O       2.80353530     -3.84409168      2.12218240
H       2.54601035     -3.42840226      2.96614628
H       3.77048723     -3.89456612      2.14872025
O       0.18363191      1.85733296     -6.65311544
H      -0.65142682      2.20447019     -6.28446849
H       0.17177677      2.10064622     -7.58996278
O       2.03269850     -1.19607976     -2.52409863
H       1.68046943     -0.49265779     -3.09826498
H       1.54530532     -1.08930528     -1.67512764
O       2.73871659      3.09239877      1.45548027
H       2.24073953      2.85682946      2.25974631
H       3.05064113      2.24975456      1.07137330
O      -4.44080851     -1.41406989     -3.15044973
H      -4.46896949     -2.38132791     -3.11267067
H      -3.75847448     -1.14791758     -2.50060319
O       0.35706696     -0.25219369      4.92681854
H      -0.61810963     -0.23151159      4.91396734
H       0.62893392      0.62867084      4.60808599
