101
charge=0
O      -1.60599529     -4.55124339      6.01031844
N      -2.41637928     -2.46613961      6.46304719
N      -2.63635752     -1.30443909      6.01285140
N       2.97007341      2.85053312     -3.21314867
N       4.09754616      2.28589733     -2.90363949
O       0.53610133     -0.09438419     -1.10178839
C      -1.63373363     -3.36294104      5.74790884
C       1.95058758      2.13384529     -2.75636223
C       3.85610902      1.16399626     -2.19542852
C       0.17113203     -3.58231962      4.12408958
C       4.71910876      0.24996601     -1.54502315
C      -0.83953177     -2.86577116      4.62579010
C       2.46233354      1.03108790     -2.07070837
C      -1.26798859     -1.60864141      4.06879832
C       4.15856484     -0.73116154     -0.79959283
C       1.89785884      0.00768068     -1.26515312
C      -2.16288116     -0.88045471      4.79902580
C       0.73490394     -0.00928061      1.32068529
C       0.28591743     -0.36190678      2.56307365
C      -1.02513738     -1.29595888      0.32265051
C       0.08960796     -0.47281736      0.17487753
C      -0.82256625     -1.19838649      2.71408166
C      -1.48380639     -1.67488792      1.56331781
N       2.78550921     -0.83258051     -0.66616457
C      -2.65543527      0.41867259      4.28774796
C      -2.66391034     -2.57652535      1.66325927
H       0.91470031      2.42609030     -2.81856483
H       0.72272169     -3.24171416      3.27186695
H       0.43875974     -4.52340075      4.55968532
H       5.78531650      0.36319049     -1.63840964
H       4.78136565     -1.44543117     -0.28668014
H       1.58616284      0.63845509      1.20791701
H       0.78958939     -0.00386535      3.44425701
H      -1.52967884     -1.64889330     -0.55718679
H       2.40788244     -1.60605342     -0.10795548
H      -3.22124681      0.28171184      3.36649838
H      -1.82482156      1.09274157      4.07775614
H      -3.30696949      0.89684362      5.01898187
H      -3.55170715     -2.09616756      1.25074492
H      -2.49033978     -3.49862850      1.10857802
H      -2.87883039     -2.84833492      2.69650975
O      -1.24743849      4.65597791     -3.22130800
H      -1.23499373      3.76700153     -2.81946113
H      -2.13579662      4.99915092     -3.04272757
O      -3.63051029      1.89548788      1.71168080
H      -4.27528941      2.59321708      1.90437276
H      -2.77611570      2.24042131      2.03115418
O       3.01361758      5.70466073     -4.05975922
H       3.01531315      4.75264560     -3.80054291
H       2.20605126      5.80197600     -4.59714335
O      -3.94071858     -7.74602161      4.41843240
H      -4.57593179     -8.46913963      4.52977646
H      -3.87468259     -7.32304632      5.29665678
O      -4.11917576     -0.41439353      0.00803764
H      -3.86411914     -0.15468075     -0.89865736
H      -3.97074796      0.37585948      0.56253757
O      -3.27566022      0.24551313     -2.76771924
H      -2.56320738     -0.40177154     -2.93659852
H      -3.94920902      0.06714072     -3.43970503
O      -3.61070672     -6.36969722      6.95171284
H      -3.77394818     -6.17047920      7.88563317
H      -2.93360367     -5.72239855      6.67016898
O       1.08596803      5.68665430     -1.68570138
H       0.30812787      5.43558044     -2.22477508
H       1.79876752      5.81956142     -2.33461137
O      -0.46852283     -5.04114728      1.13101959
H      -0.68867822     -5.70723066      0.46194353
H      -0.95328746     -5.32356423      1.92781679
O      -1.11481613      2.92405390      2.72460924
H      -0.67150483      3.44488139      3.41079653
H      -0.69250314      3.20071551      1.89011042
O      -4.29016685      0.10216547      8.06922307
H      -3.74565500     -0.39069739      7.41534262
H      -4.42728998     -0.51440945      8.80593275
O       8.27455843      3.33294707     -3.18377015
H       7.42337445      3.74822586     -3.41432051
H       8.94797670      3.97094865     -3.46422125
O       5.74815876      4.55486526     -3.85565136
H       5.17100710      3.81203861     -3.55798946
H       5.11438994      5.26692874     -4.03944725
O      -1.93859665     -5.89341494      3.42435629
H      -2.60828213     -6.56560045      3.63853253
H      -1.79695969     -5.44050205      4.27902578
O       1.75489659     -3.19731269      0.96503159
H       0.97379428     -3.78211154      0.98219058
H       2.50032560     -3.77272446      1.20324384
O       7.74361158      0.77265619     -1.91557802
H       8.62506428      0.38555690     -1.79448638
H       7.90416632      1.63605207     -2.34075277
O      -0.99125858     -1.49760077     -3.09802595
H      -0.39969811     -1.06916838     -2.44911992
H      -0.45086657     -2.17397099     -3.53071935
O       0.43930790      5.74352034     -5.34949727
H      -0.12537008      5.97878971     -6.10029515
H      -0.15979143      5.37296629     -4.67235769
O       0.03343242      3.73772993      0.23155084
H       0.46452537      4.44074839     -0.28432273
H      -0.37604909      3.16592233     -0.44672155
O      -1.17329554      2.06326716     -1.91659498
H      -0.57301585      1.35640176     -1.60850877
H      -1.96126892      1.56595112     -2.19933261
