110
charge=0
O      -1.99660855     -0.55706960      3.13578885
O      -0.77184759     -2.34857712      1.85156129
Cl      5.73506029      3.19900662     -4.30231034
Cl     -2.88215674      3.32235247      0.01129377
Cl     -0.73735895      1.16645497     -1.71131044
Cl      2.06860125      2.32360618     -0.92304065
Cl     -3.62934101      1.89390792      2.86316849
Cl      0.92336340      3.76601518      1.74289049
O       0.44214613     -0.45138916      2.75062745
O      -1.26107062     -0.21763656      0.76428662
C       6.15247816      2.56244738     -2.76316914
C       6.43069585      3.38929359     -1.76396878
C       6.68263586      2.96681146     -0.35371632
C       5.80233483      1.80155814      0.11363505
C       5.83251962      1.59658503      1.62749563
C       4.93864489      0.45298677      2.12156613
C       3.46989936      0.57083007      1.69711246
C      -4.29421785     -0.23119365      1.37882767
C       2.85899074      1.94126414      1.98695650
C      -2.85699815      1.58855817      0.32201823
C      -0.41476934      1.83154074     -0.12782608
C       1.02296585      1.55267610      0.25354456
C      -1.44822653      1.19684191      0.81162078
C      -3.99516674      1.24593438      1.27094387
C       1.37918516      2.06804364      1.64389144
S      -0.95015725     -0.90858473      2.15216183
H       0.49043325     -0.80291712      3.66085977
H       6.10084440      1.49857015     -2.62625567
H       6.49106446      4.44219772     -1.99265825
H       7.74078310      2.70713399     -0.23281181
H       6.51400557      3.82338461      0.31155208
H       6.10856075      0.87749697     -0.38776895
H       4.77382024      1.98109433     -0.21759677
H       5.53734158      2.53108388      2.11892721
H       6.86840050      1.42784455      1.94704436
H       4.99174444      0.40051111      3.21644925
H       5.34402015     -0.50347668      1.76795876
H       2.87238027     -0.20356615      2.19277160
H       3.38386721      0.35721204      0.62557977
H      -3.43722642     -0.77325716      1.77386961
H      -5.12841412     -0.41115933      2.06010177
H      -4.54088893     -0.66505135      0.40841737
H       3.01246536      2.20651561      3.03993723
H       3.39978079      2.70288927      1.41822167
H      -3.02165683      1.08660410     -0.63965026
H      -0.55922543      2.91666010     -0.18176552
H       1.19337761      0.47073021      0.19093474
H      -1.31263283      1.54898807      1.84930745
H      -4.89609438      1.77287087      0.92241140
H       0.78250707      1.53047636      2.39109434
O       1.14850167     -0.68687489     -3.55562571
H       0.56251260     -0.16348456     -2.97638907
H       1.78494840     -0.03122647     -3.89371486
O       3.16432876     -1.22573523     -1.42190696
H       2.71946827     -1.64791820     -0.66538514
H       2.48203555     -1.15300304     -2.11332301
O      -2.05478728     -0.70883026     -4.04509144
H      -1.29222072     -1.21211208     -4.36325787
H      -1.69140859     -0.10849199     -3.37024842
O      -6.26187991     -0.11358720     -1.12250495
H      -5.79630979     -0.57325416     -1.84614533
H      -6.11504580      0.83536373     -1.29354678
O      -3.78296305     -4.02253355      4.44640948
H      -4.20037791     -3.77553961      3.59906890
H      -4.35435774     -4.71142355      4.81770254
O       2.98580228      1.47525512     -3.96746380
H       2.71559846      1.75192134     -3.07088195
H       3.82313708      1.93732478     -4.13699432
O       0.22548517     -1.79025977      5.29640922
H      -0.63869353     -1.55127494      5.67373617
H       0.06456986     -2.69606856      4.97486869
O      -0.85577427     -4.21731982      4.03355655
H      -1.81334241     -4.24497600      4.22203985
H      -0.79867911     -3.66817534      3.22601540
O      -7.17804171     -1.41602913      1.28253826
H      -8.14655489     -1.41730063      1.29046449
H      -6.92588955     -0.98474380      0.44344564
O      -1.07300609     -2.13876692     -1.03322236
H      -0.92612203     -2.24834546     -0.06981344
H      -0.97031361     -1.17559296     -1.17381936
O      -2.71153436     -1.54206425      5.69960337
H      -3.10858307     -2.38498664      5.40663170
H      -2.55120924     -1.07180244      4.85829049
O       3.94113142      4.91482209      0.62821446
H       3.85578879      4.99068672     -0.34018413
H       3.04057661      4.72555984      0.94746312
O       3.57861361      4.74975346     -2.31623225
H       3.01479743      4.01584242     -2.00717345
H       4.19297580      4.35504897     -2.95889512
O      -4.73023940     -1.47079932     -3.22157519
H      -3.84395274     -1.19988306     -3.52699967
H      -5.13695106     -1.90593449     -3.98498820
O       5.84289170     -0.44638895     -2.00167184
H       4.92621951     -0.72205085     -1.81480012
H       6.23554540     -1.19178142     -2.48022441
O      -5.02733092     -3.27265638      1.94405049
H      -5.82194786     -2.72040609      1.82114293
H      -4.58215912     -3.20707175      1.07910779
O       1.85047625     -2.31500986      0.87781333
H       1.37309733     -1.75585572      1.51881379
H       1.36854487     -3.15269443      0.89663895
O       8.75920105      4.48072331     -4.17687853
H       7.87413056      4.07464570     -4.20383330
H       8.97395949      4.70871552     -5.09497998
O      -5.65379012      2.69119565     -1.55226988
H      -5.99533270      3.47496346     -2.00593784
H      -4.81942701      2.96904567     -1.13531376
O      -3.90117043     -2.70069625     -0.67026892
H      -4.25127788     -2.36581809     -1.51660341
H      -2.93689003     -2.60155936     -0.76451433
