106
charge=0
O       4.00177833      1.15887782     -0.95933055
O      -0.64792443     -1.92985435     -1.81312068
O       2.17189242     -0.80035711      0.15984476
N       6.77633959      1.54053461     -3.52154269
N       5.86595749      0.92872609     -2.90185835
N      -5.16413898     -0.92714942      3.37048438
N       6.73084953      2.49817490     -4.41180986
N      -4.53502607     -1.06475573      4.55153832
O       0.02856042     -3.05929412      0.05131628
S      -2.73508812     -0.51109317      2.89003811
S      -4.89623296     -0.32201743      0.72437975
S      -1.12305540      1.93163767     -1.21141825
C       3.16297972      1.47574383     -1.77379779
C      -0.53491287     -2.00922151     -0.61208436
C       1.33971805      0.07983084      0.23572724
C      -4.38486107     -0.60203621      2.38686999
C       5.41720137      2.59735157     -4.41552431
C      -3.25965861     -0.84706528      4.51287301
C      -2.43111357      0.82809983     -0.85378384
C      -2.34581242     -0.33862219     -0.22402304
N       4.89150609      1.65539599     -3.48377240
N      -0.02503011      0.16270200      0.54526940
N       1.88735605      1.82579725     -1.40623605
C       0.69579672     -3.90087698     -0.83430604
C      -2.37656430     -0.87226932      5.68486464
C      -3.57090580     -1.17737985     -0.08719129
C       3.46843214      1.43119681     -3.22889557
C      -1.04445962     -0.90070424      0.28093069
C      -0.10005023      1.60045384      0.20631252
C       1.42731776      1.56411385     -0.05385508
H       4.83193891      3.23198133     -5.06933444
H      -3.38823410      1.14409825     -1.22277375
H       1.17674528      1.98324939     -2.13258171
H       1.66325756     -3.44588268     -1.06599252
H       0.10461022     -4.02185593     -1.74520925
H       0.85522824     -4.86827100     -0.35353534
H      -1.35015312     -1.09219557      5.39218949
H      -2.70005047     -1.63224797      6.39606729
H      -2.38577136      0.09415159      6.18950582
H      -3.92422184     -1.47902898     -1.07446078
H      -3.35415759     -2.09302600      0.46603106
H       2.87449866      2.17492364     -3.76427567
H       3.21552896      0.44177150     -3.61137382
H      -1.24396025     -1.36655356      1.25325326
H      -0.39980842      2.20238311      1.07816356
H       2.04695939      2.10772657      0.68077932
O      -4.64955397      0.54275810     -3.08083682
H      -4.15675041     -0.29845813     -3.13146408
H      -5.58092855      0.30240325     -3.19425371
O       2.96547722      3.52157653     -5.68052034
H       2.39479288      2.80048279     -6.00788749
H       2.36225896      4.25477455     -5.48613346
O      -8.11176710     -1.45298406      3.08803025
H      -8.53606236     -0.91806368      3.77773300
H      -7.14815394     -1.27739826      3.17212644
O      -1.76704592      3.27725340      5.65592331
H      -1.52957036      2.61363752      6.33115603
H      -2.01518185      4.07247837      6.14943893
O      -3.74538023     -3.80871097      2.83727525
H      -4.47442481     -4.43336574      2.96139576
H      -4.08032029     -2.94734810      3.15753376
O       1.17907782      0.16115669      6.00779468
H       2.13833227      0.23761505      5.90597418
H       0.85949621     -0.16237556      5.14500010
O       2.32125155     -1.15198633     -5.56416395
H       2.91232893     -1.90022758     -5.73199561
H       2.13391465     -1.18842173     -4.60847326
O      -3.14885819     -1.91050059     -3.14940431
H      -3.08439795     -2.61190401     -3.81420593
H      -2.27733244     -1.90259168     -2.70893190
O       2.15217544      2.39668292      2.67384023
H       2.53143442      1.51241802      2.84029652
H       1.21108967      2.34129546      2.93384955
O      -0.71133977      2.17326886      3.22771973
H      -1.03392430      2.62623887      4.02662203
H      -1.28745512      1.39258758      3.15006074
O       0.33033183      2.39913945     -3.92185179
H       0.54952657      2.02229177     -4.79564851
H      -0.64476500      2.43131243     -3.88545054
O      -0.98989506      1.21414685      7.54673350
H      -0.22386700      0.85537898      7.05955297
H      -0.77213448      1.09777592      8.48318786
O      -0.83938772     -3.38518531      2.82899959
H      -0.54503349     -3.39914266      1.89663096
H      -1.78922165     -3.60746519      2.81559558
O       4.78614564     -1.38185623     -1.14379909
H       5.10458915     -0.59779207     -1.64343456
H       4.00358649     -1.05191528     -0.65288666
O       0.20876593     -0.82307669      3.48011661
H      -0.10296763     -1.73890106      3.37550686
H       0.14797148     -0.45817539      2.57052682
O       3.55359546     -3.93163613     -1.72109020
H       4.28793735     -4.56483172     -1.74405912
H       3.97234916     -3.07460891     -1.54287185
O      -2.60656275      2.51650534     -3.75979746
H      -3.10512964      3.32606103     -3.95078876
H      -3.28236600      1.84507586     -3.55093939
O       3.05621639     -0.44434328      2.92776217
H       2.98930664     -0.59505591      1.96658458
H       2.16599241     -0.68908420      3.24839948
O       1.21164102      1.31656077     -6.51254871
H       0.82303218      1.13597919     -7.38072492
H       1.58998381      0.46542018     -6.22250176
O       1.82204797     -1.10396280     -2.76889150
H       0.90922864     -1.39607245     -2.59815566
H       2.13757188     -0.97407568     -1.85700909
