97
charge=0
S      -1.69538732      1.00994279     -2.93740601
Br      0.44658400      3.26109021     -0.61367475
N       1.06890990      0.65926947     -2.27096337
S      -2.96702660     -1.53174693     -2.32869146
S       1.60357144      0.12837350      0.24857191
C      -1.61890599     -0.40433085     -2.09991733
C       0.63330950      0.03761790     -1.22485619
C       4.33190975      3.25482126     -1.99418996
C       4.41437812      2.11186600     -2.76162358
C       3.15103436      3.56693277     -1.34440544
C       3.32659054      1.27724962     -2.87139532
C       2.05335701      2.74603661     -1.45737249
C       2.12808454      1.57169872     -2.21642170
N      -0.57591358     -0.70675105     -1.24418814
C      -2.67157041     -1.92643391     -4.02736469
C       0.16218429     -3.57659773      1.29915936
C      -0.59680926     -1.29525949      1.98030268
C       1.55557455     -1.58038904      0.69403386
C      -0.66438285     -1.97906364     -0.47322554
C       0.11146883     -2.09612626      0.87578379
H       5.18016729      3.91329118     -1.90721854
H       5.33109743      1.87299788     -3.27582440
H       3.07864039      4.46456689     -0.75246762
H       3.38498382      0.37330604     -3.45195755
H      -3.38396014     -2.67384750     -4.36754340
H      -1.66519341     -2.31424777     -4.15187526
H      -2.77996601     -1.03621165     -4.64171960
H       0.65682139     -4.18281607      0.54156922
H      -0.84074569     -3.97364306      1.44670180
H       0.70959639     -3.69162779      2.23419112
H      -0.08951290     -1.42799963      2.93522002
H      -1.62911608     -1.62089534      2.10038455
H      -0.59732082     -0.23095491      1.75553439
H       2.05865123     -2.14710556     -0.09200254
H       2.13384360     -1.72287504      1.60780942
H      -0.33272175     -2.77421236     -1.14445947
H      -1.72026887     -2.16494487     -0.27075704
O       4.34076070      6.67455312      0.46389616
H       3.37406264      6.62527373      0.33837102
H       4.46503874      6.79849947      1.42455986
O      -6.15724056     -1.41287732     -1.20744959
H      -5.20730561     -1.33264971     -1.41661856
H      -6.21710748     -1.00887466     -0.32797310
O      -4.27853436     -0.70587330      0.53458286
H      -3.55146931     -0.06140238      0.60918625
H      -3.94263950     -1.54361517      0.90859214
O       0.48665740     -1.00715133     -4.70137301
H       0.37268426     -0.34875775     -5.40330464
H       0.64043563     -0.48630012     -3.88523644
O       0.46215347     -3.87358209     -4.09333569
H      -0.28559903     -4.21024551     -4.62430679
H       0.52257667     -2.92513324     -4.31043723
O       2.08335065      5.58334430      2.94987315
H       2.91428025      6.05195275      3.15503692
H       1.81822530      5.91359846      2.06894005
O       1.63021903      2.74684154      2.61559937
H       1.30289165      2.76336448      1.69906774
H       1.78280692      3.68363206      2.83515852
O      -1.89873875     -4.88578573     -5.48170110
H      -2.13081571     -5.38812595     -6.27707950
H      -2.63702251     -5.03502916     -4.86131449
O      -3.35020173     -3.33825975      1.50039728
H      -3.14440142     -3.83682292      0.68719802
H      -3.82960710     -3.95913879      2.06882962
O       1.41600749      6.43643196      0.20039245
H       0.81718310      7.09143571     -0.18506426
H       1.09784501      5.57520896     -0.11905056
O      -2.01968994      1.17767797      0.62586675
H      -1.54059738      2.01078934      0.50808582
H      -1.58105488      0.58195796     -0.02012211
O       0.12767633     -5.24239273     -1.60727100
H       0.74978292     -5.98453028     -1.60374093
H       0.29208743     -4.77994712     -2.44986154
O      -2.62667428     -4.63075930     -1.03404747
H      -2.69441603     -3.74131292     -1.43428045
H      -1.70480829     -4.90506196     -1.19225985
O       4.62561258      7.00399671      3.39877387
H       5.30507065      6.47166114      3.83864255
H       4.64923894      7.86779914      3.83626955
O       6.36660683      5.54258177     -1.26143862
H       5.68699009      5.92625131     -0.67402954
H       6.91538612      6.29207428     -1.54258978
O      -6.34463079     -3.57297074     -3.11920972
H      -6.30805573     -2.85029327     -2.46699415
H      -7.26476218     -3.59077803     -3.42246280
O       4.94033917      0.96937452      0.50734583
H       4.59201994      1.44533841     -0.26201009
H       5.90153471      0.94180028      0.38517012
O       1.94490891     -1.89147866      4.07387224
H       2.29174599     -1.92369347      4.97952989
H       2.38442683     -1.12446844      3.66055868
O       3.22807573      0.34804076      2.80898289
H       3.83332391      0.49679967      2.05858971
H       2.66733424      1.14617322      2.81392296
O      -4.04804435     -5.24850028     -3.57896882
H      -3.61282914     -5.18350653     -2.70805782
H      -4.86502476     -4.72761466     -3.47386260
