72
charge=0
O      -1.19296588      2.00300589      2.51990695
O      -2.21986254     -0.14089680      3.72736279
Br      0.15236254      2.20109146     -0.21240515
Br     -2.75050634     -2.92171512      2.59764276
Br     -0.29798756     -0.43637956     -1.85651636
Br     -1.66761732     -3.07912516     -0.47006516
C      -1.23938152      0.95189478      1.92441903
C      -1.84327511     -0.24034854      2.58142024
C      -0.74734134      0.78360415      0.57703726
C      -1.95525237     -1.44872592      1.79102005
C      -0.90218217     -0.36691501     -0.09012120
C      -1.51626151     -1.50418417      0.52664353
O       0.05052206     -5.73695147      0.18296999
H      -0.24824176     -6.48734179      0.71690958
H      -0.54847019     -5.71386709     -0.58697992
O       3.52416673     -0.02979239     -2.13712178
H       3.08825744      0.75954239     -2.51070877
H       3.14238221     -0.14435024     -1.24606242
O       1.67837245      4.27984626     -1.61220383
H       1.80028070      3.54088786     -2.23821532
H       1.20605387      4.96292337     -2.11368679
O       0.16647025      1.30503287      4.78236508
H      -0.64676931      0.91007595      4.40501586
H      -0.14550795      1.85835610      5.51422249
O      -1.67039319     -5.56257381     -2.14066714
H      -1.09518115     -5.13306568     -2.80304928
H      -2.50491819     -5.73803861     -2.59985363
O      -3.61287577     -1.83743791      5.61539753
H      -3.12918125     -1.27052874      4.98004021
H      -4.23227118     -1.24263017      6.06822538
O       1.99812859     -2.41029028     -2.80195346
H       1.97283396     -2.85341467     -1.93243567
H       2.61957720     -1.67490398     -2.65063057
O       2.48403179      2.71172949      3.41590682
H       1.64252421      2.40386456      3.80423491
H       2.25381383      3.35748034      2.72072073
O       1.98938154      4.69088797      1.25176480
H       1.90811801      4.53454035      0.29154712
H       2.65660359      5.38839082      1.34109248
O       2.00102118      2.10377258     -3.57810830
H       1.51869439      1.33083683     -3.93052366
H       2.53835984      2.42503493     -4.31879560
O      -4.06984733      2.01620600      2.85383591
H      -3.52002101      2.81456305      2.84290668
H      -3.48791622      1.32819080      3.23388065
O       1.97769520     -3.62383810     -0.11640645
H       1.30504528     -4.31894366     -0.00075692
H       2.75714801     -3.96151914      0.35060300
O      -2.81325879      2.10551465     -1.72360096
H      -3.06923046      3.03413703     -1.83540579
H      -2.43172165      1.83445020     -2.58032311
O      -0.78936674      4.83291999      2.21476775
H      -0.95898361      3.87806766      2.34989788
H       0.13881062      4.86279413      1.90990790
O       0.12675963     -4.27756420     -4.03917682
H       0.75035065     -3.64904426     -3.62952817
H       0.62222829     -4.69637950     -4.75935915
O      -4.11641163      0.42478515      0.31376651
H      -3.70584163      0.99799975     -0.36372689
H      -4.17780760      0.97239070      1.12017918
O       2.17874040     -0.06427749      3.10060848
H       2.88048539      0.60372571      3.19001008
H       1.46957273      0.28183892      3.67160959
O      -1.65903430      1.31306757     -4.28436625
H      -0.87464224      0.74121328     -4.38956336
H      -2.16387868      1.21522537     -5.10616418
O       2.19543371     -0.70032764      0.30844199
H       2.09679659     -1.67084431      0.25072374
H       2.19124079     -0.49393027      1.25922171
O       0.72938380     -0.39981282     -4.63166402
H       0.79369062     -0.79024275     -5.51630305
H       1.09889279     -1.07768129     -4.03586726
