80
charge=0
O       1.05995695     -1.30080377     -2.58024319
O      -2.14474630     -1.03185373      0.62619508
O      -2.22918888     -0.66216103     -1.97563202
O       1.13275847     -2.46307304     -0.73880917
C       0.84449635     -1.45711742     -1.38145196
C       0.53717016      1.04514583     -1.08126722
C       0.19495928     -0.34995734     -0.59876495
C      -1.79821584      1.43342167     -0.41287209
C      -0.38417853      2.00364590     -0.32709789
N      -0.30297761      3.39196019     -0.85728200
S      -1.63253578     -0.38079935     -0.62433141
H       0.33603337      1.11653916     -2.15501636
H       1.59687861      1.29479243     -0.94997530
H       0.48603899     -0.47237233      0.44882218
H      -2.40659641      1.66046172      0.46296587
H      -2.30729851      1.83495389     -1.28575865
H      -0.06483185      2.01425948      0.73067764
H       0.66201121      3.74767575     -0.74416878
H      -0.96260719      3.98976362     -0.33424938
H      -0.57339917      3.37382006     -1.85450907
O      -2.39261313      4.51381784      0.85979432
H      -3.14285303      4.11971052      0.37203071
H      -2.23401243      3.93414504      1.63161147
O      -2.49793986     -3.32446878     -3.10419069
H      -2.42451820     -2.42615051     -2.72570472
H      -2.83527143     -3.20312960     -4.00502838
O       0.71046256     -3.91076552      1.69356851
H      -0.25944349     -4.00739646      1.70133389
H       0.88252835     -3.41012642      0.86699505
O       3.45849526     -3.24504791     -1.97047221
H       2.69194676     -2.69146328     -2.23870388
H       3.06829222     -4.03665325     -1.55264094
O       0.32595611      0.64068913      2.28820890
H       1.17350145      1.12361761      2.28970558
H       0.50818222     -0.18144744      2.77704956
O       0.22103500      0.54570977     -4.61707609
H       0.51214600     -0.12534843     -3.96817417
H       0.63019671      0.27867105     -5.45247209
O       3.85347039     -1.82741644      0.29229060
H       2.98175843     -2.11596314     -0.04920103
H       4.47386502     -2.32646256     -0.25973430
O      -0.20025817     -4.73949068     -2.02196531
H      -1.00731964     -4.37658999     -2.42889839
H       0.24645367     -3.94631249     -1.65513615
O       3.47146560     -0.39350801      2.82168127
H       2.73453732     -0.90531345      3.20539525
H       3.71526319     -0.89878050      2.02365332
O       2.46878056      3.99328023     -0.22473326
H       2.64800536      3.50355838      0.60046839
H       3.32564056      4.05882895     -0.66911491
O       1.06887132     -1.83139197      3.66798957
H       0.93981875     -2.23152651      4.53905733
H       0.96239571     -2.56685948      3.03772004
O      -4.43572660      3.17518692     -0.78447620
H      -5.32986377      3.53937497     -0.85985463
H      -4.32257001      2.60769700     -1.57073680
O       2.14726606     -5.55876792     -0.49133732
H       1.37490094     -5.52446019     -1.08482194
H       1.80949807     -5.19455930      0.34842685
O      -3.92209108      1.37764065     -3.07824644
H      -3.41538496      0.60426058     -2.76087524
H      -4.48647203      1.03997637     -3.78787806
O      -1.29600117      2.75971102     -3.54376657
H      -2.20133583      2.39688826     -3.50233776
H      -0.77659851      2.06912741     -3.99627127
O      -2.15776791     -3.77734354      1.55028297
H      -2.21460670     -2.84819481      1.25133971
H      -2.88450921     -4.23783735      1.10550671
O       0.98849974      3.69444281      3.91616754
H       0.88358602      4.50575623      4.43346100
H       0.08497157      3.42409433      3.66460174
O       2.88130297      2.33268016      2.19095256
H       3.22708414      1.52619145      2.61548295
H       2.37658647      2.81732370      2.87128631
O      -1.69106998      2.58288449      3.01986163
H      -2.34969329      2.19856964      3.61652782
H      -1.08838623      1.84800505      2.79204883
O       3.46737316      0.98519169     -0.37811187
H       3.69180256      0.05502182     -0.19461361
H       3.38794445      1.41281556      0.49635546
