96
charge=0
O      -4.21401070      0.99236647      3.54531810
O       1.82747276     -0.68221026      0.47559457
O      -0.04274444     -0.07753962     -1.22795808
N      -4.28355990     -2.24391705     -1.65428558
N      -3.96185326     -2.56815335     -0.43246531
N       0.39263140      1.47292177      0.81484246
S      -3.61207510     -1.46541037      2.06123535
S       3.66768823      0.93081337     -1.73496693
C      -3.15845033      1.09952094      2.94498101
C      -4.51025956     -0.95065109     -1.70197728
C      -3.97887337     -1.48227393      0.32174310
C       3.98050806      2.52517026     -2.33553693
C       2.95862825      3.35014166     -2.03986289
C       1.90370473      2.70326009     -1.33295357
C      -2.65495844      0.00823759      2.12065254
C      -1.49254099      0.10712027      1.44402214
C       2.12874239      1.39861213     -1.09810600
C      -0.67480882      1.29099392      1.50660813
C      -1.90229606      4.46728343      4.02052961
C      -0.66596501      4.50822156      3.40094476
C      -2.71965202      3.37552373      3.86000996
C      -0.26409503      3.46727271      2.60306155
C      -2.32914288      2.30773031      3.06146617
C      -1.09484530      2.36991275      2.39783683
N      -4.33636663     -0.41154783     -0.45695218
S       0.97866668      0.33126861     -0.21706426
H      -4.74536496     -0.40368374     -2.60535091
H       4.86230615      2.79533320     -2.88543619
H       2.91959749      4.39658032     -2.31007603
H       1.01367414      3.21361532     -0.99727030
H      -1.15054974     -0.73580508      0.86601391
H      -2.21749237      5.28596671      4.64682163
H      -0.01276330      5.35152968      3.55447043
H      -3.67181189      3.33542657      4.36029823
H       0.72377389      3.45782621      2.16794070
H      -4.13621931      0.58436607     -0.26627240
O      -3.34053385     -1.34784538      5.10336142
H      -3.65417310     -0.56061782      4.61504129
H      -4.10907939     -1.66726181      5.60281460
O       4.01085863      0.91209224      1.54768607
H       4.79784625      0.45554079      1.19532514
H       3.26225468      0.35319300      1.25941031
O       6.57933839      2.54881777     -4.03777747
H       7.26924219      2.46639130     -4.71405319
H       6.59842098      1.70738313     -3.54215842
O       0.64289035     -2.35990452     -2.83643307
H       1.39919982     -2.66681410     -2.30364823
H       0.31937522     -1.58572320     -2.33877022
O       6.51053215      0.15575334     -2.45373963
H       6.66415977      0.42231679     -1.52974157
H       6.18082252     -0.75695715     -2.37343732
O       1.81031408     -3.25375453      1.70143279
H       1.95081212     -3.22515840      2.65921374
H       1.83593179     -2.32299952      1.40185419
O       6.26022622     -0.59951594      0.36858383
H       6.95787847     -0.98316251      0.92019891
H       6.02177362     -1.29599804     -0.27322083
O      -2.53361184     -5.19359447     -0.26254907
H      -2.68902102     -5.61446115     -1.12424403
H      -3.06431550     -4.36570599     -0.30990112
O      -0.87224644      4.28710121     -0.60021988
H      -0.85510287      3.95416084      0.31026067
H      -1.20509199      3.54160656     -1.13511442
O      -1.13568615     -3.88567869     -4.48490314
H      -0.63384811     -4.06291900     -5.29518038
H      -0.53588057     -3.36267279     -3.92077560
O      -6.38698084      0.33353063      1.72077529
H      -5.73388725      0.58134551      2.40597658
H      -5.81735087      0.07098870      0.96590525
O      -0.95695456     -2.85341236      0.75469620
H      -0.06447735     -3.09889090      1.06003705
H      -1.37142133     -3.68202656      0.45632710
O       2.85567743     -2.94432388     -0.94319058
H       2.54347217     -2.12437800     -0.51438482
H       2.60225623     -3.64027955     -0.31482106
O       5.55061414     -2.51906635     -1.77594334
H       4.62044554     -2.67755496     -1.53191586
H       5.80768977     -3.29407361     -2.29549044
O      -3.42972416     -4.85026333     -3.01100337
H      -2.66899401     -4.57181608     -3.55461858
H      -3.72824092     -4.02635683     -2.56664620
O      -3.70809146      2.42176345      0.01496760
H      -4.11292385      3.29534147     -0.09058145
H      -3.06144633      2.33377472     -0.71348397
O      -1.78372694      1.97531102     -2.10931809
H      -1.91545754      1.83839660     -3.05792510
H      -1.21394038      1.23565796     -1.82735597
O       2.75001630      3.53909699      1.79259364
H       3.50248625      4.14636746      1.87142230
H       3.14887448      2.65128171      1.72594232
O       1.22545310      5.82944912     -1.93134890
H       0.50166637      5.35360091     -1.48045585
H       0.90758062      6.73892166     -2.04089178
O      -5.77551781      2.87808498      5.03464052
H      -5.29207256      2.18775020      4.53621846
H      -6.71026812      2.62479090      4.98270031
