97
charge=0
N      -1.57371355      0.80122124      1.92174124
C       0.80325985      2.71868271      3.98583270
C       1.95200589      2.50372376      3.20189480
C      -0.41031890      2.20477792      3.62649528
C       1.89535867      1.78041419      2.04340957
C       0.89844441     -0.13296875     -0.53479680
C      -0.50582639      1.44773540      2.44247934
C       0.65801571      1.24759562      1.64887838
C       0.23302199      0.45257443      0.56261263
C      -3.89552693     -1.69507978     -0.85516806
C      -3.17713056     -2.28661633     -1.91848726
C      -3.23154863     -0.86769719      0.01712745
C      -1.14988714      0.22895977      0.78160847
C       0.19486757     -0.93098364     -1.36679398
C      -1.84296637     -2.01647146     -2.04626436
C      -1.87547046     -0.59868749     -0.13580085
N      -1.17711011     -1.18184179     -1.17739614
C      -5.36395414     -1.95983589     -0.64409892
C      -3.84605898     -3.18088587     -2.92969656
C      -6.06345739     -2.57051245     -1.86995694
C      -5.22226805     -3.69877642     -2.47962767
H       0.88715478      3.29333502      4.89357927
H       2.89778503      2.89741154      3.53322153
H      -1.28801012      2.35898042      4.22956562
H       2.77109145      1.60590368      1.44355446
H       1.94830779      0.04582285     -0.67788354
H      -3.76182078     -0.42483051      0.83955562
H       0.67374926     -1.40678653     -2.20330774
H      -1.29260342     -2.42592317     -2.87327630
H      -5.47571589     -2.63078372      0.21544421
H      -5.85476848     -1.02296610     -0.35115860
H      -3.17730701     -4.02072131     -3.15760039
H      -3.95044262     -2.62454176     -3.86881641
H      -6.21968010     -1.78909755     -2.62412836
H      -7.06772556     -2.93182313     -1.60760798
H      -5.75462966     -4.17290159     -3.31612368
H      -5.08449111     -4.48998072     -1.73206947
O       3.14913095     -0.44670071     -2.86853023
H       2.61706983     -1.14489771     -3.29239938
H       3.51778954     -0.87587723     -2.07416561
O      -0.18193753      2.99950514     -2.52346655
H       0.75432201      2.78880686     -2.70251598
H      -0.18721075      3.38957968     -1.62867299
O      -0.11029593      4.06027057      0.21964488
H      -0.80093987      4.64190090      0.56712912
H      -0.08142788      3.30244608      0.82307216
O      -3.23725502      2.51750596      5.27300084
H      -3.57454275      1.85539142      4.64022062
H      -4.02358730      2.85510993      5.73081767
O      -2.06389882      0.95724350     -3.18379733
H      -1.46722576      1.70486286     -3.00687478
H      -1.80801643      0.28570252     -2.51556289
O       4.08954431     -1.75569167     -0.47558887
H       4.86491095     -2.31738251     -0.32214316
H       3.66002242     -1.67941340      0.39605481
O       2.89130025     -1.54331192      2.11783710
H       1.98231312     -1.65324346      2.45395276
H       3.34410690     -1.00137397      2.79120587
O      -4.93448491     -2.20603301      2.83814183
H      -5.66221675     -2.65875010      3.29182751
H      -4.42805809     -2.91458011      2.39932213
O       5.03672983      4.13726046      1.25413831
H       4.25143308      4.04044776      0.68572484
H       5.66962834      4.63833217      0.71757156
O       0.10434237     -1.71823401      3.15799569
H      -0.24367275     -1.78148300      4.05920916
H      -0.12006780     -0.82073030      2.85630628
O       1.51130168     -2.58903303     -3.94172777
H       1.87370881     -3.48646752     -3.87472565
H       0.63688568     -2.70111078     -4.35819992
O      -3.47772415     -4.33921573      1.53457366
H      -3.46291355     -5.28485382      1.32402335
H      -2.58283740     -4.02022983      1.31686792
O      -0.82723891     -3.38086094      0.92644488
H      -0.44959327     -2.89408952      1.68283287
H      -0.92137725     -2.70066644      0.22673487
O      -1.09597165     -3.01127007     -5.12229342
H      -1.42306748     -3.64595366     -5.77802246
H      -1.67363651     -2.23125708     -5.21667680
O      -2.83802357     -0.72539518     -5.36464415
H      -2.59199522     -0.13611315     -4.62818482
H      -3.38180045     -0.17749681     -5.94986066
O       5.18688794      2.78639587      3.77133551
H       5.14051562      3.22283190      2.90088896
H       5.70714435      3.38917733      4.32452840
O       4.21083456      0.08372682      4.12009999
H       4.58834118     -0.18484581      4.97212220
H       4.53298490      0.99268125      3.97546356
O       2.64287775      2.34528061     -2.94615798
H       3.08387210      2.64026959     -3.75688306
H       2.81589312      1.38760795     -2.90692563
O      -4.15238004      0.54516842      3.35082567
H      -3.30144260      0.62668340      2.85905660
H      -4.44602339     -0.37112557      3.19328719
O       2.77150001      3.87297452     -0.46526884
H       2.76292289      3.36567125     -1.29838049
H       1.83110319      3.99369335     -0.23555982
