87
charge=0
O      -1.51014500      3.62903957      0.86280006
N       1.86315984      2.56595399      0.42313097
O       0.14965520      4.80190925     -0.12226874
C      -0.34381071      3.70646833      0.51450117
C       0.56478497      2.56942534      0.72729875
C       1.09098717     -2.10695659     -3.26854189
C       1.12636464     -2.78028812     -2.13732253
C       0.14675514      1.24547642      1.03605827
C       1.25662123      0.45588921      0.86842785
N       2.27373414      1.31110614      0.49469729
C       0.04550993     -2.69613655     -1.11524083
C      -1.11922417      0.42645254      1.14640471
C       0.85982185     -0.98866171      0.71132884
C      -0.02811791     -1.30435616     -0.49272180
C      -0.67844136     -1.03332171      0.85802087
H      -0.58127081      5.45815416     -0.14704147
H       0.25662145     -1.47814187     -3.50892813
H       1.88655495     -2.15728216     -3.98562860
H       1.99055868     -3.38216199     -1.90884207
H       3.20594564      1.00114594      0.16605048
H       0.19622546     -3.44442964     -0.32901789
H      -0.91818800     -2.93852469     -1.57419266
H      -1.55446381      0.52696703      2.14540994
H      -1.86276089      0.75874429      0.41817072
H       1.46316150     -1.75851632      1.20377653
H      -0.12996991     -0.50894531     -1.23759793
H      -1.14067634     -1.85118377      1.42449124
O      -2.75045146      2.26146580     -1.42233494
H      -2.86176684      3.00294816     -2.04217232
H      -2.34603945      2.68404506     -0.63788020
O       2.87960408      1.62926047      3.42270915
H       2.65293611      1.61105285      2.46252287
H       2.01772733      1.66598654      3.88233228
O      -2.71695282      5.98704743     -0.19671296
H      -2.42726996      5.15915310      0.23975376
H      -3.33821337      6.40603015      0.41706638
O      -3.01597802     -0.61454337     -1.49639093
H      -2.70766835     -0.97369842     -2.34935216
H      -2.94566548      0.35458700     -1.56207300
O       2.30232819      3.91592398     -1.90961966
H       1.63309135      4.18361480     -1.24342781
H       3.04347045      3.58643441     -1.37367896
O       4.86323361      0.12488094     -0.49891696
H       4.96382035      0.20226044     -1.46006155
H       5.67972714      0.48370734     -0.11919296
O       1.40123232      1.15857431     -2.40369871
H       1.48644651      2.09276193     -2.65736481
H       1.62427846      1.17029353     -1.44352995
O      -1.36624528     -4.70835854     -3.18621899
H      -0.50314928     -5.13557645     -3.02925567
H      -1.87668458     -4.89607734     -2.37498240
O       3.83733613     -2.38735631      0.64885111
H       4.18634110     -1.57937230      0.22743599
H       3.64106117     -2.10552260      1.56077078
O      -2.75847190     -5.08911011     -0.66449077
H      -3.06692230     -4.24915516     -0.27509467
H      -3.20247962     -5.78514513     -0.15694259
O      -3.65813810     -2.57652947      0.45604369
H      -3.44564914     -1.89842767     -0.21185824
H      -4.43373784     -2.23149922      0.92379189
O       0.06494197      5.00100665     -3.17396370
H       0.07600062      4.96054140     -2.19679027
H       0.97826239      4.79165974     -3.42986808
O       0.45080479     -1.32410234      4.30541619
H       0.34964408     -0.36531870      4.46477378
H      -0.13833682     -1.75747813      4.94094641
O      -2.83330951      4.78577558     -2.91337953
H      -1.89723992      4.87525281     -3.17222642
H      -2.89074926      5.27753925     -2.06978782
O      -2.06198951     -1.98211295     -3.91669867
H      -2.39618959     -1.98778945     -4.82615734
H      -1.84704121     -2.91309670     -3.71604399
O       1.21801219     -5.93372848     -2.53713118
H       1.86018245     -5.59548549     -1.88435733
H       1.60582475     -6.75426717     -2.87825923
O       0.22566338      1.56311516      4.75657850
H      -0.54870433      1.93909381      4.29960123
H       0.29406884      2.06462578      5.58294611
O       3.14338152     -1.31353243      3.23509548
H       2.25969152     -1.46613156      3.61762497
H       3.25250127     -0.34941542      3.32749936
O       3.15534985     -4.87397070     -0.61448796
H       3.70579835     -5.52552036     -0.15280777
H       3.38061875     -4.02428140     -0.19269562
O      -2.07204113      2.65247254      3.45395168
H      -2.98784738      2.91651692      3.62702020
H      -1.87533703      2.99625964      2.56135503
