78
charge=0
Cl      2.55083098     -0.46471503      1.81637872
Cl      2.44739722      2.29190363     -3.80901937
Cl      0.76820659      3.29188438     -1.36564586
Cl      3.02060057     -0.78684057     -4.12795857
Cl     -0.21251480      1.32552617      0.77131410
Cl      2.05454452     -2.77253163     -1.88207301
Cl     -0.36312520     -0.83633712      3.60316548
Cl     -0.64542507     -3.27077064      2.12473430
Cl      1.71880805     -2.81754910      3.69745284
N       0.61910707     -1.47450364      0.35924705
C       1.12231334     -1.41029442      1.54305400
C       1.90415400      1.16455488     -2.60632791
C       1.20484497      1.62866955     -1.50210574
C       2.16260995     -0.19503176     -2.73788401
C       0.76936768      0.75189290     -0.53031573
C       1.73756643     -1.07888992     -1.75852558
C       1.04738742     -0.61234740     -0.63578416
C       0.49381109     -2.06366496      2.68977582
O      -3.62506035     -1.44284398     -0.39475915
H      -3.97975311     -1.90542119      0.38782498
H      -2.87632841     -2.00413210     -0.67189660
O      -2.19619074      3.12703411     -1.52214575
H      -1.73835022      3.96753561     -1.32802570
H      -1.82540316      2.84329379     -2.38000766
O      -2.57098304     -5.01289002      0.99627265
H      -1.94989223     -5.75805978      0.99156715
H      -2.21122400     -4.41119274      0.31455908
O      -0.05559936     -5.79349037     -0.18420163
H       0.81764389     -5.83516491     -0.61540478
H      -0.42154135     -4.93741948     -0.48326881
O      -3.33342397     -0.32671170      2.96235433
H      -3.67281205     -1.20120141      2.69695407
H      -3.36336145      0.21403027      2.14975275
O      -2.56341304      3.30017356      2.50051418
H      -2.88981375      2.68051846      1.82076095
H      -2.35717495      2.73698638      3.27050530
O      -0.59596232      5.68820720     -1.06528805
H       0.07266380      5.65713155     -1.77708858
H      -0.90413338      6.60680137     -1.04107099
O      -1.83087775      1.42521868      4.65723178
H      -2.09989865      1.30193784      5.57909339
H      -2.34392288      0.76885173      4.14748957
O       1.39429606      5.52067339     -3.23420461
H       1.70820663      4.61453743     -3.39692479
H       1.92818428      6.09068892     -3.80743818
O      -4.32916684     -2.95227298      2.03759217
H      -5.09960619     -3.37793171      2.44024141
H      -3.74799958     -3.68605382      1.76236713
O       4.83018778     -4.10158834     -1.05733983
H       5.74437324     -4.33676569     -0.83673105
H       4.77739717     -3.13931781     -0.91138419
O      -0.04280180      4.35176681      1.55996842
H      -0.93615789      4.08779068      1.85633288
H      -0.18949795      4.80094979      0.70582184
O       2.48554556     -5.71105481     -1.58723030
H       3.25932377     -5.15157230     -1.38990507
H       2.81635939     -6.39149400     -2.19381891
O       2.57537568      0.33306531      4.73036313
H       3.16502943      0.86415658      5.28955177
H       1.97868416      0.97810891      4.30518321
O      -1.32763405     -3.21099973     -1.02286951
H      -1.14176467     -3.15743257     -1.97221475
H      -0.66719366     -2.62557780     -0.58899566
O      -3.31768033      1.32144506      0.46616637
H      -3.45518481      0.45050825      0.04665846
H      -2.98598009      1.90343796     -0.24370932
O       5.12793304      1.21244904     -2.04778043
H       5.86207728      1.79922961     -2.28045218
H       4.36418974      1.52746670     -2.55903717
O       4.73022972     -1.26153690     -0.56682268
H       4.12764560     -1.00084180      0.15124173
H       4.90237337     -0.44305191     -1.06733064
O       0.79417449      2.27769642      3.54038152
H      -0.07346033      2.02777924      3.91637667
H       0.59932124      2.98239920      2.89637018
O      -0.91755229      2.34231910     -4.05653744
H      -1.14876210      2.19995934     -4.98628888
H       0.05026049      2.26303274     -4.00518457
