99
charge=0
O      -5.99950684     -3.93095418      0.15576671
O       8.06364160     -1.02486405      1.01435479
O       8.07415940      1.08019566      0.49114988
N      -2.53952811     -1.40501111     -0.42524510
N      -7.13432578     -2.19365396     -0.86753709
O       1.07869057     -1.25889718      0.05299688
C      -6.02525556     -2.82939069     -0.36654361
C       1.09275211      0.75423759     -0.97134060
C      -0.20263009      0.30053357     -0.96895028
C       1.87277911     -0.21345343     -0.33359440
C      -0.20039975     -0.94255569     -0.33159638
C      -6.84071081      1.16193265     -2.34961825
C      -5.46094020      1.32283381     -2.18157306
C      -7.47733656      0.01355461     -1.95340949
C       4.09012398      0.88211781     -0.61119498
C       3.93286801     -1.12780174      0.67019648
C      -4.69786825      0.33610118     -1.61513774
C       5.44115470      0.92234257     -0.37610676
C       5.28595160     -1.08541048      0.90528484
C      -6.72548411     -1.01170131     -1.36092618
C       3.31021549     -0.14774863     -0.09454774
C      -5.32773201     -0.83348656     -1.19949875
C       6.04951842     -0.05779005      0.38378738
C      -1.34642122     -1.75711275     -0.10253660
C      -4.84737053     -1.98188284     -0.54991711
N       7.48601602      0.00300845      0.64544295
N      -3.57939911     -2.20024423     -0.16156877
H       1.43507305      1.69757058     -1.36361255
H      -1.06715831      0.80982824     -1.35995221
H      -7.41050817      1.96881400     -2.78286539
H      -4.99397820      2.24665075     -2.47448391
H      -8.53910285     -0.10768388     -2.07658263
H       3.62299772      1.66173877     -1.18387323
H       3.33594084     -1.91532162      1.09528401
H      -3.64056736      0.45167151     -1.46334243
H       6.03814055      1.72197617     -0.77645765
H       5.76354457     -1.84981244      1.49548237
H      -1.21962305     -2.70209956      0.39002505
H      -3.33763466     -3.07932890      0.30602244
O      -6.46633654      4.21583087     -3.07176262
H      -6.71789413      5.15069502     -3.13215823
H      -5.52529659      4.21475468     -2.81009572
O       7.42683174      3.80290714      0.01222588
H       7.69031108      2.87977411      0.18233125
H       8.25065856      4.30893779      0.06273969
O      -3.72637595      0.46897030      1.49825400
H      -3.64795927     -0.36155281      0.97697751
H      -4.22166372      0.23117517      2.29591352
O      -4.09876725     -6.01297562      0.46176190
H      -4.49816206     -6.82210237      0.11126233
H      -4.78276626     -5.32226225      0.35490709
O       2.61335290      3.42744046     -1.77508788
H       2.44334660      3.88772467     -0.93005369
H       3.53797793      3.65962517     -1.98789930
O       2.33182102      4.73259787      0.85493170
H       2.19635652      5.68674349      0.95416316
H       3.24762503      4.57494475      1.15219289
O       8.14186090     -3.86073817      1.48549852
H       9.06878756     -4.05242743      1.69216658
H       8.11652335     -2.90033740      1.31915414
O      -3.66232189      4.03345157     -2.28075462
H      -3.26245600      3.53525824     -1.54379669
H      -2.93070763      4.54297974     -2.66126617
O     -10.34030960      0.56704296     -2.70030217
H     -10.99655870      1.16662922     -3.08752542
H     -10.84491867     -0.22174840     -2.42499506
O       3.47034066     -3.49474019      2.45913641
H       4.15070888     -4.13349381      2.17274471
H       2.63228463     -3.79376479      2.05763123
O       5.60389180     -5.24454569      1.54842194
H       5.81243099     -6.17398088      1.36823222
H       6.46211470     -4.78010058      1.53090970
O      -1.99283629     -4.40267724      1.45234489
H      -2.65228144     -5.01689851      1.08457975
H      -2.05819846     -4.52511449      2.41269735
O       0.06661086      2.94060161      1.18699120
H       0.81296757      3.55400947      1.05530462
H       0.28008551      2.45151192      1.99684941
O       0.92694009     -4.01598355      1.11876343
H      -0.02289038     -4.21040986      1.22644095
H       0.97050734     -3.11354664      0.73916073
O      -9.78541538     -3.51512201     -0.68774932
H      -8.90051688     -3.09220580     -0.74014035
H      -9.62753105     -4.35803670     -0.23827559
O       5.43878073      4.02783773     -2.13791977
H       6.10618077      3.98260467     -1.42709761
H       5.91313169      4.35144686     -2.91837252
O     -11.77732781     -1.79455814     -1.86252267
H     -11.10525596     -2.37887336     -1.46423278
H     -12.60904578     -2.28812543     -1.80241458
O      -2.45345326      2.50632672     -0.17495400
H      -2.89690469      1.85754587      0.40298921
H      -1.60850997      2.69395260      0.27396452
O      10.84737045     -0.20516605      1.26622016
H      10.84594363      0.71687577      0.96209611
H       9.91642981     -0.48857631      1.19143607
O       5.04938528      4.27829069      1.67749849
H       5.82721400      4.13531402      1.10742642
H       5.36195102      4.10372463      2.57802546
