84
charge=0
O       3.18063326     -1.32875793     -1.33463964
O       4.38153666      0.90923594     -0.94304735
F       0.17201250      3.34613828      0.26291892
F       0.84102710      2.14752300      1.99492984
Cl      4.49548274     -0.93795423      1.30532276
C      -1.01675638      1.99196710     -1.78906954
C       0.31249131      2.18976761     -2.18250595
C       0.31699459     -0.51383039      1.94864480
C      -1.50251136      1.39150941     -0.62341580
C       1.46707202      1.79589427     -1.50258561
C       1.63393378     -0.43889563      1.47579706
C      -0.81260166      0.09717727      1.39407883
C      -0.74677917      1.21005255      0.54171008
C       1.46978362      1.42849191     -0.14363573
C       2.12503657      0.31520736      0.40851429
C       0.43980279      2.09906059      0.70817396
S       3.62957228     -0.25863815     -0.38686075
H      -1.76415400      2.21647830     -2.53353852
H       0.46322208      2.55613290     -3.18703120
H       0.12659528     -1.26967492      2.69542309
H      -2.48898954      0.95186110     -0.64897927
H       2.37464551      1.63917077     -2.06699153
H       2.31174715     -1.18313621      1.86540684
H      -1.77151425     -0.38476490      1.51903336
O      -2.02089124      0.06227199      4.23382518
H      -1.95957546      0.99294588      4.50004360
H      -1.17376477     -0.31951857      4.53548173
O      -0.84332872      5.08567002     -1.83922630
H      -0.50193165      4.54018987     -1.11156303
H      -0.71154054      6.00207388     -1.55557660
O       1.53427233      2.39113607     -5.22261095
H       2.13924157      2.84905580     -5.82293121
H       2.05283711      1.65831217     -4.83824320
O      -4.42327179      0.29008259     -1.24275401
H      -5.32026511      0.57491977     -1.01212437
H      -4.24186084      0.72369147     -2.09627887
O       2.96103205      0.16628635     -3.87868319
H       3.82278510      0.61623402     -3.92188970
H       3.05457020     -0.40567298     -3.09030149
O      -3.83412178      1.70467509     -3.65915451
H      -3.02637741      1.54901763     -4.18117291
H      -4.05464964      2.63231760     -3.84538487
O      -0.82224468     -3.58449673      4.73995187
H      -1.15493856     -4.25612118      5.35126584
H      -1.60218142     -3.28078129      4.23724679
O       0.12216497     -0.72028310     -3.83145104
H       0.22423163     -1.50577415     -3.26626574
H       1.04245947     -0.41627559     -3.95677820
O      -2.50460601      4.14954984     -4.08587284
H      -1.98920336      3.40920162     -4.46286383
H      -1.95418623      4.51958662     -3.36846437
O       5.42970933      1.60119067     -3.50980030
H       5.17162463      1.41788269     -2.58432366
H       6.33995451      1.92722873     -3.46376819
O       3.62621603     -1.21579905      4.52701273
H       3.96677320     -1.07672367      3.62505552
H       4.30488012     -0.86432196      5.12081349
O       3.51436175     -4.14743823      4.05183854
H       2.70872360     -4.13480268      3.50179297
H       3.63131750     -3.20824781      4.29629354
O      -1.19763644      1.57011253     -4.94433282
H      -0.34973020      1.96070020     -5.22134830
H      -0.91183409      0.69742917     -4.61683429
O      -3.42119465     -1.98964535      0.21344456
H      -4.01360938     -2.71266534     -0.04400738
H      -3.75148987     -1.21510961     -0.27774089
O       0.07260787      1.83743160      4.75152100
H       0.34148480      2.03487014      3.83911663
H       0.39079048      0.92731526      4.91053532
O       0.69192134     -1.05276332      4.94172258
H       1.65699602     -1.17182691      4.86420376
H       0.30935687     -1.94991243      4.97874480
O       0.89355011     -2.89754052     -2.05726275
H       1.69880682     -2.41202647     -1.78962007
H       1.20859833     -3.76023999     -2.36301936
O      -2.96237868     -2.44581006      3.13992757
H      -3.15163497     -2.30703168      2.19244374
H      -2.77418013     -1.55853839      3.50301860
O       1.08384830     -3.70189224      2.55244830
H       0.45388952     -3.74470959      3.29753249
H       0.52654169     -3.51029992      1.77640624
O      -0.64313273     -2.91898171      0.40523773
H      -1.56681647     -2.63990371      0.26367173
H      -0.20997609     -2.91282058     -0.46811599
