98
charge=0
O      -0.31855065     -0.86774096      0.74288455
Cl      5.76025273     -0.78812388     -0.65963468
Cl     -1.93113573      5.19946576      0.45168090
Cl     -0.49262811     -4.48905490      5.56299809
Cl      4.15025381     -2.33421420      1.52675046
Cl      4.41619948     -0.12145508     -3.40464723
Cl      0.71804283      3.73417018     -0.45680362
Cl     -4.63061456      3.63879900      0.42185303
Cl      0.24562434     -6.32195157      3.14557355
Cl     -2.01942542     -1.80873255      5.07886027
Cl      1.20757568     -3.15118155      0.99178180
Cl      1.40841100     -0.81595326     -3.86251899
Cl      0.62802707      0.78607844     -1.29930386
Cl     -4.69446927      0.62942711     -0.38095370
Cl     -0.51438455     -5.47633020      0.24771778
Cl     -2.84458990     -0.96684001      2.22637956
O       0.01921659     -1.98725514     -1.61730583
O      -2.11774838     -0.53188626     -1.11024768
O      -1.85036884     -2.84452294      0.02159682
C       4.10345537     -1.22619177     -0.94702886
C      -1.95997620      3.52501705     -0.01345724
C      -0.95466254     -4.03140269      3.95098579
C       3.37855030     -1.88243385      0.03596225
C       3.49726837     -0.89516207     -2.14829285
C      -0.79086611      2.88112005     -0.38903815
C      -3.15843263      2.82808023     -0.01464029
C      -0.62603707     -4.84493220      2.87895845
C      -1.63055094     -2.84028376      3.73541683
C       2.04168079     -2.18093309     -0.16411321
C       2.15964676     -1.18473854     -2.35073757
C      -0.81728772      1.54794412     -0.75431310
C      -3.19033116      1.49052241     -0.37177473
C      -0.95900512     -4.46487642      1.58905370
C      -1.96609298     -2.44626156      2.45170969
C       1.38163997     -1.79343940     -1.34716197
C      -2.01522461      0.81145296     -0.73682011
C      -1.60298040     -3.23380259      1.34238614
P      -1.01072230     -1.52411997     -0.44323654
O      -1.94601913     -5.03428020     -2.35770000
H      -1.07276605     -5.11147878     -2.78413037
H      -2.24059242     -4.13373872     -2.58996743
O       4.22367476      2.05365047      0.30331614
H       3.76432684      1.83775916      1.13490311
H       4.62496072      1.21703232      0.01603346
O       0.64471218     -5.04972262     -3.82938405
H       0.77857404     -5.66681641     -4.56473347
H       0.32341989     -4.23056865     -4.24892653
O      -0.50620161     -2.75587832     -5.06054943
H      -1.25842919     -2.56766116     -4.46629337
H      -0.29705367     -1.90736023     -5.49262349
O      -4.28696406      1.44411365      2.82118183
H      -4.63987576      2.33422586      3.00994962
H      -4.46442643      1.27707277      1.88078275
O       2.26845469     -4.90947423     -1.42274401
H       1.70173227     -4.91940885     -2.21753334
H       2.71967748     -5.76911687     -1.41876859
O       3.51793035      4.49146629     -1.08066944
H       3.78265529      3.68599887     -0.59542329
H       4.04041100      5.20821085     -0.69154592
O      -1.63690100      1.50611997      3.97933205
H      -1.50872692      2.47136771      3.91652013
H      -2.53641754      1.37336591      3.62768970
O      -2.76586951     -2.35353350     -3.20852396
H      -3.69818350     -2.19878317     -3.42244475
H      -2.55897917     -1.71785256     -2.49873932
O       2.31593273      1.55643954     -5.42528397
H       2.13536885      2.23744646     -4.75342601
H       3.02631422      1.02788319     -5.02245025
O       1.91765538      3.24985424     -3.15792395
H       1.43190945      2.61712315     -2.59903057
H       2.46469705      3.75096479     -2.52776989
O       0.15914790     -0.19344890     -6.32880945
H      -0.10854990      0.14698236     -7.19608507
H       0.87647279      0.39929509     -6.03552404
O       1.26821817      3.89679073      2.80134811
H       0.38583713      4.08046245      3.17230766
H       1.14078549      3.93608934      1.83638303
O       0.50150770     -0.29504555      3.36797545
H       0.23615407     -0.51403927      2.45358923
H      -0.20368496      0.30253543      3.67301295
O      -1.49793893      4.41116158      3.59015686
H      -2.14502015      4.85409365      4.16838825
H      -1.76070496      4.64237909      2.68214850
O       2.76519488      1.40775560      2.69209255
H       2.33163731      2.27304970      2.81886649
H       2.07799062      0.76838688      2.95158590
O      -5.16384952      4.12955362      3.44538250
H      -5.94267890      4.67062517      3.24719128
H      -4.62862807      4.65555103      4.07011688
O      -3.39122176     -6.16633904     -0.10335440
H      -2.89588591     -5.76772105     -0.84456940
H      -4.17502079     -6.57045824     -0.50999126
O       1.92878488     -2.70537594      4.03952928
H       2.63323460     -2.66449627      3.36872188
H       1.41906069     -1.88483380      3.90274167
O      -3.49813883      5.69450636      5.31473930
H      -3.47607536      6.65590544      5.42834631
H      -3.46465148      5.32883397      6.21110168
