106
charge=0
O      -2.44208912     -2.28247508      1.38191151
O      -2.17738956      1.69973260      1.88625983
O       7.08649405     -0.65401742      2.95044692
C      -2.90733534     -1.27792815      0.91617055
C      -1.32174843      0.85640867      1.83876883
C       7.01290532      0.48914549      2.58167469
C       3.93839825      0.22939095      0.51892439
C       4.82334341      0.38389508      1.49807034
C       2.60367847     -0.26186385      0.78633551
C       1.53919999     -0.12346445     -0.00800268
N      -1.53553299     -1.43428188     -1.11239950
C      -4.23426853     -0.75614484      1.34823803
C      -0.66840517      0.38816418      3.09054221
C       7.63815883      1.58409559      3.37675811
C       1.62866244      0.58087751     -1.31171680
C      -0.24667772     -1.85323486     -0.54843893
C      -2.14540531     -0.50130527     -0.13268676
C      -0.95752611      0.27713250      0.48779201
C       0.22756015     -0.73829204      0.42093435
C       6.37314958      2.24413958      0.83630060
C       6.24627702      0.79409118      1.30606267
H       4.22941417      0.42986743     -0.49656780
H       4.51444066      0.16976957      2.50691356
H       2.47588313     -0.79833500      1.71046798
H      -1.34444047     -0.91128045     -1.98247677
H      -4.59692315     -1.31557116      2.21011715
H      -4.16351234      0.29412806      1.63108250
H      -4.97141581     -0.85254076      0.55129553
H      -0.94852104      1.04143147      3.91599922
H       0.41611309      0.40341591      3.00206494
H      -0.99118276     -0.61881897      3.34840930
H       8.38929000      2.11774301      2.79556971
H       8.12925848      1.16493722      4.25418051
H       6.88747717      2.29582579      3.72003151
H       2.39475929      0.13255600     -1.94477158
H       0.68710207      0.52889077     -1.85738498
H       1.87586019      1.63366860     -1.17153101
H       0.49310705     -2.04151901     -1.33420438
H      -0.40655776     -2.80195197     -0.02385228
H      -2.83921899      0.18806579     -0.63602538
H      -0.71528967      1.12794462     -0.16255027
H       0.35952937     -1.17796300      1.41723756
H       5.82050156      2.41166838     -0.08847741
H       7.41303041      2.51805240      0.65711359
H       5.97211290      2.92732943      1.58302907
H       6.67171687      0.13945266      0.52803845
O       4.93064356     -2.72784834      2.85605009
H       5.61220444     -2.03571911      2.98345333
H       4.09364285     -2.34786294      3.18641917
O      -0.87650107      0.62678386     -6.52157788
H      -1.66662920      0.97775921     -6.95885945
H      -0.12895535      1.08544643     -6.93263516
O       0.17475390      4.31459472      1.46336368
H       0.38778557      5.25673300      1.56158443
H      -0.63996364      4.31081419      0.93213122
O      -1.04453987     -2.29528819     -6.04843535
H      -0.12407681     -2.58685163     -5.96145023
H      -0.99769093     -1.33334788     -6.20561713
O       1.99333490      1.29826812      4.64444519
H       2.26069418      1.78523856      3.83897150
H       2.65378446      1.51727877      5.31876158
O      -2.27337421      4.65353121     -0.13978516
H      -2.93150545      4.35774105      0.51436570
H      -2.62665274      5.48658637     -0.48706292
O      -0.21277241     -2.78206976      3.11817448
H      -0.97414482     -2.63952655      2.52242482
H      -0.35248637     -3.66579667      3.49010144
O       6.85929494     -2.58812378      0.73055214
H       7.02488868     -1.95138306      1.45478163
H       6.15826551     -3.16111094      1.08795165
O      -6.62683613     -2.92472381      2.03296787
H      -7.25395087     -3.64402460      2.20870613
H      -5.93581735     -3.32004441      1.46831610
O       4.90925766      3.56074499      3.53130167
H       4.71318366      4.41087604      3.95549497
H       4.09191384      3.30752843      3.05989423
O      -1.99897429      2.60451335     -2.21930205
H      -2.84749326      2.12315177     -2.22247200
H      -2.08134392      3.27766478     -1.52019375
O      -3.27299046     -3.59866824     -4.73405548
H      -2.52649544     -3.15695794     -5.18055435
H      -3.55332759     -4.30260539     -5.33777867
O      -0.17165193      3.46168956      4.37658903
H      -0.12215104      3.70279766      3.43013038
H       0.49075255      2.75511401      4.50934585
O      -4.12214837      3.72700620      1.84989188
H      -3.48724405      2.98610867      1.92403519
H      -4.66849655      3.67437400      2.64742421
O      -3.97054029      0.32708100     -2.75607341
H      -3.08298101      0.23415912     -3.15573649
H      -4.24318054     -0.58984748     -2.57704310
O      -1.06712452      0.26304955     -3.60983965
H      -0.98255927      0.40759096     -4.57122564
H      -1.22514309      1.14432064     -3.21847706
O      -4.09503107     -2.62424208     -2.17113522
H      -3.86629310     -3.00868813     -3.03665513
H      -3.23921196     -2.28914447     -1.81076051
O       2.38407425     -1.53487918      3.74022778
H       1.51875312     -1.96161374      3.58930507
H       2.19406528     -0.65490628      4.12047402
O       2.47857019      2.75101790      2.15983939
H       1.70296539      3.26610228      1.87520531
H       2.52244392      1.98764238      1.56396984
O      -4.51623367     -4.01827383      0.36210954
H      -3.77254453     -3.54261492      0.78183066
H      -4.49821362     -3.67479819     -0.55006540
