87
charge=0
Cl      0.83328964     -3.43786268      3.28339348
Cl      0.71873869     -0.51536774      2.20872513
Br      0.12647598      4.01000849     -4.18009455
N      -2.19001131      1.30004089     -2.15247989
O      -2.32457887     -1.01670727     -2.04764327
C      -0.07250389     -1.28008309     -3.74575172
C      -0.56348922     -2.36394674     -3.16413215
C      -1.61347868      2.38570338     -2.63213764
C      -1.68465048      0.11999411     -2.53564183
C      -0.37654213     -4.14630618      0.97487296
C      -0.01246561      1.18932708     -3.89136480
C      -0.93080517     -3.87945003     -0.26456630
C      -0.51942342     -1.54669631      0.04903198
C       0.10377079     -3.11352358      1.75142529
C       0.03976054     -1.80486694      1.28048645
C      -0.55079342      2.38466659     -3.50886843
C      -0.57349081      0.02258651     -3.39384917
C      -1.01788187     -2.57859325     -0.73129547
C      -1.60029434     -2.27391558     -2.08944418
H       0.72072639     -1.35340263     -4.46985518
H      -0.16375764     -3.33448189     -3.40382096
H      -2.00355986      3.33403718     -2.29454038
H      -0.29935223     -5.15735877      1.33761258
H       0.83824693      1.15752271     -4.55110308
H      -1.27554248     -4.68742336     -0.88722467
H      -0.54580664     -0.53697351     -0.31995452
H      -2.38463303     -3.01934618     -2.30030384
O       1.06834041      1.02883969     -0.44961518
H       0.71498532      1.52216084      0.31017613
H       1.48756488      1.72542528     -0.98857637
O       3.43116684     -2.09037699      1.68941787
H       2.58397725     -2.38167896      2.07241851
H       3.69952268     -1.34480347      2.25474685
O       2.98166051      0.67362567     -3.30846827
H       2.77664071      1.52684637     -2.87686759
H       2.96023885      0.01510005     -2.58835682
O       0.28140159      4.96744660     -0.61388530
H      -0.68828861      4.85861952     -0.60298220
H       0.42417428      5.92394721     -0.55783031
O       4.00660352      0.10637472      3.45660790
H       3.29067292      0.76841894      3.47593183
H       4.81724946      0.60395640      3.63745218
O      -2.52334112      4.53063235     -0.35133382
H      -3.41876374      4.86054292     -0.54705309
H      -2.65556669      3.83168452      0.31685742
O       1.79334215     -6.71181735     -0.33346925
H       2.27649731     -6.12432369      0.27777241
H       2.17506507     -7.59203162     -0.19680657
O      -5.22101178      5.49414235     -0.92451259
H      -5.64843819      6.15418638     -0.35794410
H      -5.54778625      5.66892725     -1.81996400
O      -2.79009047      2.35101848      1.62092181
H      -2.61757944      1.74105876      2.36185695
H      -3.38461429      1.84672638      1.03478607
O       0.08347959      2.89835757      1.53470486
H       0.18559310      3.62457776      0.89123565
H      -0.87729583      2.74635131      1.59380035
O       2.72783534     -1.22930628     -0.99702604
H       2.11435060     -0.50667640     -0.76416163
H       3.02984856     -1.55816727     -0.13179668
O       1.89496786      2.02079620      3.60197854
H       1.43610014      2.27403424      4.41760314
H       1.30270971      2.30329797      2.88171999
O      -2.02712109      0.42660375      3.64493994
H      -2.16070294     -0.06738205      4.46655268
H      -1.21352874      0.06522920      3.25039912
O       0.63987490     -5.25054595     -2.57614762
H       1.35195600     -4.61111490     -2.77576334
H       0.99690210     -5.78855584     -1.85007154
O      -6.47103563      2.92265019     -0.01856177
H      -5.79236136      2.22507288     -0.10323333
H      -6.03615968      3.74918348     -0.31037825
O      -4.40918925      0.85556484     -0.28706814
H      -4.68941028     -0.06417670     -0.39307509
H      -3.68153445      0.96909186     -0.93803982
O       2.64252706     -3.19606506     -3.09343499
H       3.43461881     -3.02775579     -3.62562777
H       2.67286623     -2.53697951     -2.37468634
O       2.29956586      3.24018507     -1.87628574
H       1.63003632      3.84037911     -1.49319192
H       3.03345863      3.81659653     -2.13686337
O       2.78869036     -1.80079234      5.37717001
H       2.17807803     -2.29853009      4.80273691
H       3.22316847     -1.15718688      4.78415951
O       3.16250223     -4.93371471      1.48943712
H       3.77676509     -4.19377431      1.35413296
H       2.46022474     -4.56264590      2.05269704
