89
charge=0
N      -2.32705810      4.62018154     -7.43290468
O       2.89861189     -1.86309019      1.86482688
O      -1.44840780     -0.22127713      3.44225754
C      -2.50953066      3.68265634     -6.76967335
C      -1.15505266      0.02508988     -2.14444379
C      -1.74874822      0.44556496     -3.12613815
S      -4.17976267      1.63039244     -5.96356160
S      -1.04624875     -0.13906439      0.62460153
C       2.65311730     -1.57373934      0.70215667
C      -0.26616519     -0.36208910      3.70203084
C      -3.65589301      0.65361728     -4.64731768
C      -2.73692976      2.59810323     -5.93054995
C      -0.43830077     -0.31606124     -1.00129726
C      -1.90510862      2.13653619     -4.96388157
C       0.82396301     -0.80913239     -0.94349733
C      -2.42509278      1.03046433     -4.21700851
C       1.33541365     -1.00188585      0.37989064
C       0.43566090     -0.63398266      1.35719135
N       3.54215655     -1.79748534     -0.32051714
N       0.19054554     -0.27579913      4.98295250
N       0.67049311     -0.64934982      2.71531752
H      -4.23373833     -0.13415491     -4.20436179
H      -0.94263180      2.58092653     -4.76561177
H       1.39344452     -1.02756123     -1.83029789
H       3.24924148     -1.83214379     -1.29225115
H       4.40618386     -2.30278215     -0.16203564
H      -0.44488834     -0.06442922      5.74092961
H       1.17086184     -0.30715578      5.23890789
H       1.60014959     -0.93414199      3.01808779
O      -1.97655090     -3.00715963      2.46073550
H      -1.13940581     -3.38670583      2.13279157
H      -1.71985147     -2.12665299      2.80019885
O      -1.65183394      0.31551919      7.27700737
H      -2.15200070      1.11061414      7.04041907
H      -2.30046766     -0.40403545      7.27542113
O      -2.77808041      6.46033105     -3.07170569
H      -3.42861972      7.01334696     -2.61290548
H      -2.89563467      6.65858558     -4.02042382
O      -3.81814296      0.56567137     -0.47420797
H      -3.92609425      1.51413555     -0.30748567
H      -3.86181372      0.14686629      0.40510569
O       1.38882825      1.51555623     -3.31043277
H       1.33252152      2.26843627     -3.92843442
H       1.30146495      0.72736011     -3.88076902
O      -4.48129275     -1.31881118     -2.57486330
H      -4.24942237     -0.69044521     -1.86456532
H      -4.78609782     -2.11761805     -2.11769318
O      -0.18899877      5.16058528     -2.96117416
H      -0.18661528      4.50753979     -2.23611256
H      -1.05727770      5.60145116     -2.93029571
O      -3.92946442     -0.69131606      2.10283306
H      -4.00543608     -1.65234397      2.19718790
H      -3.10141507     -0.47291401      2.57273071
O       2.67295725     -2.18580561     -3.19022565
H       2.11500458     -1.72218185     -3.84276076
H       3.52612443     -2.30937479     -3.63340046
O       1.07607542      0.20264184      8.37156442
H       0.15912464      0.24928996      8.03941121
H       0.99842571      0.13181965      9.33439910
O      -3.09855810      7.02215617     -5.90299950
H      -3.19543261      7.72159992     -6.56640299
H      -2.84835279      6.22639101     -6.40803360
O       2.92091102     -0.21863075      6.19978532
H       3.69794932      0.33912963      6.35354598
H       2.35849180     -0.09453043      6.98816476
O       0.65054731     -3.89124361      1.46993897
H       0.80336745     -4.04205341      0.51713553
H       1.37925550     -3.29390441      1.72733986
O       6.08983801     -3.36657983     -0.07125233
H       5.82622859     -3.57116617      0.84518830
H       7.00277416     -3.68240524     -0.14886810
O       3.54180012     -2.59430826      4.63083877
H       3.29091163     -2.32546941      3.72275420
H       3.34250561     -1.82024239      5.19051657
O       0.93826900      3.71840441     -5.13084412
H       1.03144836      4.29587648     -5.90199784
H       0.59022536      4.29448547     -4.42455295
O       1.28761972     -4.13529273     -1.39854087
H       1.43219545     -5.01640828     -1.77616318
H       1.74000003     -3.51351313     -2.00095456
O       5.06648591     -3.74895593      2.56071946
H       4.35167778     -3.13537548      2.29048673
H       4.94314284     -3.83897376      3.51898245
O       0.98863423     -0.81299236     -5.12278239
H       0.04253674     -1.02073143     -5.14154450
H       1.22414916     -0.60091753     -6.03792547
O       0.02467555      2.88898013     -1.07884464
H       0.53106244      2.43110706     -1.77933743
H      -0.26084935      2.17947249     -0.48158180
