95
charge=0
N      -1.01743980      0.12234448     -4.09891071
S       0.28980844      1.66439148      0.56678209
C      -0.58799168      0.27241505     -3.02636541
N       1.60092833     -4.56566908      0.64604549
O       1.10671100     -4.32749031     -1.51383326
C      -0.14837811      1.65018208     -1.04134386
C       1.54422635     -5.15941092     -0.51533568
C      -0.13422115      0.41430767     -1.71738397
C       0.33643847     -0.73585647     -1.04836816
C       0.44134422     -1.97026072     -1.60476824
C       0.90197277     -3.12657167     -0.92461834
N       1.19705161     -3.31080048      0.42211387
N      -0.43675012      2.86277887     -1.64977072
C       1.89897480     -6.57845506     -0.73040487
C       1.03548226     -2.38482723      1.55057907
C      -0.82990123      3.06779893     -3.06974655
C      -0.71838477      4.10355863     -0.87506501
C      -1.09562897      4.56870894     -3.25085477
C      -1.37463583      5.10739686     -1.83590895
H       0.65938604     -0.60597070     -0.03458465
H       0.17391755     -2.09255163     -2.63866030
H       2.79266905     -6.84145045     -0.16542356
H       1.08526277     -7.22946269     -0.41269946
H       2.09264561     -6.76334847     -1.78647100
H       1.79093104     -1.60378430      1.53230701
H       0.04878939     -1.93027991      1.54529630
H       1.14418768     -2.93464545      2.48173797
H      -1.73203571      2.48131189     -3.26026203
H      -0.04151567      2.69283767     -3.73029610
H       0.22336126      4.48615821     -0.46993466
H      -1.36368140      3.85734767     -0.02581854
H      -1.93266507      4.75536176     -3.93514873
H      -0.21772802      5.06259862     -3.68314514
H      -0.98738769      6.12367752     -1.69165392
H      -2.45533866      5.15449769     -1.65594414
O      -1.72511245     -2.68268611     -4.61125575
H      -2.04264826     -2.71164309     -5.52609906
H      -1.48968672     -1.74961399     -4.45279790
O       3.30800999      0.99666454      1.08592116
H       3.53311664      0.12202299      0.71647999
H       3.17454027      1.57028069      0.30647043
O      -4.09590288      0.37879589     -1.04961374
H      -4.31275925      1.28125569     -0.74127164
H      -3.59040230     -0.02719139     -0.32210090
O      -4.47967339      3.80670818     -3.16254528
H      -4.25275797      2.90251764     -3.45025567
H      -4.99282403      4.18062184     -3.89405945
O       5.45305904     -5.02375074      3.11575188
H       4.49464474     -5.19852743      3.16722263
H       5.82795954     -5.42361435      3.91472508
O      -2.52526748     -0.69353080      1.16998122
H      -2.42608588     -1.62085008      0.88428927
H      -1.91257090     -0.61620354      1.92764521
O      -1.96225552     -3.44683000      0.33737630
H      -2.11637021     -3.83237399     -0.54163400
H      -0.98791982     -3.49398240      0.42828442
O       3.54597429      0.03626103     -2.50774914
H       3.66217382     -0.55097771     -1.73486960
H       3.29424700      0.90795029     -2.14142806
O       2.75844196      2.68168127     -1.35990061
H       1.78353872      2.73384831     -1.44540197
H       3.09756257      3.53717651     -1.66077385
O       5.93494828     -3.29512714      0.84626985
H       6.86300019     -3.43405959      0.60536640
H       5.77972385     -3.87521363      1.61463335
O       0.14102241      5.96038450      1.37208660
H      -0.08914987      5.18627101      1.91991316
H       0.23350778      6.69452588      1.99933132
O      -3.77802758      1.09440183     -3.83203760
H      -2.89852408      0.73284276     -4.04028573
H      -3.95908224      0.75216113     -2.93579738
O       3.80716775     -1.64930732     -0.10094008
H       4.56313242     -2.18289533      0.18497091
H       3.04045290     -2.25254593     -0.02942024
O      -0.64310139     -0.39996589      3.36883729
H       0.07545026      0.25862836      3.33335791
H      -0.98200378     -0.35691089      4.27581877
O      -2.76349874      2.26752351      1.70385852
H      -3.40301701      2.60497374      1.04851627
H      -2.71209056      1.30696982      1.54027135
O       2.60166678     -5.52893916      3.25100930
H       2.25951928     -5.19422706      2.39103641
H       1.83032321     -5.88929037      3.71273823
O      -0.55606294      3.66020145      2.97849593
H      -1.32632677      3.19807604      2.59654932
H       0.11664362      2.96367238      3.10697937
O      -4.64400750      3.21439309     -0.31653588
H      -4.58328843      3.46696236     -1.25728007
H      -5.44219691      3.65376441      0.01241155
O      -1.73759431     -4.50604389     -2.35255772
H      -1.79735337     -3.93639935     -3.14166103
H      -0.78121384     -4.53160152     -2.14181402
O       1.52562794      1.54803391      3.32984701
H       2.11805426      1.82857511      4.04379527
H       2.11643473      1.37654000      2.57247901
