85
charge=0
F       4.30235003     -0.05136028     -0.94995519
F       2.98474026      0.12475786     -2.69584012
F       2.81489541      1.55530182     -1.05510519
F       3.39068958     -2.56221587     -0.69781189
F       2.13001177     -2.18324821     -2.45008305
F       1.21651410     -2.83315877     -0.57390783
F       1.79751147      2.23137456      1.03661874
F       0.06910713      1.96625131      2.34171718
F       2.05160640      1.30235583      2.99992882
F       0.00511075     -2.05728603      1.71340826
F       1.18723359     -1.15893321      3.32600476
F      -0.79063455     -0.36571615      2.83624396
N       0.72348116     -0.21481606     -0.96647519
C       0.10208081      0.16749235      0.08902737
N      -1.23720710      0.48116018      0.10941052
N       2.21360520     -0.53735729      0.80409812
C       3.07268562      0.27997859     -1.36898318
C       2.20274933     -2.11000979     -1.11697142
C       1.23310893      1.43336557      1.94891094
C       0.31853274     -0.91793976      2.33932389
C       2.03053399     -0.63365632     -0.65900947
C       0.96943115      0.04332286      1.31306421
H      -1.82438862      0.02131484     -0.58104828
H      -1.75491345      0.66487046      0.96637842
H       2.36450708     -1.48353939      1.20488463
O       2.55250553     -3.21265385      1.82922521
H       3.30117010     -3.81588902      1.71536638
H       1.75560346     -3.75979193      1.69777747
O       0.16823192     -4.94841467      1.46620471
H       0.36618571     -5.89552009      1.39737806
H      -0.31459856     -4.84711830      2.30889561
O       0.79998115      3.65995606     -1.38267049
H       0.76250662      4.58144349     -1.06963588
H       1.18078055      3.17043035     -0.63459202
O       2.26879815      4.23337784      3.47651607
H       2.86011307      4.35089990      4.23474320
H       2.21698960      3.27473432      3.32940409
O      -3.17472203     -0.79187809      4.52259122
H      -2.34010610     -1.23694742      4.75913258
H      -3.78733517     -0.99841046      5.24444529
O       2.06860869      1.39136481     -5.22570171
H       2.46689666      1.02297268     -4.41750730
H       1.58520886      0.64145816     -5.61970652
O      -1.27469071     -4.67920990      3.94582589
H      -1.09458268     -3.83258546      4.39527837
H      -1.85947264     -5.16737686      4.54429704
O      -2.55035931     -1.27022022     -1.58999540
H      -2.29995715     -2.17511228     -1.32478272
H      -2.39923820     -1.21586110     -2.54643044
O      -1.78631646     -3.93211040     -0.51512355
H      -1.06645162     -4.18518104      0.09005763
H      -2.59810114     -4.15557034     -0.03207351
O      -0.21670616      2.74169655     -3.93204631
H       0.12725128      3.12361542     -3.10256259
H       0.57348868      2.46513518     -4.43415603
O       3.31647732      5.57851950      1.00986795
H       2.50412156      5.85007331      0.54060819
H       3.00015598      5.13493419      1.82244070
O      -0.19515102      5.46042316      2.38682166
H       0.60321361      5.07140596      2.79432500
H      -0.92288830      4.86279118      2.63890609
O      -1.30509745     -4.72674593     -3.28635919
H      -1.45061685     -4.47087224     -2.35543585
H      -2.01029433     -5.35571901     -3.50197361
O      -0.67967802     -2.14463014      5.30728035
H      -0.05179594     -1.79095399      4.65736015
H      -0.24818874     -2.02428392      6.16551428
O       0.67461718      6.30261217     -0.19666497
H       0.34196356      7.18837444     -0.40092281
H       0.30328835      6.07807642      0.67867218
O      -0.97063751      0.02906061     -3.50602644
H      -0.87040701      0.97219353     -3.72111743
H      -0.41247294     -0.08143126     -2.70351594
O      -3.07528357      0.93030109      2.23655751
H      -4.01125850      0.96230129      1.98626304
H      -3.04662222      0.33976077      3.00994461
O       0.91641206     -3.55834299     -4.72574273
H       1.39332470     -3.15458048     -3.97932807
H       0.15683753     -4.00668888     -4.30882306
O      -2.32271631      3.64409705      3.14539062
H      -2.50488667      2.73677651      2.83764755
H      -3.03225716      3.85486684      3.77248517
O       0.43065283     -0.94742126     -5.91665638
H      -0.13813844     -0.63250915     -5.18525113
H       0.62350414     -1.87110148     -5.67519188
