69
charge=-1
O       1.70291376      1.76856901     -1.91333312
O      -1.21832907      0.55155804      1.39456139
N       0.36245064      1.50469267     -0.02437889
C       0.96776343      1.09739521     -1.17174186
C      -0.45937534      0.52207371      0.41408175
N       0.57707044     -0.21317034     -1.43647106
N      -0.36728195     -0.57868245     -0.44756258
H       0.63101399     -0.66567585     -2.35551796
H      -1.21479492     -1.10281841     -0.68825242
O      -0.00726382      4.19382353     -1.99407221
H       0.62048640      3.44254204     -1.97742647
H      -0.30210081      4.27794072     -1.06807806
O      -3.55937639      2.89149900      1.57900784
H      -3.27163263      2.72941132      2.49781530
H      -4.51337329      3.06091319      1.63956578
O      -0.46916142      0.73136858      4.09247813
H      -0.73556859      0.71531931      3.15177645
H       0.38479280      0.26198422      4.07546561
O      -2.03838491      2.48141866     -3.34150109
H      -2.51373233      2.07379198     -2.59254616
H      -1.43312989      3.12550164     -2.92369157
O       2.54720632      1.47021170      2.07845503
H       1.93079789      2.02990890      1.57709847
H       2.52494440      0.61791355      1.60226861
O       0.32631310     -3.43147566      0.12820590
H       1.04790849     -2.85290463      0.44115496
H      -0.41583554     -3.17450986      0.70642662
O      -0.88853970      4.00917018      0.87540555
H      -0.45251460      3.16241645      0.63461889
H      -1.79346617      3.72530599      1.10605510
O       0.27359854      1.03560323     -4.37201357
H       0.84833747      1.31090893     -3.63094796
H      -0.56151589      1.49467896     -4.17247874
O       1.96577483     -0.95092830      3.73395111
H       2.60917423     -0.25303755      3.92788314
H       2.07354622     -1.11098553      2.77727769
O      -3.30085350     -1.72592165     -0.59129411
H      -2.81218355     -2.26347333     -1.24346451
H      -2.92326131     -1.97584841      0.27397467
O      -0.48993026     -2.38071163      4.51877350
H      -0.91692501     -1.74541365      5.11478313
H       0.36755439     -1.97216726      4.29069803
O       2.32665523     -1.24307070      0.83336422
H       3.06377414     -1.44861469      0.23131339
H       1.60562743     -0.92167129      0.23453434
O       2.06889115     -3.38345985     -2.34136626
H       1.54946990     -2.87522035     -2.99285512
H       1.47543803     -3.49609900     -1.57413945
O       0.43530913     -1.79844636     -4.20283733
H       0.37013295     -0.83398018     -4.32313560
H       0.40470403     -2.15398747     -5.10449191
O      -1.41553796     -3.17544799     -2.29971145
H      -0.83316183     -3.33594716     -1.53003323
H      -0.85628888     -2.71103744     -2.95197174
O       4.29149612     -1.99355762     -1.16036046
H       5.12207561     -2.43652658     -1.38896273
H       3.59439904     -2.49175014     -1.62919367
O      -1.74076425     -2.26513624      1.87618974
H      -1.40568018     -2.40911537      2.77975534
H      -1.60247026     -1.30468017      1.73366757
O      -3.35276961      1.28684437     -1.01307032
H      -3.33857941      0.32840246     -0.82772968
H      -3.35344109      1.73106894     -0.14357817
O       4.43072315      0.79286514     -2.27032561
H       4.39323917     -0.10861255     -1.89032337
H       3.52591437      1.14744782     -2.16207282
O      -2.68672083      2.58999546      4.36447649
H      -1.96106355      1.94221351      4.30653296
H      -2.32215317      3.32442844      4.88320705
