106
charge=1
O       0.10081791     -4.71177641     -1.45293023
C      -0.16493540     -3.53561879     -1.52387493
C       0.41346568     -2.47883480     -0.75621227
C       0.12682417     -1.16850136     -1.01125248
C       0.07173433     -3.15056801      2.19809352
C       1.13353310     -2.56113517      1.65791412
C       0.11248203      2.78537906     -3.41643728
C       0.96504265      3.20167944     -2.40816815
C      -0.45325033      1.53014429     -3.39113277
C       1.26692113      2.36858830     -1.34786801
C      -0.16522893      0.69390998     -2.32375272
C       0.70392530      1.11263618     -1.30893930
N      -0.56204623     -0.63870687     -2.09013482
C      -0.84307815     -4.07442468      1.49734221
C       2.67592595     -1.75463762     -0.17718469
C      -0.05318028      0.38836970      0.98750326
C       3.41246567      0.41518626      2.33406391
C       1.97351299     -1.62391082      2.47497646
C       0.94130061      0.62450578      2.11337817
C       2.21549764     -0.35078728      0.25543819
C       1.54732689     -2.75900821      0.19819451
C       0.77608872      0.00109385     -0.27122760
N       2.16251066     -0.24862250      1.81132447
H      -0.91968234     -3.26994318     -2.24573331
H      -0.17625724     -2.89554227      3.21351098
H      -0.11617422      3.45595085     -4.22936002
H       1.39964854      4.18690081     -2.45064972
H      -1.08428637      1.17945578     -4.18885590
H       1.92824382      2.69082227     -0.56338292
H      -0.99273209     -1.20336078     -2.83126897
H      -1.43273498     -4.67197113      2.19479164
H      -0.28688887     -4.76641497      0.86512792
H      -1.54005341     -3.52693397      0.86131843
H       2.86074400     -1.77786065     -1.25632401
H       3.61690210     -2.02100931      0.31415656
H      -0.66305224      1.27566885      0.78928467
H      -0.74264907     -0.42227329      1.23973023
H       3.39547986      0.44414166      3.42027737
H       3.48390821      1.43418651      1.96420026
H       4.29333144     -0.12921707      2.00539037
H       1.53817478     -1.47545616      3.46418208
H       2.95543500     -2.07001916      2.64347181
H       0.52808017      0.38899786      3.09730927
H       1.26286433      1.66725233      2.13725130
H       2.91315271      0.40592807     -0.11691423
H       1.88693403     -3.79609259      0.05854783
O      -1.98069753     -0.16787049     -5.70282349
H      -1.58078006     -0.52940647     -6.50857093
H      -2.08433158     -0.93549078     -5.11209615
O      -2.99981089     -1.10250929     -0.36266001
H      -3.54095881     -1.68494165     -0.92503057
H      -2.20413239     -0.91675337     -0.90602461
O       6.44579370      0.30300915      1.58520228
H       7.07453108     -0.35629020      1.25495544
H       6.96130409      0.88128527      2.16733251
O      -3.03372365      2.48849954     -6.11128503
H      -3.94906605      2.38836720     -6.41197457
H      -2.70285182      1.58010350     -5.97920471
O       2.56312631      0.15399313      5.56105866
H       3.26129003     -0.02431988      6.20891162
H       1.99757229     -0.64014859      5.57148077
O      -1.77779666     -6.65388397     -0.53684601
H      -1.33349130     -7.51427223     -0.54771183
H      -1.11582115     -6.01568473     -0.86833635
O      -2.18001524     -2.42987656     -3.96531160
H      -2.96757636     -2.58502248     -3.40935425
H      -1.82705692     -3.32053852     -4.14320642
O       1.26261529      2.70956550      5.12777989
H       1.16154751      3.09941155      6.00897145
H       1.70407249      1.85192423      5.27474755
O      -1.03675234     -5.10375249     -4.15197945
H      -0.60735329     -5.08757700     -3.27360539
H      -0.73150111     -5.91717103     -4.57850120
O      -1.81067126     -2.17193567      4.66438746
H      -2.19408296     -1.66470371      3.92515921
H      -2.57197393     -2.45876359      5.19012661
O       3.26936500      3.54150596      0.84269141
H       2.48210771      3.65344802      1.40826002
H       3.67095537      4.42846932      0.79641031
O      -4.43284913     -2.89899080     -2.14391570
H      -4.42641475     -3.78300996     -1.73297430
H      -5.33752925     -2.78237871     -2.46835353
O      -1.24646257      5.70513324      2.57115537
H      -1.52657015      6.27965908      1.84288109
H      -1.73811246      6.01170257      3.34781936
O      -4.38806245     -5.47611284     -0.91280267
H      -5.02350017     -6.17201598     -0.69010610
H      -3.51143870     -5.88296065     -0.78427629
O       4.45156862      6.18911463      0.70300789
H       5.07313172      6.47227991      0.01577733
H       4.37290429      6.94132038      1.30855608
O       4.71899174      1.44672536     -0.53951453
H       4.28891010      2.21342842     -0.11323460
H       5.33678656      1.09205073      0.13014807
O      -2.96974571     -0.70290433      2.47223865
H      -3.64442867     -0.02570915      2.63079713
H      -3.00033051     -0.86226438      1.51148884
O       0.91874186     -2.19936331      5.53456411
H      -0.02106483     -2.16384991      5.27869073
H       0.99195138     -2.97206928      6.11405492
O       0.89669440      3.73528109      2.46022616
H       1.00212564      3.43978193      3.38462418
H       0.18138988      4.39642014      2.48689402
O      -0.95318583      4.45370634     -5.73803575
H      -1.67754666      3.81653265     -5.88962772
H      -1.05488746      5.12698183     -6.42755809
