68
charge=0
Cl     -3.17724658     -2.23435432     -1.23030501
Cl     -0.06412614      0.78806871      2.57245298
N      -2.71862707      0.19966128     -0.35594689
N       0.05359278     -0.70455444      0.41757657
S      -0.44715169     -0.95533041     -1.17292261
S      -1.57417675      1.39484810      0.02763091
C      -2.19431486     -0.84959699     -0.85277635
C      -0.46457812      0.33793420      0.94308989
O       1.53874049      2.46056477     -1.49206215
H       2.35780757      2.01407305     -1.21070549
H       1.20383886      2.90378254     -0.68895173
O       2.31879724     -2.18693337      1.53167510
H       2.45510389     -1.81086337      2.41885476
H       1.54772029     -1.67521954      1.18627578
O       3.48320420      1.12183181      2.34198406
H       3.16071985      0.42296424      2.93844655
H       3.08232793      1.94505805      2.68186289
O      -1.06517417     -4.72145347     -0.49559101
H      -0.97880318     -4.29157537     -1.36631785
H      -1.48888294     -5.57361397     -0.68204837
O      -0.45293935      1.58183237     -3.36877350
H       0.26457921      1.88888338     -2.78592314
H      -1.22992019      2.12981119     -3.13849470
O       2.14016106      3.62437703      3.25889033
H       2.61213762      4.46645090      3.33226060
H       1.56001006      3.72093064      2.48075298
O      -0.83835082     -3.47347485     -3.09584565
H       0.10865212     -3.37660312     -3.30896149
H      -1.23796836     -2.64332986     -3.41724885
O      -3.02686826      3.01371941     -2.73366406
H      -3.52670734      2.19924287     -2.93022912
H      -3.21269145      3.60026950     -3.48367318
O       0.57796721     -3.18666408      4.75299956
H       0.43294956     -3.58708626      3.87526300
H       0.27740402     -3.85386878      5.38800641
O       0.33922375      3.63197587      0.96119090
H       0.05833269      2.79309867      1.37197323
H      -0.45477592      3.98071839      0.51710511
O       1.96520848     -2.99130882     -3.59187138
H       2.26290620     -2.45844775     -2.83028323
H       2.74048555     -3.06924755     -4.16813613
O       2.79944608     -1.43587071     -1.33097790
H       3.17833195     -0.55632315     -1.15112632
H       2.70407433     -1.82684554     -0.44381225
O       0.27668383     -4.27211309      2.05886318
H       1.00387150     -3.67011582      1.80591312
H      -0.19556243     -4.44851218      1.22465967
O      -1.87431592     -0.86944030     -3.89393426
H      -1.28509567     -0.09788533     -3.80420528
H      -2.76671996     -0.48232487     -3.79928694
O      -5.65699145      0.03792469     -0.82670521
H      -6.09683752     -0.26619593     -0.02013503
H      -4.69666754      0.07309880     -0.60981713
O       3.92413630      1.12755487     -0.48593828
H       3.80616487      1.11050316      0.48272192
H       4.86810087      1.29354127     -0.62368427
O       1.15058894      1.60690017      5.18527828
H       0.77863920      2.07427258      5.94823103
H       1.46750760      2.30319246      4.57679696
O      -4.51419821      0.56496124     -3.47028217
H      -4.96253050      0.36151692     -2.62883424
H      -5.13117071      0.27987444     -4.16028385
O      -2.02620569      4.48360464     -0.42024627
H      -2.57773378      5.27854205     -0.37502390
H      -2.36035614      3.98203318     -1.18751826
O       2.26844499     -0.88848259      4.14969645
H       1.72303913     -1.64196367      4.44459585
H       1.86273840     -0.10829838      4.57510921
