64
charge=-3
O       0.19746889      0.99459377     -1.62614708
O       0.06528371     -1.69508039     -0.56588163
O      -0.32499119      0.57725797      1.18609402
P       0.48411138     -0.03589798     -0.22969001
O       1.48470908      2.59201845      0.39540945
H       1.83647415      2.67226586     -0.51105479
H       0.95768761      1.74797732      0.33264177
O      -0.82298419      1.37964354     -4.30220189
H      -0.48145682      1.38086971     -3.39029063
H      -1.07168426      0.44091052     -4.39059296
O       0.45636500      4.69786929     -2.26241920
H       1.12530233      3.99991558     -2.39936701
H      -0.24167630      4.22593184     -1.77154717
O       1.48283435     -1.24093684     -3.01433455
H       1.04823156     -0.71308457     -2.30857745
H       1.79599070     -2.01205349     -2.50566102
O       0.05967164     -4.17872112      2.86757803
H      -0.81408560     -4.13852083      2.43272132
H       0.48669101     -3.35365934      2.57146242
O       1.19899758     -1.66513738      2.03939324
H       0.80162057     -1.30038605      1.20090606
H       1.08141570     -0.91856422      2.65576444
O       0.50651134      3.86942241      2.72536504
H      -0.40761904      3.54127783      2.61896048
H       0.93638793      3.49469304      1.93461985
O       3.32429341      0.15581756     -0.72970232
H       3.27844760      0.90022884     -1.35642927
H       2.35424601      0.01052111     -0.54790733
O       2.39127934      2.37426519     -2.59529299
H       2.53630347      1.99154309     -3.47783733
H       1.64456560      1.84787779     -2.24877798
O      -2.61187867     -3.88459999      1.54755802
H      -2.45777626     -3.88563139      0.58588896
H      -2.58241121     -2.92522757      1.71786884
O       0.73349255      0.99392399      3.70152218
H       0.44722559      0.81333088      2.78656567
H       0.85479117      1.96211765      3.66695857
O      -1.53490652      3.07286134     -0.80187019
H      -0.95734255      2.30386855     -0.96461682
H      -1.76418965      2.97148640      0.14082423
O      -1.32148764     -1.48355142     -3.87067108
H      -1.68564957     -1.15153018     -3.02821680
H      -0.37061270     -1.51756611     -3.65781152
O       3.92639645     -1.98041261      1.13136474
H       3.86193164     -1.25185067      0.48448832
H       3.03798063     -1.95166170      1.53507566
O      -2.50104623     -1.04887627      1.47694036
H      -1.63829694     -0.66764496      1.24736793
H      -2.95746500     -0.96402810      0.62013524
O       2.26116132     -3.44815742     -0.97983453
H       2.90046916     -3.08879541     -0.33340043
H       1.47424988     -2.89660492     -0.81034263
O      -2.22049613     -3.20621223     -1.21844716
H      -1.38884003     -2.74819051     -1.00558327
H      -2.77233479     -2.45476359     -1.50323862
O      -2.24924018     -0.32446050     -1.30815769
H      -1.30232081     -0.32236256     -0.97243698
H      -2.39601122      0.62988597     -1.42650005
O      -2.08798461      2.50974080      2.15739025
H      -2.42676049      1.98401759      2.90618896
H      -1.49996654      1.86182711      1.72348203
O      -2.18718155      0.20008598      4.11184767
H      -1.23627893      0.41904533      4.07011877
H      -2.34070833     -0.26177523      3.26595839
