82
charge=0
O      -0.97232538      0.71198052      1.95054171
O       2.44147857      4.05064643      1.00526932
O      -1.52434064     -0.17648990     -0.08124939
O      -1.70625270     -1.78348470      1.75844969
C      -0.89772108      0.71513868      0.73968500
C       1.64980263      3.42880447      0.30055495
C      -2.51306655     -2.85079405      2.00123133
C      -2.11935817     -1.23943251      0.57891659
C      -3.42831101     -2.99498258      0.99377963
C      -3.18444362     -1.97466720      0.08474064
C       1.48033297      3.71611099     -1.08834119
C       0.61907346      2.98769977     -1.83831095
C      -0.16127190      1.98471543     -1.25783140
C      -0.05665729      1.72953710      0.08005429
N       0.87203430      2.40759496      0.81821391
H      -2.40201219     -3.49370478      2.86807723
H      -4.16112580     -3.78081279      0.90206496
H      -3.68844151     -1.79423762     -0.84847410
H       2.05776617      4.50985778     -1.52853180
H       0.54060337      3.17039705     -2.89819146
H      -0.81721887      1.37904864     -1.85984849
H       1.08297034      2.08030637      1.76246835
O      -1.29022674      0.01735787     -3.50746256
H      -0.74431502     -0.76236839     -3.29322322
H      -2.20746154     -0.26684668     -3.33552428
O       0.93026722     -1.28575154      2.82899756
H       0.11007883     -0.82928236      2.54954526
H       1.46458081     -0.53732021      3.14494168
O       2.02743244      1.24354796      3.55355989
H       1.27564198      1.74105364      3.92663319
H       2.77699503      1.86368292      3.53736855
O       0.91307080     -1.86890621     -0.04688786
H       0.10961884     -1.31006485     -0.08145251
H       1.12518073     -1.85694119      0.89983418
O       3.13106970      6.00827491     -2.33577621
H       3.72498338      5.42159327     -2.84271841
H       3.58012551      6.17375233     -1.48503085
O      -3.60754973     -5.84483924     -1.79134096
H      -3.18965443     -6.55531875     -2.30058384
H      -3.22000647     -5.02053636     -2.13975883
O      -0.53411020      2.55995471      4.10697310
H      -1.26785148      2.50226465      4.73543083
H      -0.75927969      1.93496851      3.38671480
O       2.87729857      2.33894008     -5.23783749
H       3.00478793      1.84470648     -6.06242259
H       1.91597556      2.31773801     -5.07366763
O       0.88890698      5.04118670      3.32548039
H       0.39167448      4.25485575      3.62628056
H       1.39780056      4.73275086      2.54747848
O       0.27500209     -2.37468336     -2.80073816
H       1.04075332     -2.77374436     -3.23755886
H       0.55180380     -2.25098721     -1.87519006
O       4.10935436      3.20406293      3.20756156
H       4.85987126      3.81255774      3.27118335
H       3.58164855      3.51593228      2.44308201
O      -4.91773750     -4.92096817      3.50559964
H      -3.97676725     -5.02201002      3.75089378
H      -4.98243493     -5.20011329      2.57050896
O      -5.11400251     -5.64244392      0.64969217
H      -5.87416018     -6.23537491      0.54797501
H      -4.60104671     -5.74423874     -0.17408568
O       4.18895270      6.27037710      0.38668755
H       3.60746088      5.51829999      0.62651571
H       4.05691015      6.93178060      1.08310855
O      -4.06244892     -0.89290052     -2.97450828
H      -4.71065501     -1.09871559     -3.66480376
H      -4.46917918     -0.18923279     -2.44649624
O       0.00306817      2.22932823     -4.80467627
H      -0.43174721      1.46018656     -4.39140638
H      -0.67387249      2.63536774     -5.36673141
O      -2.46264772     -3.40718641     -2.80551950
H      -2.99144892     -2.58997658     -2.88925141
H      -1.53397331     -3.11024445     -2.81188458
O       0.51503696     -3.88989844      3.94803603
H       1.41443355     -4.15412063      4.19519758
H       0.61548822     -3.00071664      3.56319407
O      -2.06485183     -5.12749700      4.20720616
H      -2.00000840     -5.71938025      4.97253150
H      -1.17928981     -4.72604782      4.12669714
O       4.71550935      4.07557242     -3.81284751
H       4.09982867      3.49118372     -4.29556621
H       5.60417182      3.78583042     -4.06981058
