77
charge=0
O       1.50794841      0.29510897     -1.70424273
Br      3.37501694      0.30009211      0.88663668
Br     -1.63430534      0.03323187     -1.02453229
N       1.94185201     -1.92177014      1.96867529
O       0.89746190     -2.73954315      1.69151177
C       0.86017578     -0.62823215     -1.26070976
C       2.10081440     -1.06687106      0.98152119
C       1.16575844     -1.33955271     -0.01122163
C       0.42010185     -2.40560858      0.46057737
C      -0.70873496     -3.01125870     -0.30023637
C      -0.40395782     -1.07065740     -1.94932850
C      -0.72342942     -2.56133475     -1.77474192
H      -0.63736204     -4.10251492     -0.23224150
H      -1.64947667     -2.73428764      0.18717168
H      -0.38912581     -0.77797380     -3.00567242
H       0.00549822     -3.15212382     -2.34397929
H      -1.69859824     -2.77762594     -2.22680346
O      -0.10645028      1.95804449     -3.53818964
H       0.46475124      1.39715511     -2.97414132
H      -0.79591170      1.36151923     -3.88292293
O      -3.89349701     -1.99603973     -2.96914557
H      -4.23948997     -1.99008553     -2.05872752
H      -3.61296952     -2.92395758     -3.06666848
O       6.31145243     -0.23860019      1.97451099
H       6.06828991      0.57645929      1.49540800
H       7.25459780     -0.37033172      1.79399948
O      -3.30392104     -0.73489904      1.70980694
H      -3.33948856      0.16994830      1.34332688
H      -2.49056128     -0.76738532      2.24772636
O      -3.34593459      1.95751528      0.51311550
H      -4.13812740      2.46628307      0.74298256
H      -3.11545115      2.24649192     -0.39005511
O       4.50613578     -1.81248861      3.69943439
H       5.14014113     -1.29558483      3.16470903
H       3.69372136     -1.86126748      3.15215665
O      -1.05116352      2.00632741      2.40260204
H      -0.95801647      1.07483569      2.68300050
H      -1.80142319      2.01886617      1.77772186
O      -4.53051333     -2.46024903     -0.21011337
H      -4.16489262     -3.33667847      0.02265332
H      -4.18797287     -1.85656469      0.47371407
O       1.26306168      4.46635325     -3.19405713
H       1.70891448      4.73931888     -4.00991617
H       0.77965657      3.64668687     -3.41805148
O      -2.53073534      0.35033085     -4.01316528
H      -2.87640520      1.08261101     -3.46636198
H      -3.03189363     -0.43725926     -3.73226039
O      -2.65919129      2.86560663     -2.20966286
H      -2.90503838      3.74278910     -2.53791992
H      -1.76237024      2.70710119     -2.55910074
O       4.27547014      3.66562000      2.64913989
H       3.31438944      3.59550814      2.50472921
H       4.36827225      4.11956300      3.49971313
O       5.55737661      2.23360208      0.52147169
H       5.10528653      2.72469707      1.23297268
H       6.09891668      2.90015482      0.07032649
O       4.40954061      1.02930685     -2.06753502
H       4.72880677      1.40867680     -1.22403997
H       3.46975326      0.78720991     -1.92890708
O      -0.96310308     -4.94968952      2.20181757
H      -0.31213748     -4.23047040      2.08945217
H      -0.62942565     -5.47802718      2.94093935
O       1.74008630      3.03514910     -0.67036823
H       1.67150431      2.11472762     -0.99663040
H       1.63335462      3.59295939     -1.46109168
O       1.47365931      3.39881570      2.14962238
H       0.61349009      2.97643466      2.32380884
H       1.56773865      3.33162566      1.17972557
O      -0.77035917     -0.82418979      3.18697785
H      -0.16640422     -1.43244055      2.70950808
H      -0.51731169     -0.89609754      4.11848201
O      -3.23844188     -5.08797159      0.39409353
H      -3.87656310     -5.69063038      0.80410553
H      -2.48716411     -5.05826776      1.01600488
O      -2.91712763     -4.72806254     -2.53407169
H      -3.13247079     -5.56802854     -2.96532365
H      -3.03948473     -4.88460957     -1.57700726
