104
charge=0
O       3.02323052      0.74241814      3.93663049
O       0.00154037     -2.25922428      0.87145752
O       7.08879087      2.06390433      0.38281344
O      -7.44488749      0.14489477      1.95654412
O      -6.98147044     -1.84218385      0.42853249
N      -0.35876062      0.38896750      3.10910287
N       1.77865447      0.51674971      0.53496436
N       2.20735711     -0.34642327      1.28663751
O       1.41908575      2.24051602      4.41095819
O       7.35820299      1.93538918     -2.17329534
O       6.76031836     -0.24781631     -0.80739191
O      -6.72746801      0.52900622     -0.41928658
C       1.85119533      1.06914295      3.89278131
C       0.10490771     -1.36636997      1.67353319
C       0.91465392      0.20028291      3.20614973
C       3.00824846      2.78761366     -2.07682915
C       2.14523499      2.08987164     -1.26013221
C      -3.05951733      0.48073017      2.42328086
C      -2.77976414     -1.46266229      1.05267126
C       4.37150681      2.58092701     -1.97858882
C       4.00721628      0.97828325     -0.24708095
C      -4.39854519      0.50828096      2.11020028
C      -4.12154061     -1.43307494      0.74941428
C       2.63393111      1.17836613     -0.33161419
C      -2.24003149     -0.50845963      1.89990986
C       4.84941888      1.67349462     -1.06804369
C      -4.92868407     -0.44986545      1.27360577
N      -0.86490727     -0.51939316      2.24179693
C       1.37772840     -0.87590585      2.27345845
P       6.59350105      1.35161230     -0.87797198
S      -6.66846124     -0.44399814      0.83283598
H       2.23519458      2.71659963      4.67800216
H       8.00002770      2.58205719     -1.82453224
H       6.46119283     -0.55953003     -1.68865084
H      -7.58466654      0.99602951     -0.44984120
H       2.62295008      3.50292108     -2.78532076
H       1.08207460      2.24851288     -1.31702147
H      -2.61970934      1.23062603      3.06464480
H      -2.13593642     -2.21518910      0.61998342
H       5.06708533      3.14550191     -2.58145321
H       4.40264095      0.29024363      0.48401774
H      -5.03158778      1.27686193      2.52434715
H      -4.54490247     -2.18606635      0.10077148
H       1.90207324     -1.67507286      2.81881013
O      -1.55961484      2.63834259      4.13708651
H      -0.59400934      2.47304232      4.20078104
H      -1.73566857      3.36431118      4.75552405
O       6.24522503      4.77844905     -1.51991123
H       6.02689120      5.60100300     -1.05552289
H       7.15707934      4.56721448     -1.24693944
O      -7.72108770     -4.13526416     -1.09383284
H      -8.59979478     -4.38422571     -0.76905194
H      -7.47074558     -3.34710947     -0.57535806
O     -10.20022305      0.84576012      2.10093758
H      -9.27151014      0.54130428      2.13536577
H     -10.66941000      0.31818061      2.76371176
O      -2.90178409     -3.52202286     -0.83434549
H      -3.26568494     -3.23288810     -1.69407584
H      -2.95536423     -4.49318362     -0.86398987
O       8.93743866      3.93002816     -0.66208488
H       9.87348361      3.80221207     -0.45720116
H       8.45499153      3.37374965     -0.02123955
O      -6.59575381      2.51224983      3.31876339
H      -7.34270335      3.00037840      3.69766449
H      -6.98745176      1.72983777      2.88335540
O       5.66881625     -0.83380129     -3.32912004
H       5.91311424     -0.12585851     -3.95129977
H       5.37195228     -1.57305762     -3.87718154
O      -5.38159061     -0.10509010     -2.91365495
H      -5.82950194      0.07495512     -2.06615809
H      -5.67128557      0.60395913     -3.50724801
O       5.89064839     -3.01034202      0.04545053
H       6.17863730     -2.09416105     -0.13432318
H       4.95080640     -2.95093885      0.30654739
O      -9.25830179      1.84089605     -0.46580958
H      -9.92582315      2.39376327     -0.89590169
H      -9.66275329      1.55683606      0.37409431
O       3.93665010      3.46029300      4.83166464
H       4.56043363      3.82076660      5.47894906
H       4.49348224      2.98605427      4.18577023
O      -5.51984479     -5.18769152     -2.63976076
H      -6.29961100     -4.88430530     -2.13906885
H      -5.09247400     -4.36238839     -2.94369169
O       2.98307745     -2.99279319      0.85497377
H       2.96714129     -3.96220541      0.82965103
H       2.04142161     -2.73221571      0.77294603
O       9.56882465      0.71679010     -0.29796836
H       8.73438202      1.10903238      0.02452390
H       9.41319693     -0.23954942     -0.28788553
O       6.53797151      1.44276447     -4.88782824
H       7.08571139      1.92675417     -5.52261916
H       6.87453446      1.69260057     -4.00371626
O      -4.15336743     -2.67038065     -3.36831514
H      -3.75200167     -2.60316915     -4.24781314
H      -4.58208731     -1.80749098     -3.21560254
O      -3.35897539     -6.39599426     -1.16588466
H      -4.12522788     -6.08230412     -1.68476657
H      -3.40000201     -7.36325939     -1.20472995
O       5.66070397      2.06448070      2.87682884
H       5.34072531      1.14672111      2.81779920
H       6.19909203      2.15554456      2.06869682
O       4.68143877     -0.78856606      2.16867913
H       4.16166189     -1.53317216      1.79255524
H       4.06771380     -0.34395444      2.79770216
