96
charge=1
N      -0.78252009      0.62606682      0.35623572
N      -0.86550510      2.95000061     -1.33644057
C       0.61235298      0.50865344     -3.54430510
C       0.14774145     -0.58299956     -1.41771682
C       0.30045638      1.70098335     -3.04315891
C      -0.27124971      0.61810744     -0.85826866
C       0.66614099     -0.67455864     -2.70886238
C      -2.29113567      3.15386467      2.52600642
C      -2.54322994      4.21859604      1.59859438
C      -1.69836355      1.97572012      2.06007999
C      -2.10554555      4.09868652      0.31788376
C      -1.25916558      1.83012357      0.75948888
C      -1.39999863      2.94818977     -0.14070356
N      -2.57203394      3.27126445      3.84492997
N       1.21628213     -1.83997502     -3.16417406
C       0.05478027      1.91229915     -1.57703525
C      -3.26862411      5.43020996      2.04813081
C       1.82038473     -1.93890439     -4.48878474
C       1.44766021     -2.98476760     -2.28665571
H       0.79049494      0.41139569     -4.60027470
H       0.05169662     -1.46767389     -0.81827089
H       0.21239528      2.55770834     -3.68872393
H      -1.56015208      1.15668674      2.74021692
H      -2.27190781      4.89953524     -0.38085648
H      -2.86636704      4.11740691      4.32332245
H      -2.21746895      2.58500503      4.50502313
H       1.00505137      2.25550870     -1.13250524
H      -3.46617217      6.10855891      1.21844076
H      -2.69546413      5.97470900      2.79838587
H      -4.22784508      5.15478227      2.48604562
H       1.86646478     -2.97208349     -4.82106544
H       2.82639128     -1.52613688     -4.46867420
H       1.22276402     -1.38928857     -5.20893999
H       2.10758306     -3.69979995     -2.76953423
H       1.92456071     -2.65933346     -1.36487655
H       0.50502942     -3.47351259     -2.05213950
O       1.09612064     -0.45764570     -6.97047672
H       1.13048204      0.34328897     -7.51578583
H       0.99702912     -1.19628950     -7.60183258
O       2.40875306     -3.92873314     -6.70424919
H       3.28631335     -4.07249993     -7.08952377
H       1.87467783     -3.53332434     -7.41866333
O       0.80567172      1.07575389      3.63007615
H       1.05690535      1.83819681      3.07352458
H       1.10258455      0.29791498      3.12229227
O       3.97190616     -0.00691777     -2.01794626
H       3.50534660      0.33561714     -1.23387618
H       4.35676771      0.77647936     -2.43989697
O      -0.37192015     -2.73598994      0.82743018
H      -0.35591135     -3.56611307      0.31744047
H      -1.30098718     -2.60614214      1.06881750
O       0.80880879     -2.71265312     -8.86782263
H      -0.08006405     -3.09112235     -8.93699590
H       1.13981391     -2.67329561     -9.77703435
O      -0.30996537     -5.12855510     -0.72072857
H      -0.58565309     -5.45645947     -1.59453764
H      -0.06542160     -5.92810823     -0.23045426
O       2.60614657      1.05165811      0.28239855
H       2.32449252      0.29604870      0.83266236
H       2.28557889      1.83282513      0.77080633
O       1.54007423     -5.76030909     -4.62379359
H       2.26589500     -5.66786029     -3.97791522
H       1.80868816     -5.19752005     -5.37329950
O       1.72176885     -1.15954036      1.98377399
H       2.30851650     -1.81182568      2.39477781
H       0.99656667     -1.68151764      1.59434045
O       3.64185386     -5.25951036     -2.68993385
H       4.11484564     -4.42161020     -2.52665364
H       4.18400921     -5.94472079     -2.27176971
O      -1.56126181     -1.32573401      6.84674129
H      -2.39768113     -1.79287311      6.99171571
H      -0.89108126     -1.83616272      7.32544230
O      -3.26127655      5.58899109      5.73416948
H      -2.90138894      4.90362912      6.32791962
H      -3.01842533      6.42820017      6.15347768
O      -0.96453202     -6.14408648     -3.30737176
H      -1.51779941     -6.70918753     -3.86559840
H      -0.12615627     -6.04145027     -3.79537884
O      -3.12912299      6.79330722     -0.82719504
H      -2.66737715      7.61235503     -1.06206324
H      -3.93276043      6.78441247     -1.36895749
O       1.48679259      3.33306727      1.79418383
H       1.97926628      4.12020540      2.06753658
H       0.62628267      3.65342021      1.48210186
O      -1.25278435      1.30255792      5.66638721
H      -1.36466665      0.41708867      6.05783242
H      -0.51412412      1.20445699      5.03544788
O      -5.53917097      5.81172089      3.95305586
H      -4.81165464      5.74393737      4.60187680
H      -6.34880314      5.91174597      4.47603718
O       4.93125828     -2.72798211     -2.19995284
H       5.88587112     -2.63228100     -2.06191371
H       4.57866077     -1.82101688     -2.14188006
O      -2.10636910      3.51222999      7.32687771
H      -1.80153489      2.75030919      6.79980752
H      -1.94185696      3.26667364      8.24887230
